25
Coordinates from ORCA-job biuret_cytosine_opt_freq E -787.976387012168
  N      -0.273916      4.464468      1.501490
  C      -1.258829      3.552560      1.501488
  O      -2.429112      3.928326      1.501482
  N      -0.964492      2.215892      1.501492
  C       0.102894      1.359150      1.501498
  O      -0.079477      0.143624      1.501499
  N       1.357076      1.837327      1.501502
  H      -0.569733      5.432644      1.501487
  H       0.707957      4.284784      1.501495
  H      -1.824003      1.682286      1.501489
  H       1.631601      2.797013      1.501502
  H       2.093554      1.142724      1.501507
  O       2.213400      1.118800      0.000100
  N      -0.059500      0.981600      0.000100
  N      -2.442200      0.921400      0.000100
  N       1.293500     -0.974400      0.000000
  C      -1.240600      0.267600     -0.000100
  C      -1.164300     -1.072600     -0.000200
  C       1.208800      0.405600     -0.000300
  C       0.190800     -1.647800      0.000300
  H      -0.133100      1.994600      0.000300
  H      -2.022300     -1.731700     -0.000300
  H       0.235100     -2.748700      0.000500
  H      -3.308900      0.398400      0.000300
  H      -2.453300      1.933200      0.000600
25
Coordinates from ORCA-job biuret_cytosine_opt_freq E -788.074802560737
  N      -0.285403      4.513442      1.500989
  C      -1.263857      3.582115      1.500279
  O      -2.444296      3.933697      1.477336
  N      -0.956771      2.243108      1.521022
  C       0.114653      1.373765      1.541958
  O      -0.074373      0.136000      1.567457
  N       1.372910      1.853429      1.540126
  H      -0.594541      5.476061      1.483279
  H       0.700682      4.347433      1.517888
  H      -1.806777      1.695002      1.515072
  H       1.654781      2.812972      1.528146
  H       2.100172      1.156702      1.527932
  O       2.213386      1.090332     -0.017257
  N      -0.057484      0.972161     -0.010643
  N      -2.436671      0.915554      0.010025
  N       1.291428     -1.012713     -0.035384
  C      -1.241760      0.248586      0.003042
  C      -1.169154     -1.107540     -0.017391
  C       1.215232      0.371274     -0.024463
  C       0.177583     -1.684854     -0.035574
  H      -0.141409      1.988255     -0.022607
  H      -2.030942     -1.761857     -0.023793
  H       0.221170     -2.782851     -0.051560
  H      -3.305818      0.400135      0.010302
  H      -2.441820      1.926593      0.013149
25
Coordinates from ORCA-job biuret_cytosine_opt_freq E -788.154321642791
  N      -0.288984      4.548083      1.501412
  C      -1.266298      3.606227      1.499052
  O      -2.452862      3.938553      1.451885
  N      -0.951891      2.265244      1.540601
  C       0.123825      1.386531      1.582959
  O      -0.068789      0.136371      1.634152
  N       1.380552      1.870151      1.577177
  H      -0.603582      5.507464      1.465709
  H       0.699434      4.387107      1.536605
  H      -1.793913      1.704707      1.528978
  H       1.664167      2.830757      1.552765
  H       2.105258      1.172279      1.551092
  O       2.205346      1.072384     -0.036481
  N      -0.059758      0.961664     -0.026014
  N      -2.429244      0.908691      0.016794
  N       1.287191     -1.039832     -0.067428
  C      -1.241113      0.230838      0.003715
  C      -1.169276     -1.136013     -0.032087
  C       1.216467      0.342687     -0.050331
  C       0.164714     -1.710275     -0.065793
  H      -0.155624      1.975590     -0.049267
  H      -2.034535     -1.785758     -0.041775
  H       0.211304     -2.805069     -0.093476
  H      -3.300343      0.399202      0.019034
  H      -2.431126      1.919215      0.020054
25
Coordinates from ORCA-job biuret_cytosine_opt_freq E -788.248045098844
  N      -0.288002      4.582136      1.504533
  C      -1.266198      3.633710      1.496846
  O      -2.455864      3.947110      1.410365
  N      -0.947161      2.290346      1.569906
  C       0.134944      1.403664      1.645533
  O      -0.060002      0.152857      1.733387
  N       1.386046      1.894221      1.630309
  H      -0.603838      5.538889      1.441350
  H       0.700515      4.422206      1.570565
  H      -1.781214      1.717433      1.548948
  H       1.666492      2.856339      1.586013
  H       2.112946      1.197565      1.580413
  O       2.190379      1.053937     -0.069011
  N      -0.067567      0.942936     -0.053380
  N      -2.419546      0.896487      0.022197
  N       1.278784     -1.067275     -0.112345
  C      -1.239348      0.207276      0.001519
  C      -1.166097     -1.168225     -0.049742
  C       1.212611      0.307922     -0.091216
  C       0.148048     -1.735766     -0.103910
  H      -0.178512      1.950696     -0.092270
  H      -2.036570     -1.811139     -0.059571
  H       0.202494     -2.826880     -0.143696
  H      -3.293290      0.393595      0.029474
  H      -2.419130      1.906758      0.023117
25
Coordinates from ORCA-job biuret_cytosine_opt_freq E -788.348382975723
  N      -0.282407      4.612153      1.521850
  C      -1.262027      3.661632      1.495445
  O      -2.448879      3.958642      1.343484
  N      -0.942161      2.316226      1.613123
  C       0.150618      1.429189      1.738068
  O      -0.046545      0.201043      1.869063
  N       1.393096      1.929896      1.700565
  H      -0.593502      5.566563      1.419458
  H       0.701164      4.449852      1.643119
  H      -1.770056      1.733193      1.575161
  H       1.662567      2.893305      1.622531
  H       2.125442      1.238324      1.609312
  O       2.170577      1.032600     -0.126264
  N      -0.082696      0.909010     -0.103594
  N      -2.411207      0.877339      0.017487
  N       1.264717     -1.093549     -0.171848
  C      -1.238112      0.177718     -0.013147
  C      -1.162645     -1.203868     -0.067084
  C       1.202355      0.268186     -0.156072
  C       0.127618     -1.762757     -0.144083
  H      -0.203947      1.909091     -0.160292
  H      -2.041371     -1.836057     -0.066013
  H       0.197514     -2.850737     -0.188511
  H      -3.288480      0.381908      0.036694
  H      -2.410714      1.887896      0.010878
25
Coordinates from ORCA-job biuret_cytosine_opt_freq E -788.416051416801
  N      -0.280878      4.637578      1.560426
  C      -1.254980      3.683746      1.494091
  O      -2.432259      3.968567      1.264578
  N      -0.935315      2.338610      1.653288
  C       0.169826      1.461347      1.827114
  O      -0.033586      0.264265      1.987636
  N       1.409127      1.971359      1.759418
  H      -0.586356      5.589160      1.422668
  H       0.690753      4.476892      1.756152
  H      -1.759993      1.750620      1.595134
  H       1.664186      2.933727      1.638438
  H       2.142147      1.285152      1.622853
  O       2.159899      1.005197     -0.192773
  N      -0.095944      0.868275     -0.161832
  N      -2.411356      0.855308      0.001116
  N       1.249697     -1.120343     -0.225222
  C      -1.241369      0.149808     -0.041406
  C      -1.168515     -1.236331     -0.077304
  C       1.193692      0.232537     -0.221833
  C       0.109007     -1.793089     -0.171065
  H      -0.208765      1.867698     -0.230760
  H      -2.056629     -1.855485     -0.054907
  H       0.194992     -2.879528     -0.207875
  H      -3.291038      0.365281      0.036338
  H      -2.415421      1.866445     -0.014942
25
Coordinates from ORCA-job biuret_cytosine_opt_freq E -788.460118559896
  N      -0.285494      4.670605      1.629313
  C      -1.242508      3.709320      1.489124
  O      -2.400965      3.981939      1.165652
  N      -0.922732      2.367527      1.683538
  C       0.193845      1.506603      1.902202
  O      -0.021360      0.326484      2.085152
  N       1.434608      2.023709      1.799017
  H      -0.585200      5.619545      1.463977
  H       0.659592      4.516300      1.931977
  H      -1.744153      1.776469      1.606280
  H       1.670345      2.981924      1.619682
  H       2.161660      1.340086      1.619604
  O       2.154336      0.965543     -0.264614
  N      -0.106057      0.819982     -0.225260
  N      -2.418152      0.826909     -0.022810
  N       1.233595     -1.158112     -0.269505
  C      -1.250777      0.117339     -0.079940
  C      -1.183509     -1.272420     -0.083062
  C       1.186690      0.193153     -0.282505
  C       0.090561     -1.832076     -0.187224
  H      -0.193893      1.822503     -0.303190
  H      -2.079539     -1.878432     -0.031728
  H       0.188891     -2.917461     -0.206265
  H      -3.298977      0.340702      0.030801
  H      -2.429887      1.838660     -0.050887
25
Coordinates from ORCA-job biuret_cytosine_opt_freq E -788.481212274379
  N      -0.284713      4.692111      1.691321
  C      -1.227743      3.730765      1.481427
  O      -2.363959      3.999760      1.083300
  N      -0.912936      2.392908      1.696566
  C       0.208629      1.548674      1.943035
  O      -0.013461      0.368424      2.143401
  N       1.449582      2.068539      1.815241
  H      -0.572570      5.642132      1.511694
  H       0.625663      4.535335      2.087991
  H      -1.731613      1.800286      1.606549
  H       1.665505      3.021819      1.585246
  H       2.170316      1.384910      1.610346
  O       2.146732      0.936231     -0.313031
  N      -0.115238      0.783558     -0.268979
  N      -2.425446      0.802530     -0.038567
  N       1.223973     -1.188173     -0.295422
  C      -1.261902      0.089317     -0.106061
  C      -1.194376     -1.300906     -0.085515
  C       1.178894      0.165806     -0.319877
  C       0.081902     -1.861305     -0.195174
  H      -0.182904      1.788651     -0.352794
  H      -2.091701     -1.902556     -0.012941
  H       0.185492     -2.946233     -0.199896
  H      -3.307069      0.319474      0.028687
  H      -2.440135      1.814742     -0.077216
25
Coordinates from ORCA-job biuret_cytosine_opt_freq E -788.492388140229
  N      -0.278123      4.702410      1.738214
  C      -1.213926      3.746963      1.474721
  O      -2.329497      4.018391      1.023656
  N      -0.908087      2.411205      1.702126
  C       0.215040      1.581643      1.964797
  O      -0.007805      0.400221      2.179921
  N       1.455055      2.103185      1.821588
  H      -0.550608      5.655846      1.552519
  H       0.597413      4.535727      2.205455
  H      -1.725074      1.818071      1.603443
  H       1.652290      3.051479      1.552246
  H       2.172360      1.419881      1.601935
  O       2.138123      0.918412     -0.345010
  N      -0.123422      0.758911     -0.298346
  N      -2.431909      0.783846     -0.049055
  N       1.219310     -1.208222     -0.311268
  C      -1.271556      0.067336     -0.122193
  C      -1.199832     -1.321549     -0.085446
  C       1.171045      0.148903     -0.343575
  C       0.079750     -1.880276     -0.198670
  H      -0.178919      1.765089     -0.386636
  H      -2.094630     -1.924798      0.002184
  H       0.184452     -2.965198     -0.192971
  H      -3.314149      0.303364      0.027887
  H      -2.446382      1.795957     -0.098191
25
Coordinates from ORCA-job biuret_cytosine_opt_freq E -788.505565574793
  N      -0.267561      4.717182      1.815775
  C      -1.189174      3.774717      1.464941
  O      -2.266076      4.054176      0.933554
  N      -0.901316      2.439299      1.707720
  C       0.224568      1.630885      1.989095
  O       0.005694      0.450961      2.228694
  N       1.462896      2.157446      1.822887
  H      -0.514457      5.677157      1.627666
  H       0.534697      4.530663      2.396259
  H      -1.716196      1.845967      1.597547
  H       1.624544      3.093045      1.487204
  H       2.176268      1.475530      1.584156
  O       2.124831      0.889600     -0.393086
  N      -0.135547      0.720813     -0.342347
  N      -2.440546      0.756120     -0.066412
  N       1.212672     -1.239889     -0.332268
  C      -1.285172      0.032945     -0.145612
  C      -1.206827     -1.352778     -0.082251
  C       1.158644      0.121187     -0.377236
  C       0.076640     -1.909262     -0.199669
  H      -0.174658      1.727652     -0.437606
  H      -2.096129     -1.959828      0.030534
  H       0.180021     -2.994325     -0.176380
  H      -3.324081      0.280515      0.024612
  H      -2.452814      1.767021     -0.138445
25
Coordinates from ORCA-job biuret_cytosine_opt_freq E -788.518935978083
  N      -0.235279      4.726112      1.912677
  C      -1.147806      3.817244      1.457980
  O      -2.159661      4.121262      0.824645
  N      -0.898139      2.478871      1.725297
  C       0.234640      1.697300      2.023451
  O       0.031385      0.520559      2.295511
  N       1.466306      2.243760      1.826827
  H      -0.439252      5.697026      1.728164
  H       0.428156      4.502990      2.640981
  H      -1.711982      1.887229      1.604436
  H       1.558323      3.148897      1.387604
  H       2.177473      1.567894      1.561996
  O       2.104779      0.854112     -0.453272
  N      -0.154239      0.668301     -0.402171
  N      -2.453545      0.714521     -0.090727
  N       1.205469     -1.280621     -0.360955
  C      -1.303598     -0.016140     -0.179703
  C      -1.214353     -1.396602     -0.080789
  C       1.141482      0.084452     -0.419818
  C       0.074628     -1.948324     -0.202455
  H      -0.174106      1.675797     -0.501898
  H      -2.093665     -2.010028      0.069076
  H       0.176804     -3.033116     -0.156505
  H      -3.338257      0.243938      0.014173
  H      -2.464644      1.721367     -0.205192
25
Coordinates from ORCA-job biuret_cytosine_opt_freq E -788.526312608706
  N      -0.191893      4.728807      1.940006
  C      -1.122690      3.843948      1.466702
  O      -2.097276      4.164590      0.787269
  N      -0.903089      2.503576      1.770410
  C       0.243311      1.740590      2.067581
  O       0.062501      0.565021      2.358544
  N       1.466438      2.313484      1.855920
  H      -0.375409      5.704477      1.755707
  H       0.366156      4.495789      2.750503
  H      -1.716611      1.910144      1.657576
  H       1.493946      3.181298      1.335505
  H       2.175900      1.643973      1.568115
  O       2.092393      0.830531     -0.484846
  N      -0.168040      0.632973     -0.447512
  N      -2.462907      0.685638     -0.108389
  N       1.199954     -1.307695     -0.389744
  C      -1.316968     -0.049392     -0.211726
  C      -1.220655     -1.426350     -0.093753
  C       1.130489      0.059725     -0.448762
  C       0.071837     -1.974782     -0.218389
  H      -0.174282      1.641616     -0.538237
  H      -2.091750     -2.044234      0.082983
  H       0.172467     -3.059416     -0.162717
  H      -3.348909      0.216879     -0.005894
  H      -2.473992      1.685610     -0.267523
25
Coordinates from ORCA-job biuret_cytosine_opt_freq E -788.530599257592
  N      -0.173660      4.747528      1.918758
  C      -1.117457      3.851164      1.483192
  O      -2.090954      4.158081      0.798770
  N      -0.898064      2.516047      1.833099
  C       0.265303      1.761958      2.112598
  O       0.104766      0.587994      2.414278
  N       1.484012      2.352120      1.899152
  H      -0.382574      5.717600      1.727704
  H       0.334127      4.545381      2.770029
  H      -1.710257      1.915209      1.746369
  H       1.479350      3.189861      1.329293
  H       2.186485      1.681060      1.596854
  O       2.093289      0.800953     -0.497418
  N      -0.171718      0.612473     -0.483446
  N      -2.465766      0.676997     -0.118493
  N       1.189673     -1.332567     -0.417721
  C      -1.324419     -0.062846     -0.240926
  C      -1.231685     -1.439360     -0.117151
  C       1.126672      0.035762     -0.469678
  C       0.058708     -1.993584     -0.243267
  H      -0.165518      1.622446     -0.557592
  H      -2.100843     -2.054999      0.076011
  H       0.152464     -3.078792     -0.186491
  H      -3.353577      0.207846     -0.034050
  H      -2.477438      1.668467     -0.320543
25
Coordinates from ORCA-job biuret_cytosine_opt_freq E -788.533538785131
  N      -0.160145      4.757731      1.856494
  C      -1.122064      3.838581      1.504141
  O      -2.110360      4.113317      0.829219
  N      -0.889194      2.520725      1.914442
  C       0.288090      1.771693      2.167341
  O       0.149107      0.598341      2.474736
  N       1.500932      2.380399      1.958712
  H      -0.402496      5.715223      1.638773
  H       0.342590      4.612256      2.723220
  H      -1.699835      1.912497      1.860405
  H       1.483968      3.199595      1.361276
  H       2.198817      1.707231      1.649856
  O       2.095086      0.779586     -0.493788
  N      -0.173491      0.606083     -0.510311
  N      -2.470361      0.676205     -0.118999
  N       1.178159     -1.347591     -0.444596
  C      -1.330779     -0.063309     -0.266505
  C      -1.243780     -1.441811     -0.151749
  C       1.124048      0.020558     -0.482368
  C       0.042923     -2.003466     -0.278317
  H      -0.160036      1.617525     -0.562158
  H      -2.114353     -2.054458      0.044897
  H       0.130348     -3.089553     -0.229192
  H      -3.357176      0.199454     -0.070978
  H      -2.489078      1.659985     -0.355221
25
Coordinates from ORCA-job biuret_cytosine_opt_freq E -788.535448217237
  N      -0.160307      4.761478      1.787636
  C      -1.124202      3.812610      1.516760
  O      -2.136171      4.047188      0.862122
  N      -0.872604      2.523889      1.998540
  C       0.314392      1.778587      2.222572
  O       0.195916      0.606207      2.537381
  N       1.520428      2.404960      2.015877
  H      -0.438176      5.701169      1.534438
  H       0.354025      4.680994      2.656960
  H      -1.681152      1.910267      1.975155
  H       1.502690      3.213176      1.402898
  H       2.219075      1.730026      1.711760
  O       2.095340      0.760404     -0.484847
  N      -0.174750      0.605509     -0.530483
  N      -2.473445      0.681334     -0.114555
  N       1.163980     -1.359977     -0.467511
  C      -1.336270     -0.058062     -0.286607
  C      -1.258199     -1.439559     -0.187868
  C       1.120691      0.007613     -0.490543
  C       0.023404     -2.010512     -0.314559
  H      -0.157846      1.617932     -0.561791
  H      -2.133747     -2.047106      0.003349
  H       0.104558     -3.097447     -0.277134
  H      -3.358097      0.196914     -0.114131
  H      -2.498611      1.659203     -0.376087
25
Coordinates from ORCA-job biuret_cytosine_opt_freq E -788.536560756766
  N      -0.159204      4.748024      1.721057
  C      -1.123210      3.778363      1.528581
  O      -2.140808      3.966575      0.867074
  N      -0.858184      2.526008      2.084881
  C       0.336116      1.785702      2.280696
  O       0.238343      0.613922      2.603077
  N       1.533272      2.430335      2.071016
  H      -0.449261      5.665336      1.406235
  H       0.364283      4.737022      2.588702
  H      -1.664238      1.908829      2.079998
  H       1.514934      3.232730      1.450462
  H       2.240504      1.758803      1.779728
  O       2.088614      0.755357     -0.473778
  N      -0.180980      0.610984     -0.541540
  N      -2.480435      0.684822     -0.104621
  N       1.150537     -1.362091     -0.491239
  C      -1.343971     -0.051914     -0.299926
  C      -1.271690     -1.435909     -0.223326
  C       1.113573      0.005133     -0.495812
  C       0.006897     -2.011430     -0.354125
  H      -0.165134      1.624030     -0.554561
  H      -2.151702     -2.040615     -0.043175
  H       0.085732     -3.098876     -0.333182
  H      -3.361634      0.194715     -0.151685
  H      -2.511433      1.660943     -0.375206
25
Coordinates from ORCA-job biuret_cytosine_opt_freq E -788.537288496186
  N      -0.174341      4.744709      1.680889
  C      -1.111714      3.743689      1.522308
  O      -2.128494      3.883471      0.845733
  N      -0.837527      2.532040      2.156483
  C       0.363026      1.795584      2.329984
  O       0.280435      0.626252      2.665187
  N       1.553204      2.450125      2.109459
  H      -0.477135      5.635594      1.307781
  H       0.334661      4.795395      2.555521
  H      -1.640051      1.909975      2.161397
  H       1.535218      3.246545      1.482201
  H       2.271754      1.782246      1.840368
  O       2.082201      0.745009     -0.468164
  N      -0.186555      0.612525     -0.548717
  N      -2.484754      0.690219     -0.097132
  N       1.135167     -1.368798     -0.513022
  C      -1.351206     -0.048275     -0.309348
  C      -1.287232     -1.434003     -0.252453
  C       1.105870     -0.001643     -0.501881
  C      -0.012054     -2.014999     -0.388825
  H      -0.170225      1.625665     -0.551279
  H      -2.172725     -2.033811     -0.082746
  H       0.063136     -3.102809     -0.383390
  H      -3.365751      0.203034     -0.179368
  H      -2.513989      1.669059     -0.361655
25
Coordinates from ORCA-job biuret_cytosine_opt_freq E -788.538097481779
  N      -0.180251      4.722183      1.631496
  C      -1.092980      3.696993      1.508576
  O      -2.081181      3.770461      0.778446
  N      -0.822556      2.538863      2.238491
  C       0.384301      1.806817      2.392717
  O       0.317654      0.639813      2.741042
  N       1.564411      2.471343      2.156006
  H      -0.466402      5.575408      1.168971
  H       0.302213      4.843854      2.513553
  H      -1.619534      1.909356      2.242104
  H       1.542971      3.266204      1.527998
  H       2.301289      1.814320      1.916056
  O       2.066933      0.754307     -0.460648
  N      -0.200040      0.622422     -0.545154
  N      -2.497075      0.690745     -0.082602
  N       1.120912     -1.360058     -0.543513
  C      -1.363628     -0.043231     -0.313801
  C      -1.301657     -1.430014     -0.286490
  C       1.092532      0.006965     -0.506947
  C      -0.026641     -2.008654     -0.435181
  H      -0.186902      1.635511     -0.537761
  H      -2.189647     -2.029862     -0.130702
  H       0.049645     -3.096255     -0.453374
  H      -3.378932      0.209395     -0.190315
  H      -2.524514      1.679913     -0.309638
25
Coordinates from ORCA-job biuret_cytosine_opt_freq E -788.539022723204
  N      -0.202295      4.705619      1.588963
  C      -1.056913      3.637687      1.469597
  O      -1.986494      3.618256      0.659763
  N      -0.804337      2.551679      2.315431
  C       0.408980      1.821015      2.460876
  O       0.350966      0.659373      2.829823
  N       1.580318      2.484612      2.198577
  H      -0.456268      5.508193      1.028606
  H       0.223658      4.900226      2.485927
  H      -1.590945      1.908983      2.309414
  H       1.557278      3.280601      1.574248
  H       2.339178      1.841454      2.001274
  O       2.047862      0.768853     -0.456024
  N      -0.217258      0.634801     -0.530463
  N      -2.511037      0.691713     -0.066678
  N       1.103875     -1.346097     -0.580331
  C      -1.379774     -0.037224     -0.313442
  C      -1.319006     -1.424536     -0.322507
  C       1.075001      0.020426     -0.512538
  C      -0.043637     -1.997615     -0.488477
  H      -0.207459      1.647547     -0.520494
  H      -2.208569     -2.025622     -0.181986
  H       0.033889     -3.084354     -0.535392
  H      -3.398599      0.223856     -0.182486
  H      -2.527494      1.697352     -0.212352
25
Coordinates from ORCA-job biuret_cytosine_opt_freq E -788.539665678563
  N      -0.200488      4.717358      1.600996
  C      -1.020817      3.635567      1.435162
  O      -1.890654      3.586297      0.562583
  N      -0.805916      2.568530      2.321319
  C       0.405085      1.832010      2.481858
  O       0.339406      0.677630      2.869270
  N       1.575001      2.482219      2.201155
  H      -0.405602      5.510327      1.008506
  H       0.185120      4.912061      2.515323
  H      -1.587388      1.922560      2.296504
  H       1.552439      3.282573      1.583804
  H       2.345836      1.847185      2.033241
  O       2.027982      0.789580     -0.463845
  N      -0.236320      0.634971     -0.513636
  N      -2.528696      0.666124     -0.064465
  N       1.101253     -1.332072     -0.600369
  C      -1.394430     -0.049747     -0.309454
  C      -1.320869     -1.436648     -0.335894
  C       1.059409      0.033951     -0.517460
  C      -0.040389     -1.994318     -0.512505
  H      -0.235738      1.647771     -0.514718
  H      -2.204177     -2.047805     -0.200327
  H       0.045815     -3.080002     -0.572083
  H      -3.418050      0.199788     -0.160632
  H      -2.536892      1.680887     -0.125003
25
Coordinates from ORCA-job biuret_cytosine_opt_freq E -788.540000279526
  N      -0.219715      4.726866      1.601030
  C      -1.020713      3.634566      1.423203
  O      -1.873137      3.565980      0.535668
  N      -0.803092      2.571302      2.315910
  C       0.410369      1.834884      2.489526
  O       0.333598      0.686305      2.890359
  N       1.582945      2.472626      2.198714
  H      -0.418270      5.520117      1.006735
  H       0.166588      4.914742      2.516393
  H      -1.579581      1.918389      2.298084
  H       1.565921      3.274153      1.583097
  H       2.354909      1.835414      2.045025
  O       2.024890      0.792959     -0.471217
  N      -0.240288      0.633996     -0.501896
  N      -2.527666      0.669858     -0.074396
  N       1.099685     -1.329379     -0.606396
  C      -1.398769     -0.051636     -0.308073
  C      -1.323385     -1.439312     -0.339511
  C       1.055628      0.036662     -0.519602
  C      -0.041901     -1.993419     -0.518431
  H      -0.242208      1.646327     -0.512595
  H      -2.204132     -2.053865     -0.202246
  H       0.044917     -3.079035     -0.579408
  H      -3.421805      0.211691     -0.153659
  H      -2.513870      1.686606     -0.096983
25
Coordinates from ORCA-job biuret_cytosine_opt_freq E -788.540292184035
  N      -0.216666      4.724836      1.588417
  C      -1.023878      3.636557      1.415056
  O      -1.882845      3.569139      0.533387
  N      -0.803049      2.575111      2.309965
  C       0.409661      1.837988      2.501192
  O       0.322280      0.695411      2.916679
  N       1.584058      2.467553      2.203987
  H      -0.413927      5.524044      1.001766
  H       0.187369      4.900380      2.498580
  H      -1.577181      1.917758      2.308188
  H       1.570726      3.266379      1.584523
  H       2.354043      1.825947      2.058066
  O       2.020789      0.802761     -0.479091
  N      -0.245052      0.635183     -0.490903
  N      -2.534537      0.667582     -0.088372
  N       1.102709     -1.321477     -0.610722
  C      -1.404406     -0.053706     -0.310151
  C      -1.321198     -1.441965     -0.345519
  C       1.052749      0.044093     -0.521641
  C      -0.037056     -1.989692     -0.523003
  H      -0.252420      1.647700     -0.509239
  H      -2.196837     -2.063799     -0.208039
  H       0.053010     -3.074991     -0.584654
  H      -3.429418      0.209324     -0.150606
  H      -2.508004      1.684684     -0.078534
25
Coordinates from ORCA-job biuret_cytosine_opt_freq E -788.540696444309
  N      -0.209943      4.706483      1.541327
  C      -1.027140      3.619085      1.407311
  O      -1.899514      3.533582      0.539765
  N      -0.795614      2.581359      2.324971
  C       0.416649      1.845323      2.540361
  O       0.318555      0.714166      2.983309
  N       1.592702      2.466302      2.233533
  H      -0.412464      5.497042      0.944979
  H       0.212142      4.895742      2.440517
  H      -1.565242      1.918410      2.358414
  H       1.583227      3.253440      1.599292
  H       2.359541      1.817854      2.100395
  O       2.013362      0.820226     -0.488618
  N      -0.252713      0.643784     -0.474831
  N      -2.548372      0.669321     -0.109939
  N       1.103297     -1.305636     -0.623343
  C      -1.414418     -0.049093     -0.318072
  C      -1.321541     -1.437668     -0.365567
  C       1.047181      0.058947     -0.526146
  C      -0.034743     -1.978269     -0.541308
  H      -0.267636      1.656316     -0.499810
  H      -2.191672     -2.068919     -0.235535
  H       0.058779     -3.062911     -0.608273
  H      -3.441652      0.206957     -0.153457
  H      -2.511851      1.684956     -0.049947
25
Coordinates from ORCA-job biuret_cytosine_opt_freq E -788.541178196416
  N      -0.182997      4.688104      1.496341
  C      -1.030203      3.615979      1.410939
  O      -1.935881      3.538340      0.577588
  N      -0.788324      2.590591      2.332780
  C       0.419554      1.856507      2.580267
  O       0.310608      0.742357      3.060170
  N       1.599919      2.467190      2.266073
  H      -0.397589      5.475880      0.900401
  H       0.259312      4.889016      2.383530
  H      -1.557956      1.932343      2.410578
  H       1.592648      3.229809      1.602129
  H       2.358776      1.807065      2.141693
  O       2.002711      0.841222     -0.505320
  N      -0.262655      0.649653     -0.460796
  N      -2.568004      0.658169     -0.145520
  N       1.106871     -1.289661     -0.632979
  C      -1.424995     -0.050726     -0.332257
  C      -1.318026     -1.438578     -0.386296
  C       1.040800      0.074279     -0.533693
  C      -0.027069     -1.969737     -0.555648
  H      -0.288682      1.662108     -0.494541
  H      -2.181809     -2.081269     -0.269524
  H       0.073166     -3.053670     -0.623972
  H      -3.454147      0.181008     -0.161563
  H      -2.535105      1.670819     -0.041050
25
Coordinates from ORCA-job biuret_cytosine_opt_freq E -788.541792217962
  N      -0.157282      4.648993      1.424559
  C      -1.021470      3.584952      1.411708
  O      -1.945569      3.482448      0.600291
  N      -0.773812      2.602668      2.371146
  C       0.431985      1.876198      2.651300
  O       0.318584      0.785602      3.181726
  N       1.614641      2.476579      2.320820
  H      -0.380323      5.406422      0.793295
  H       0.284032      4.902928      2.298878
  H      -1.543032      1.952122      2.496159
  H       1.606166      3.201625      1.615412
  H       2.370281      1.808928      2.218255
  O       1.983514      0.872232     -0.520618
  N      -0.278593      0.663573     -0.441361
  N      -2.590792      0.651563     -0.183256
  N       1.103337     -1.265041     -0.652347
  C      -1.439412     -0.046037     -0.349539
  C      -1.321416     -1.432256     -0.422592
  C       1.027803      0.097786     -0.542445
  C      -0.026442     -1.953283     -0.588327
  H      -0.316398      1.675498     -0.481974
  H      -2.181967     -2.083595     -0.331892
  H       0.081321     -3.035703     -0.667745
  H      -3.467418      0.157260     -0.171821
  H      -2.566817      1.655335     -0.010301
25
Coordinates from ORCA-job biuret_cytosine_opt_freq E -788.542526463222
  N      -0.123201      4.611282      1.367774
  C      -1.011714      3.566402      1.424868
  O      -1.963135      3.459774      0.645332
  N      -0.761469      2.612896      2.404987
  C       0.442270      1.900289      2.716099
  O       0.331085      0.838500      3.302859
  N       1.628001      2.489370      2.367636
  H      -0.360107      5.339357      0.707084
  H       0.319522      4.916629      2.225336
  H      -1.538231      1.982033      2.570213
  H       1.616145      3.160437      1.609418
  H       2.381265      1.815355      2.290358
  O       1.962224      0.903333     -0.538371
  N      -0.295223      0.673227     -0.425924
  N      -2.612724      0.637196     -0.230316
  N       1.100628     -1.243547     -0.664989
  C      -1.450990     -0.048188     -0.369001
  C      -1.324253     -1.431841     -0.456439
  C       1.014745      0.118635     -0.551099
  C      -0.023711     -1.941863     -0.615217
  H      -0.344751      1.684256     -0.474192
  H      -2.184431     -2.087340     -0.398108
  H       0.094542     -3.022499     -0.703442
  H      -3.476916      0.122584     -0.180903
  H      -2.608651      1.630522     -0.004632
25
Coordinates from ORCA-job biuret_cytosine_opt_freq E -788.543187057066
  N      -0.098427      4.571078      1.315929
  C      -0.997054      3.539784      1.431762
  O      -1.960403      3.412847      0.668773
  N      -0.749249      2.623143      2.445409
  C       0.454239      1.929196      2.785711
  O       0.349708      0.900886      3.432623
  N       1.639735      2.504380      2.408639
  H      -0.339460      5.261329      0.616810
  H       0.349659      4.924729      2.152081
  H      -1.534324      2.012956      2.638849
  H       1.625207      3.115096      1.600048
  H       2.397889      1.832368      2.374856
  O       1.936931      0.936716     -0.551977
  N      -0.315298      0.684200     -0.408817
  N      -2.634171      0.625829     -0.275734
  N       1.094772     -1.219272     -0.678193
  C      -1.463815     -0.049403     -0.386482
  C      -1.330190     -1.430397     -0.494115
  C       0.998034      0.141608     -0.557000
  C      -0.023774     -1.927983     -0.646402
  H      -0.375172      1.694020     -0.465202
  H      -2.191142     -2.086728     -0.469092
  H       0.106094     -3.006123     -0.747614
  H      -3.485259      0.094441     -0.185599
  H      -2.643609      1.602097      0.014070
25
Coordinates from ORCA-job biuret_cytosine_opt_freq E -788.543809249444
  N      -0.081455      4.544611      1.286086
  C      -0.988294      3.527313      1.443124
  O      -1.966247      3.393289      0.699793
  N      -0.739684      2.628153      2.474431
  C       0.464548      1.957376      2.839538
  O       0.371620      0.964416      3.542775
  N       1.647978      2.517585      2.429711
  H      -0.329375      5.212549      0.567868
  H       0.394006      4.916449      2.098692
  H      -1.536732      2.038429      2.682722
  H       1.632636      3.060141      1.573174
  H       2.413695      1.853744      2.449315
  O       1.915668      0.962369     -0.563319
  N      -0.332981      0.689618     -0.399967
  N      -2.654049      0.613437     -0.322120
  N       1.091138     -1.201632     -0.683593
  C      -1.473954     -0.054928     -0.403711
  C      -1.334427     -1.433713     -0.524590
  C       0.984301      0.158308     -0.561036
  C      -0.021828     -1.920075     -0.666725
  H      -0.400630      1.698399     -0.463288
  H      -2.196636     -2.088529     -0.525929
  H       0.119777     -2.996040     -0.775221
  H      -3.493385      0.070534     -0.188678
  H      -2.674772      1.574996      0.010278
25
Coordinates from ORCA-job biuret_cytosine_opt_freq E -788.544457450495
  N      -0.077160      4.525965      1.266434
  C      -0.981316      3.514105      1.448332
  O      -1.964933      3.364443      0.715643
  N      -0.729581      2.630691      2.498143
  C       0.475774      1.984987      2.887554
  O       0.396437      1.028275      3.642202
  N       1.654227      2.527888      2.439549
  H      -0.328018      5.182058      0.538775
  H       0.438098      4.892472      2.056210
  H      -1.534078      2.054245      2.712555
  H       1.641003      3.002423      1.543244
  H       2.430108      1.881783      2.524240
  O       1.895997      0.983812     -0.569999
  N      -0.350819      0.694250     -0.397270
  N      -2.673290      0.605000     -0.362796
  N       1.086915     -1.185818     -0.687689
  C      -1.485196     -0.058648     -0.420509
  C      -1.338706     -1.435852     -0.550941
  C       0.970402      0.173211     -0.563875
  C      -0.021006     -1.912509     -0.682388
  H      -0.424413      1.702280     -0.465045
  H      -2.200620     -2.090569     -0.568344
  H       0.130575     -2.986720     -0.794628
  H      -3.503429      0.055807     -0.195784
  H      -2.696051      1.553220      0.005714
25
Coordinates from ORCA-job biuret_cytosine_opt_freq E -788.545368440218
  N      -0.086719      4.524495      1.270685
  C      -0.982575      3.512068      1.457262
  O      -1.974959      3.357252      0.738631
  N      -0.719248      2.622327      2.508075
  C       0.489268      2.011880      2.921634
  O       0.432339      1.094258      3.724849
  N       1.659235      2.535171      2.427817
  H      -0.345798      5.195280      0.560420
  H       0.499066      4.842110      2.030902
  H      -1.530494      2.050956      2.716000
  H       1.650997      2.922390      1.490435
  H       2.448139      1.922869      2.596313
  O       1.881353      0.997875     -0.571148
  N      -0.366839      0.694269     -0.411894
  N      -2.692769      0.596931     -0.402000
  N       1.085179     -1.176001     -0.682878
  C      -1.495904     -0.064599     -0.440559
  C      -1.341030     -1.441175     -0.566675
  C       0.959586      0.183007     -0.565651
  C      -0.018281     -1.910101     -0.682636
  H      -0.443983      1.702140     -0.477829
  H      -2.201401     -2.097707     -0.586817
  H       0.142145     -2.983645     -0.788528
  H      -3.521120      0.050069     -0.213174
  H      -2.715268      1.544679     -0.033903
25
Coordinates from ORCA-job biuret_cytosine_opt_freq E -788.546467430368
  N      -0.091924      4.500762      1.253146
  C      -0.981802      3.492701      1.457575
  O      -1.985461      3.327250      0.757401
  N      -0.705188      2.612463      2.518401
  C       0.503024      2.044670      2.975251
  O       0.463713      1.180898      3.838088
  N       1.663907      2.538307      2.427965
  H      -0.352241      5.183787      0.556285
  H       0.571722      4.763167      1.968286
  H      -1.512499      2.042500      2.738925
  H       1.659500      2.813532      1.451840
  H       2.462427      1.973088      2.689146
  O       1.854604      1.031147     -0.575040
  N      -0.392052      0.704975     -0.424424
  N      -2.716682      0.592613     -0.446557
  N       1.081797     -1.149068     -0.684604
  C      -1.514086     -0.060312     -0.465767
  C      -1.341595     -1.436090     -0.586129
  C       0.939631      0.208777     -0.571303
  C      -0.014406     -1.893245     -0.687924
  H      -0.478073      1.712874     -0.488017
  H      -2.193420     -2.103851     -0.605958
  H       0.155896     -2.965988     -0.785706
  H      -3.535645      0.040206     -0.237330
  H      -2.730226      1.531634     -0.054220
25
Coordinates from ORCA-job biuret_cytosine_opt_freq E -788.547785579296
  N      -0.113339      4.481998      1.253633
  C      -0.994773      3.472407      1.461217
  O      -2.016181      3.311670      0.785735
  N      -0.694614      2.578429      2.505825
  C       0.516447      2.064273      3.003816
  O       0.500747      1.247302      3.908520
  N       1.669183      2.533686      2.412552
  H      -0.374578      5.193412      0.587508
  H       0.641466      4.658632      1.901382
  H      -1.490721      1.993685      2.733781
  H       1.671795      2.678093      1.407581
  H       2.476906      2.031641      2.762064
  O       1.839519      1.064850     -0.562766
  N      -0.408843      0.720353     -0.461493
  N      -2.734935      0.599969     -0.467506
  N       1.083383     -1.120347     -0.673585
  C      -1.529072     -0.046664     -0.488940
  C      -1.338182     -1.422553     -0.581015
  C       0.927823      0.237135     -0.573775
  C      -0.007815     -1.871862     -0.669419
  H      -0.501109      1.728842     -0.508307
  H      -2.177817     -2.106386     -0.582083
  H       0.167864     -2.945320     -0.747448
  H      -3.557722      0.048220     -0.273322
  H      -2.744511      1.555334     -0.114624
25
Coordinates from ORCA-job biuret_cytosine_opt_freq E -788.549029241880
  N      -0.111482      4.436661      1.222113
  C      -0.998141      3.438986      1.459214
  O      -2.039441      3.285997      0.810689
  N      -0.687429      2.552318      2.500116
  C       0.522480      2.081056      3.039382
  O       0.516817      1.309069      3.983889
  N       1.673951      2.530360      2.420760
  H      -0.364533      5.144385      0.549604
  H       0.690398      4.577779      1.821037
  H      -1.472118      1.965045      2.756405
  H       1.679084      2.560223      1.403695
  H       2.484654      2.070799      2.821057
  O       1.817659      1.113118     -0.553802
  N      -0.426463      0.745440     -0.478512
  N      -2.751092      0.606686     -0.482592
  N       1.083628     -1.079827     -0.670243
  C      -1.544212     -0.027940     -0.505642
  C      -1.335262     -1.402453     -0.583378
  C       0.913234      0.275677     -0.575557
  C      -0.001430     -1.840421     -0.665873
  H      -0.529202      1.753811     -0.514039
  H      -2.162062     -2.102112     -0.581205
  H       0.181600     -2.913233     -0.735158
  H      -3.566134      0.043265     -0.294030
  H      -2.763584      1.562110     -0.128598
25
Coordinates from ORCA-job biuret_cytosine_opt_freq E -788.550660781699
  N      -0.108741      4.368255      1.182263
  C      -1.003715      3.386857      1.451918
  O      -2.068963      3.256634      0.832383
  N      -0.689149      2.501647      2.475665
  C       0.523444      2.088636      3.061560
  O       0.526956      1.369586      4.045902
  N       1.678403      2.521674      2.423695
  H      -0.339087      5.050511      0.476845
  H       0.738454      4.472397      1.725681
  H      -1.457087      1.912628      2.770525
  H       1.690030      2.393670      1.408470
  H       2.495153      2.116449      2.870222
  O       1.792055      1.187805     -0.516757
  N      -0.443324      0.790677     -0.508158
  N      -2.764121      0.621963     -0.466489
  N       1.086841     -1.016122     -0.655850
  C      -1.559083      0.006016     -0.514475
  C      -1.328559     -1.366010     -0.571942
  C       0.897988      0.335472     -0.566842
  C       0.009688     -1.788539     -0.653823
  H      -0.559931      1.798057     -0.519687
  H      -2.137617     -2.086396     -0.565170
  H       0.202399     -2.860089     -0.715416
  H      -3.574430      0.040835     -0.321451
  H      -2.796684      1.584184     -0.129737
25
Coordinates from ORCA-job biuret_cytosine_opt_freq E -788.551442598028
  N      -0.104160      4.329014      1.157798
  C      -0.996462      3.357203      1.452279
  O      -2.074908      3.231532      0.851271
  N      -0.678189      2.475576      2.477571
  C       0.531691      2.109195      3.094077
  O       0.546285      1.451854      4.125324
  N       1.682235      2.514162      2.422640
  H      -0.334646      4.981924      0.425721
  H       0.779197      4.404240      1.644855
  H      -1.447060      1.899029      2.791218
  H       1.698066      2.260308      1.428523
  H       2.501216      2.174378      2.922523
  O       1.767017      1.232932     -0.494946
  N      -0.460386      0.814881     -0.520975
  N      -2.778401      0.625363     -0.477190
  N       1.085701     -0.979493     -0.650079
  C      -1.568386      0.018983     -0.525968
  C      -1.327949     -1.351510     -0.586197
  C       0.883436      0.368976     -0.559855
  C       0.014899     -1.761783     -0.661598
  H      -0.585491      1.821995     -0.522053
  H      -2.132682     -2.076571     -0.589118
  H       0.218523     -2.831101     -0.726458
  H      -3.584843      0.035870     -0.339886
  H      -2.823785      1.579839     -0.120145
25
Coordinates from ORCA-job biuret_cytosine_opt_freq E -788.552330628190
  N      -0.089848      4.306023      1.150671
  C      -0.995240      3.348433      1.443708
  O      -2.078828      3.256057      0.839268
  N      -0.702176      2.451865      2.460085
  C       0.521612      2.096264      3.071975
  O       0.523581      1.463843      4.114945
  N       1.675052      2.497617      2.405616
  H      -0.289607      4.899903      0.360691
  H       0.801932      4.368623      1.625024
  H      -1.486182      1.903953      2.788987
  H       1.697578      2.209591      1.416160
  H       2.500141      2.178644      2.901934
  O       1.755986      1.268340     -0.430343
  N      -0.461454      0.842621     -0.525159
  N      -2.773276      0.622683     -0.423408
  N       1.092188     -0.947913     -0.634435
  C      -1.560103      0.030149     -0.505011
  C      -1.318804     -1.339773     -0.586023
  C       0.880983      0.395598     -0.529643
  C       0.026658     -1.738370     -0.670136
  H      -0.592509      1.847432     -0.513778
  H      -2.125362     -2.062056     -0.598319
  H       0.241189     -2.804157     -0.754772
  H      -3.582608      0.026127     -0.345199
  H      -2.849982      1.565300     -0.043508
25
Coordinates from ORCA-job biuret_cytosine_opt_freq E -788.553005970754
  N      -0.094309      4.309819      1.148393
  C      -0.992683      3.346658      1.440380
  O      -2.074215      3.240233      0.835527
  N      -0.693112      2.451938      2.466376
  C       0.526777      2.103929      3.084915
  O       0.524984      1.499921      4.146238
  N       1.675954      2.483623      2.403152
  H      -0.302235      4.896394      0.354949
  H       0.813390      4.349634      1.593288
  H      -1.486306      1.921232      2.799869
  H       1.700084      2.191428      1.415938
  H       2.499192      2.187858      2.918257
  O       1.751632      1.269024     -0.413250
  N      -0.466734      0.842456     -0.518601
  N      -2.776336      0.623479     -0.431301
  N       1.091883     -0.945265     -0.637851
  C      -1.559134      0.027460     -0.505283
  C      -1.318204     -1.342375     -0.601787
  C       0.877776      0.396468     -0.521956
  C       0.027735     -1.738232     -0.683620
  H      -0.598902      1.846973     -0.511369
  H      -2.128882     -2.059793     -0.614952
  H       0.246244     -2.802324     -0.778010
  H      -3.587256      0.029750     -0.342874
  H      -2.846426      1.556511     -0.027097
25
Coordinates from ORCA-job biuret_cytosine_opt_freq E -788.553655111039
  N      -0.093542      4.312367      1.145143
  C      -0.998582      3.349392      1.430817
  O      -2.086825      3.253386      0.838290
  N      -0.689946      2.443266      2.449584
  C       0.523182      2.099236      3.080890
  O       0.505182      1.522829      4.156622
  N       1.672192      2.456580      2.394335
  H      -0.303127      4.907773      0.358287
  H       0.831625      4.307956      1.555599
  H      -1.494464      1.942402      2.805082
  H       1.703014      2.182052      1.402995
  H       2.491949      2.160848      2.912085
  O       1.750167      1.275852     -0.377097
  N      -0.471664      0.846323     -0.511037
  N      -2.777513      0.622103     -0.424758
  N       1.096916     -0.932241     -0.640779
  C      -1.556782      0.027162     -0.498210
  C      -1.309511     -1.341607     -0.606054
  C       0.875998      0.405854     -0.507898
  C       0.036530     -1.731028     -0.692024
  H      -0.609457      1.849874     -0.507846
  H      -2.119123     -2.060407     -0.609145
  H       0.260828     -2.792780     -0.796925
  H      -3.587141      0.028388     -0.327883
  H      -2.838989      1.551217     -0.010741
25
Coordinates from ORCA-job biuret_cytosine_opt_freq E -788.554031965136
  N      -0.086800      4.301585      1.133696
  C      -0.995718      3.338980      1.419256
  O      -2.083657      3.241790      0.829068
  N      -0.684516      2.434745      2.437642
  C       0.521635      2.102726      3.087591
  O       0.491945      1.567824      4.184611
  N       1.671425      2.435866      2.394619
  H      -0.286972      4.887237      0.336920
  H       0.844074      4.276520      1.531750
  H      -1.495066      1.967217      2.822119
  H       1.703930      2.154057      1.404372
  H       2.491504      2.144711      2.915940
  O       1.739119      1.292741     -0.337125
  N      -0.482093      0.855586     -0.509193
  N      -2.785048      0.616896     -0.417449
  N       1.097950     -0.910587     -0.649205
  C      -1.561042      0.028888     -0.496835
  C      -1.304548     -1.337781     -0.612678
  C       0.868113      0.423084     -0.495941
  C       0.043050     -1.717483     -0.707020
  H      -0.628102      1.858271     -0.506134
  H      -2.109863     -2.061550     -0.610927
  H       0.275168     -2.776088     -0.825043
  H      -3.589878      0.017407     -0.314647
  H      -2.843689      1.544155      0.003943
25
Coordinates from ORCA-job biuret_cytosine_opt_freq E -788.554317465180
  N      -0.075428      4.302050      1.133232
  C      -0.990021      3.341595      1.417497
  O      -2.077812      3.249566      0.828892
  N      -0.680375      2.437819      2.434539
  C       0.523375      2.111396      3.093944
  O       0.486048      1.610596      4.206298
  N       1.673971      2.427332      2.398655
  H      -0.265213      4.890372      0.335810
  H       0.850226      4.278008      1.543710
  H      -1.497716      2.000459      2.841887
  H       1.706652      2.151492      1.406213
  H       2.494220      2.126420      2.913447
  O       1.727399      1.295114     -0.311918
  N      -0.492231      0.851899     -0.512252
  N      -2.793703      0.600275     -0.419504
  N       1.095973     -0.904288     -0.662456
  C      -1.566932      0.018962     -0.503009
  C      -1.303302     -1.345531     -0.620676
  C       0.859690      0.426417     -0.492260
  C       0.046016     -1.717625     -0.723364
  H      -0.645124      1.853524     -0.509222
  H      -2.104712     -2.073772     -0.618924
  H       0.284341     -2.773594     -0.851431
  H      -3.592754     -0.004151     -0.301243
  H      -2.851667      1.532461     -0.008534
25
Coordinates from ORCA-job biuret_cytosine_opt_freq E -788.554546819447
  N      -0.065836      4.289079      1.125683
  C      -0.977952      3.329910      1.416127
  O      -2.062507      3.229665      0.822855
  N      -0.670802      2.438178      2.442512
  C       0.531220      2.132086      3.116615
  O       0.495843      1.675339      4.248202
  N       1.680317      2.426475      2.410411
  H      -0.244196      4.866245      0.318137
  H       0.855544      4.271860      1.545195
  H      -1.487639      2.019312      2.868241
  H       1.704359      2.127207      1.423805
  H       2.503630      2.135697      2.928356
  O       1.707262      1.304216     -0.287092
  N      -0.506838      0.852849     -0.523050
  N      -2.805472      0.587158     -0.424065
  N       1.090054     -0.893064     -0.675795
  C      -1.577916      0.013274     -0.516025
  C      -1.305992     -1.348852     -0.633439
  C       0.845507      0.434682     -0.490843
  C       0.045522     -1.712336     -0.742339
  H      -0.666895      1.853426     -0.512048
  H      -2.101447     -2.083670     -0.636544
  H       0.289976     -2.765789     -0.879065
  H      -3.600618     -0.020921     -0.300663
  H      -2.864205      1.524772     -0.025841
25
Coordinates from ORCA-job biuret_cytosine_opt_freq E -788.554768022084
  N      -0.054458      4.282812      1.121012
  C      -0.961853      3.324376      1.420009
  O      -2.037746      3.206066      0.813372
  N      -0.661701      2.453616      2.465885
  C       0.543762      2.159649      3.144051
  O       0.509689      1.733324      4.286332
  N       1.692301      2.438139      2.432158
  H      -0.221332      4.849015      0.303623
  H       0.851807      4.299444      1.571501
  H      -1.478258      2.042751      2.899561
  H       1.710553      2.148391      1.443322
  H       2.517686      2.143111      2.941686
  O       1.687444      1.298438     -0.272788
  N      -0.520963      0.843319     -0.531572
  N      -2.818040      0.568694     -0.434387
  N       1.080429     -0.897092     -0.690844
  C      -1.590164     -0.000339     -0.532528
  C      -1.314102     -1.360401     -0.654465
  C       0.830744      0.428958     -0.493125
  C       0.039308     -1.718582     -0.766145
  H      -0.686026      1.842840     -0.511901
  H      -2.105818     -2.099072     -0.669887
  H       0.287074     -2.770116     -0.911999
  H      -3.611187     -0.040774     -0.306279
  H      -2.878230      1.510229     -0.047262
25
Coordinates from ORCA-job biuret_cytosine_opt_freq E -788.554988295013
  N      -0.040552      4.272600      1.118772
  C      -0.947106      3.321230      1.431505
  O      -2.026113      3.201389      0.826245
  N      -0.649259      2.461403      2.489159
  C       0.559584      2.195824      3.176869
  O       0.533976      1.810792      4.335607
  N       1.704326      2.448567      2.448285
  H      -0.207674      4.830579      0.295998
  H       0.867600      4.295212      1.564569
  H      -1.464465      2.051102      2.927257
  H       1.708593      2.133216      1.467765
  H       2.533171      2.170989      2.962263
  O       1.663480      1.299446     -0.258425
  N      -0.537968      0.836182     -0.546575
  N      -2.833101      0.550385     -0.452716
  N       1.072498     -0.897075     -0.696538
  C      -1.603116     -0.012772     -0.553944
  C      -1.320434     -1.370658     -0.680942
  C       0.814044      0.427281     -0.494181
  C       0.035894     -1.721685     -0.785394
  H      -0.709597      1.834343     -0.510133
  H      -2.107251     -2.114012     -0.710179
  H       0.288773     -2.771478     -0.935530
  H      -3.625972     -0.059401     -0.327051
  H      -2.898410      1.493339     -0.073354
25
Coordinates from ORCA-job biuret_cytosine_opt_freq E -788.555217702847
  N      -0.034415      4.266708      1.114707
  C      -0.932038      3.312288      1.438865
  O      -2.004699      3.168807      0.824876
  N      -0.634331      2.473433      2.514371
  C       0.577333      2.231812      3.208284
  O       0.554633      1.873390      4.375137
  N       1.720030      2.459754      2.469799
  H      -0.204910      4.808694      0.282013
  H       0.872932      4.308301      1.560084
  H      -1.445159      2.051327      2.948591
  H       1.716583      2.146588      1.489876
  H       2.551849      2.191989      2.981849
  O       1.644187      1.294759     -0.240762
  N      -0.552331      0.829071     -0.555966
  N      -2.846798      0.538842     -0.467972
  N       1.063258     -0.901326     -0.695988
  C      -1.615396     -0.021868     -0.571314
  C      -1.329655     -1.378256     -0.710629
  C       0.799407      0.421757     -0.490136
  C       0.028542     -1.725809     -0.802951
  H      -0.728653      1.825703     -0.500427
  H      -2.113743     -2.123740     -0.753361
  H       0.283517     -2.774504     -0.957883
  H      -3.642965     -0.069421     -0.358093
  H      -2.916258      1.478499     -0.083638
25
Coordinates from ORCA-job biuret_cytosine_opt_freq E -788.555426723244
  N      -0.023926      4.259303      1.108060
  C      -0.919028      3.306235      1.449897
  O      -1.992306      3.149308      0.839850
  N      -0.617061      2.487950      2.539021
  C       0.595667      2.272444      3.241201
  O       0.574292      1.945568      4.418591
  N       1.735685      2.468850      2.492482
  H      -0.204838      4.784128      0.266176
  H       0.889927      4.308283      1.539051
  H      -1.424979      2.060904      2.973394
  H       1.723759      2.153766      1.514049
  H       2.570586      2.209908      3.003087
  O       1.624225      1.291903     -0.222529
  N      -0.568670      0.821920     -0.560801
  N      -2.862599      0.525081     -0.493027
  N       1.054340     -0.903674     -0.692562
  C      -1.627582     -0.032108     -0.590840
  C      -1.337695     -1.386318     -0.747790
  C       0.784321      0.417321     -0.483316
  C       0.022535     -1.729427     -0.822542
  H      -0.751323      1.816626     -0.484157
  H      -2.119704     -2.133006     -0.804328
  H       0.281602     -2.776452     -0.982175
  H      -3.659196     -0.085368     -0.397038
  H      -2.937110      1.453651     -0.084422
25
Coordinates from ORCA-job biuret_cytosine_opt_freq E -788.555538572600
  N      -0.021946      4.259934      1.107095
  C      -0.911471      3.302169      1.458265
  O      -1.984463      3.134299      0.852362
  N      -0.601768      2.496554      2.551815
  C       0.611031      2.301212      3.260342
  O       0.588364      1.997801      4.443381
  N       1.748913      2.471787      2.506628
  H      -0.211138      4.769952      0.257946
  H       0.898770      4.308791      1.522416
  H      -1.407432      2.066369      2.987367
  H       1.730311      2.152412      1.529849
  H       2.587440      2.219856      3.014849
  O       1.610492      1.288311     -0.200386
  N      -0.579796      0.817189     -0.565816
  N      -2.873073      0.516614     -0.511205
  N       1.047299     -0.904803     -0.687184
  C      -1.636259     -0.038441     -0.605756
  C      -1.343397     -1.390974     -0.773194
  C       0.773681      0.414235     -0.473659
  C       0.017941     -1.731602     -0.834296
  H      -0.767010      1.809321     -0.468767
  H      -2.124057     -2.138488     -0.837154
  H       0.280277     -2.777250     -0.997228
  H      -3.669988     -0.095855     -0.432219
  H      -2.951800      1.437405     -0.086118
25
Coordinates from ORCA-job biuret_cytosine_opt_freq E -788.555597902888
  N      -0.015496      4.253385      1.099766
  C      -0.904229      3.297444      1.464822
  O      -1.977776      3.121929      0.864018
  N      -0.590529      2.507737      2.566254
  C       0.621861      2.324327      3.279173
  O       0.598866      2.043952      4.468581
  N       1.757753      2.475881      2.520896
  H      -0.205482      4.744737      0.239623
  H       0.907696      4.304982      1.509278
  H      -1.396085      2.086609      3.009917
  H       1.731690      2.149117      1.546623
  H       2.599278      2.227725      3.026849
  O       1.597495      1.288075     -0.185241
  N      -0.590576      0.814852     -0.564276
  N      -2.883363      0.507680     -0.529835
  N       1.040957     -0.902391     -0.689328
  C      -1.644003     -0.043811     -0.618675
  C      -1.347495     -1.394231     -0.794977
  C       0.763825      0.414349     -0.467482
  C       0.015019     -1.731331     -0.849293
  H      -0.782155      1.805152     -0.453555
  H      -2.126984     -2.142236     -0.867464
  H       0.281972     -2.774969     -1.017309
  H      -3.676052     -0.111149     -0.454465
  H      -2.965268      1.418980     -0.084566
25
Coordinates from ORCA-job biuret_cytosine_opt_freq E -788.555650010304
  N      -0.014639      4.256641      1.100646
  C      -0.901046      3.298920      1.471481
  O      -1.975455      3.120207      0.874607
  N      -0.582570      2.516095      2.574710
  C       0.631774      2.337935      3.286525
  O       0.606506      2.068457      4.476966
  N       1.766092      2.478356      2.526507
  H      -0.202734      4.733876      0.232246
  H       0.911189      4.304658      1.504375
  H      -1.389248      2.101098      3.023964
  H       1.734501      2.145845      1.554240
  H       2.610581      2.233119      3.028578
  O       1.589439      1.284472     -0.170338
  N      -0.597154      0.811633     -0.562267
  N      -2.890355      0.500809     -0.544291
  N       1.036483     -0.902852     -0.688261
  C      -1.649005     -0.048269     -0.627885
  C      -1.349898     -1.397167     -0.807839
  C       0.757508      0.412302     -0.459746
  C       0.013265     -1.732857     -0.856651
  H      -0.791797      1.799428     -0.436757
  H      -2.128985     -2.144986     -0.886972
  H       0.283551     -2.775102     -1.027731
  H      -3.679763     -0.123141     -0.476167
  H      -2.977320      1.407322     -0.090609
25
Coordinates from ORCA-job biuret_cytosine_opt_freq E -788.555717053294
  N      -0.009282      4.253846      1.097578
  C      -0.892710      3.296350      1.477197
  O      -1.966056      3.108497      0.881472
  N      -0.572361      2.527326      2.589375
  C       0.642745      2.357173      3.301354
  O       0.618208      2.107892      4.495992
  N       1.774084      2.483744      2.535341
  H      -0.188825      4.710697      0.216499
  H       0.917023      4.301097      1.500669
  H      -1.378635      2.124629      3.049655
  H       1.732539      2.138800      1.567714
  H       2.622131      2.246263      3.035365
  O       1.575520      1.283768     -0.153156
  N      -0.608619      0.808371     -0.557112
  N      -2.901540      0.490358     -0.562896
  N       1.030236     -0.900110     -0.692087
  C      -1.657261     -0.054455     -0.639416
  C      -1.353159     -1.400810     -0.824965
  C       0.746673      0.412592     -0.452680
  C       0.011335     -1.732447     -0.870225
  H      -0.807926      1.793317     -0.415711
  H      -2.130276     -2.149455     -0.915613
  H       0.286750     -2.772327     -1.047445
  H      -3.685709     -0.140460     -0.496043
  H      -2.993965      1.392141     -0.101531
25
Coordinates from ORCA-job biuret_cytosine_opt_freq E -788.555792511102
  N      -0.001430      4.254329      1.096921
  C      -0.882017      3.297979      1.484704
  O      -1.953228      3.098772      0.887888
  N      -0.562486      2.544523      2.609289
  C       0.656468      2.377720      3.315896
  O       0.632582      2.144101      4.512993
  N       1.784268      2.493700      2.542925
  H      -0.166811      4.687818      0.201305
  H       0.923673      4.301909      1.503406
  H      -1.368974      2.156046      3.082406
  H       1.732810      2.139855      1.579196
  H       2.635834      2.263837      3.039054
  O       1.559372      1.280508     -0.134869
  N      -0.622884      0.801081     -0.544103
  N      -2.915687      0.475020     -0.586894
  N       1.023051     -0.899742     -0.695086
  C      -1.667155     -0.064297     -0.650538
  C      -1.356968     -1.407189     -0.845399
  C       0.733420      0.410041     -0.443106
  C       0.009107     -1.734070     -0.885480
  H      -0.828460      1.781988     -0.382526
  H      -2.131441     -2.156132     -0.954851
  H       0.290021     -2.771133     -1.070645
  H      -3.694267     -0.163042     -0.521197
  H      -3.017880      1.373176     -0.121957
25
Coordinates from ORCA-job biuret_cytosine_opt_freq E -788.555872099050
  N       0.008040      4.255859      1.097971
  C      -0.867939      3.299290      1.492635
  O      -1.935754      3.085553      0.893159
  N      -0.549863      2.561854      2.630196
  C       0.672219      2.403676      3.333309
  O       0.651958      2.190122      4.534268
  N       1.795179      2.504968      2.551227
  H      -0.146080      4.668743      0.190608
  H       0.933101      4.305212      1.504836
  H      -1.354182      2.183987      3.114997
  H       1.732386      2.140866      1.592204
  H       2.650294      2.285683      3.045047
  O       1.539736      1.276748     -0.112342
  N      -0.640106      0.791021     -0.531282
  N      -2.931396      0.456715     -0.611215
  N       1.014974     -0.900206     -0.695382
  C      -1.678906     -0.076739     -0.662366
  C      -1.361782     -1.415683     -0.870667
  C       0.717281      0.406048     -0.431674
  C       0.006100     -1.736473     -0.902079
  H      -0.853021      1.766909     -0.346585
  H      -2.131813     -2.165675     -1.002026
  H       0.292428     -2.770441     -1.096310
  H      -3.707545     -0.184885     -0.551003
  H      -3.044394      1.353646     -0.148196
25
Coordinates from ORCA-job biuret_cytosine_opt_freq E -788.555943453792
  N       0.019338      4.260043      1.099458
  C      -0.853393      3.304355      1.501674
  O      -1.917709      3.076811      0.899821
  N      -0.537573      2.583094      2.651650
  C       0.688814      2.430027      3.349604
  O       0.672620      2.231624      4.553463
  N       1.807168      2.518385      2.559748
  H      -0.127740      4.656039      0.183238
  H       0.943972      4.315974      1.506688
  H      -1.340016      2.214084      3.146770
  H       1.735809      2.150439      1.603049
  H       2.664768      2.304860      3.050430
  O       1.520262      1.269757     -0.090168
  N      -0.658159      0.777184     -0.512852
  N      -2.946934      0.435679     -0.636101
  N       1.006624     -0.904053     -0.692562
  C      -1.690788     -0.091751     -0.672548
  C      -1.366933     -1.426191     -0.899792
  C       0.700758      0.398186     -0.417725
  C       0.002422     -1.741187     -0.919259
  H      -0.879192      1.747437     -0.304389
  H      -2.131797     -2.176434     -1.056832
  H       0.293511     -2.771923     -1.123518
  H      -3.722635     -0.207249     -0.584770
  H      -3.072275      1.331606     -0.175746
25
Coordinates from ORCA-job biuret_cytosine_opt_freq E -788.556022792659
  N       0.032010      4.266867      1.101464
  C      -0.836992      3.311623      1.511805
  O      -1.897932      3.070734      0.908441
  N      -0.522337      2.606743      2.672603
  C       0.707655      2.460909      3.366837
  O       0.697627      2.280615      4.574065
  N       1.820455      2.532434      2.568764
  H      -0.112685      4.646654      0.177879
  H       0.957837      4.329394      1.504807
  H      -1.321821      2.245441      3.177784
  H       1.739000      2.158224      1.615384
  H       2.680797      2.324390      3.056790
  O       1.497357      1.260299     -0.060069
  N      -0.679030      0.760224     -0.491374
  N      -2.963569      0.411072     -0.660485
  N       0.996930     -0.909147     -0.686526
  C      -1.704245     -0.109399     -0.683681
  C      -1.372346     -1.438098     -0.935045
  C       0.681685      0.387765     -0.398428
  C      -0.001672     -1.746666     -0.939001
  H      -0.909265      1.723030     -0.254528
  H      -2.130367     -2.188460     -1.121265
  H       0.295055     -2.773299     -1.155567
  H      -3.740558     -0.231315     -0.626417
  H      -3.102667      1.306764     -0.204906
25
Coordinates from ORCA-job biuret_cytosine_opt_freq E -788.556128806167
  N       0.048047      4.277728      1.101767
  C      -0.818765      3.324964      1.523013
  O      -1.876610      3.071809      0.919228
  N      -0.505523      2.638846      2.694675
  C       0.728603      2.494517      3.383511
  O       0.726024      2.328489      4.593158
  N       1.835832      2.549828      2.578199
  H      -0.097970      4.640868      0.171510
  H       0.974492      4.350833      1.501442
  H      -1.302502      2.286026      3.210019
  H       1.744933      2.171436      1.627387
  H       2.698013      2.341270      3.062885
  O       1.471197      1.245173     -0.022159
  N      -0.703576      0.737284     -0.457828
  N      -2.981679      0.380576     -0.684743
  N       0.985378     -0.917750     -0.677461
  C      -1.719323     -0.131373     -0.694013
  C      -1.377610     -1.451762     -0.978588
  C       0.659839      0.371827     -0.371026
  C      -0.006162     -1.754070     -0.963378
  H      -0.944576      1.690407     -0.188014
  H      -2.127159     -2.200398     -1.201673
  H       0.297459     -2.774973     -1.196904
  H      -3.760300     -0.260436     -0.677369
  H      -3.137141      1.275678     -0.234308
25
Coordinates from ORCA-job biuret_cytosine_opt_freq E -788.556262397888
  N       0.065497      4.291222      1.099221
  C      -0.800117      3.342269      1.532300
  O      -1.855617      3.079227      0.929134
  N      -0.488249      2.674982      2.713488
  C       0.748356      2.528359      3.398070
  O       0.754826      2.374124      4.609569
  N       1.850425      2.567543      2.586347
  H      -0.084462      4.637482      0.163102
  H       0.992496      4.373962      1.494998
  H      -1.283056      2.329129      3.236538
  H       1.749218      2.181670      1.639559
  H       2.713598      2.354708      3.068804
  O       1.442818      1.226192      0.025050
  N      -0.729647      0.711198     -0.417107
  N      -2.999367      0.347774     -0.701178
  N       0.973078     -0.927385     -0.667249
  C      -1.734534     -0.154767     -0.702717
  C      -1.381483     -1.464054     -1.025887
  C       0.636915      0.352889     -0.336926
  C      -0.009747     -1.760804     -0.991508
  H      -0.981128      1.653063     -0.113117
  H      -2.121820     -2.208998     -1.288226
  H       0.302292     -2.774214     -1.245712
  H      -3.779006     -0.290846     -0.731544
  H      -3.170362      1.242072     -0.255678
25
Coordinates from ORCA-job biuret_cytosine_opt_freq E -788.556417636470
  N       0.083109      4.304389      1.090444
  C      -0.784408      3.362570      1.536470
  O      -1.838896      3.093566      0.935027
  N      -0.475343      2.713519      2.726397
  C       0.761462      2.555167      3.407477
  O       0.776243      2.401953      4.618941
  N       1.861233      2.584945      2.592381
  H      -0.071157      4.635541      0.149591
  H       1.008433      4.396978      1.487357
  H      -1.270514      2.370544      3.250643
  H       1.752149      2.191860      1.649473
  H       2.722780      2.359595      3.073900
  O       1.417593      1.204177      0.074419
  N      -0.752301      0.684521     -0.371490
  N      -3.013356      0.317676     -0.701773
  N       0.962700     -0.937296     -0.659465
  C      -1.746776     -0.176068     -0.706217
  C      -1.382664     -1.472073     -1.069603
  C       0.617597      0.332409     -0.300860
  C      -0.011114     -1.765559     -1.021078
  H      -1.012412      1.616265     -0.040859
  H      -2.115601     -2.210750     -1.367993
  H       0.309658     -2.770071     -1.298629
  H      -3.792402     -0.317235     -0.777795
  H      -3.195095      1.210176     -0.257428
25
Coordinates from ORCA-job biuret_cytosine_opt_freq E -788.556554809483
  N       0.096825      4.307863      1.076443
  C      -0.771829      3.373931      1.537098
  O      -1.825782      3.096359      0.938919
  N      -0.465584      2.745946      2.738008
  C       0.769574      2.579603      3.418624
  O       0.789840      2.430995      4.630634
  N       1.868381      2.598880      2.600676
  H      -0.054606      4.618227      0.128230
  H       1.019525      4.406358      1.477923
  H      -1.263018      2.404322      3.259079
  H       1.750611      2.194546      1.663766
  H       2.728073      2.363606      3.081463
  O       1.395948      1.187310      0.119328
  N      -0.769247      0.665811     -0.340517
  N      -3.024829      0.295832     -0.694291
  N       0.954704     -0.941193     -0.659928
  C      -1.756077     -0.190494     -0.710211
  C      -1.383293     -1.474384     -1.103767
  C       0.602569      0.318860     -0.274062
  C      -0.011112     -1.764827     -1.049915
  H      -1.033656      1.590729      0.007150
  H      -2.112409     -2.207065     -1.425808
  H       0.318019     -2.760838     -1.347504
  H      -3.800481     -0.336890     -0.809262
  H      -3.211226      1.183310     -0.242745
25
Coordinates from ORCA-job biuret_cytosine_opt_freq E -788.556669855811
  N       0.107150      4.304309      1.060631
  C      -0.765589      3.381566      1.535451
  O      -1.821711      3.099192      0.942773
  N      -0.463204      2.772039      2.747460
  C       0.769736      2.594535      3.426798
  O       0.790842      2.442233      4.637807
  N       1.870316      2.611149      2.607975
  H      -0.036594      4.598265      0.106150
  H       1.026320      4.404206      1.470402
  H      -1.265802      2.427032      3.258230
  H       1.747209      2.196358      1.676638
  H       2.726584      2.364731      3.088733
  O       1.384565      1.174242      0.147990
  N      -0.776098      0.654015     -0.323211
  N      -3.030959      0.283917     -0.677679
  N       0.952318     -0.942314     -0.668761
  C      -1.760367     -0.197780     -0.710013
  C      -1.382540     -1.473006     -1.122466
  C       0.596399      0.310343     -0.261111
  C      -0.009307     -1.761780     -1.073163
  H      -1.041388      1.577558      0.025510
  H      -2.112109     -2.200992     -1.454501
  H       0.324689     -2.751335     -1.386329
  H      -3.802889     -0.347344     -0.820478
  H      -3.216651      1.165662     -0.215506
25
Coordinates from ORCA-job biuret_cytosine_opt_freq E -788.556740575928
  N       0.125426      4.291549      1.038399
  C      -0.742991      3.381630      1.543617
  O      -1.797442      3.070775      0.961128
  N      -0.442557      2.820928      2.780796
  C       0.792134      2.647215      3.458112
  O       0.818089      2.522533      4.673562
  N       1.886733      2.633955      2.629915
  H      -0.001728      4.537148      0.068082
  H       1.042588      4.400339      1.451104
  H      -1.246608      2.485197      3.295197
  H       1.744899      2.199474      1.710751
  H       2.743622      2.385923      3.105946
  O       1.345724      1.156391      0.208254
  N      -0.806286      0.632105     -0.292065
  N      -3.055112      0.251456     -0.694825
  N       0.937463     -0.939470     -0.677223
  C      -1.777838     -0.216839     -0.724883
  C      -1.387700     -1.474873     -1.171995
  C       0.567718      0.298368     -0.233267
  C      -0.012316     -1.754238     -1.116681
  H      -1.074383      1.546164      0.086697
  H      -2.110063     -2.194980     -1.535820
  H       0.334225     -2.730828     -1.455871
  H      -3.816712     -0.383252     -0.872597
  H      -3.255967      1.120129     -0.217001
25
Coordinates from ORCA-job biuret_cytosine_opt_freq E -788.556814991468
  N       0.128202      4.284078      1.032160
  C      -0.745364      3.382566      1.541076
  O      -1.803170      3.073430      0.962438
  N      -0.449640      2.827876      2.784107
  C       0.783282      2.646118      3.459284
  O       0.803000      2.509734      4.672120
  N       1.881572      2.638998      2.632594
  H       0.009488      4.530824      0.061173
  H       1.044455      4.386579      1.449247
  H      -1.258219      2.482761      3.285050
  H       1.742141      2.200492      1.714971
  H       2.735255      2.384502      3.110568
  O       1.352799      1.153310      0.204137
  N      -0.798269      0.631999     -0.299036
  N      -3.052591      0.255607     -0.677218
  N       0.944019     -0.937144     -0.692240
  C      -1.775551     -0.213505     -0.717051
  C      -1.386314     -1.472481     -1.163201
  C       0.574866      0.299001     -0.243468
  C      -0.009928     -1.750886     -1.122881
  H      -1.065295      1.551548      0.060058
  H      -2.111922     -2.194148     -1.517378
  H       0.332913     -2.727067     -1.467048
  H      -3.813773     -0.379375     -0.855425
  H      -3.251036      1.121980     -0.194705
25
Coordinates from ORCA-job biuret_cytosine_opt_freq E -788.556871383919
  N       0.133368      4.283931      1.030180
  C      -0.740739      3.386719      1.546091
  O      -1.799844      3.075499      0.971201
  N      -0.444492      2.840489      2.792337
  C       0.789719      2.657642      3.465543
  O       0.810754      2.524535      4.679111
  N       1.886241      2.644758      2.636960
  H       0.011170      4.527076      0.058568
  H       1.051868      4.389738      1.441400
  H      -1.251790      2.497709      3.296724
  H       1.744519      2.204018      1.720719
  H       2.739689      2.388108      3.115220
  O       1.346049      1.146584      0.212991
  N      -0.806164      0.623187     -0.287774
  N      -3.057397      0.246819     -0.687704
  N       0.941257     -0.939245     -0.692443
  C      -1.779785     -0.219943     -0.718209
  C      -1.387270     -1.475451     -1.174187
  C       0.568439      0.292987     -0.237350
  C      -0.011105     -1.751675     -1.130794
  H      -1.076049      1.540564      0.077312
  H      -2.108838     -2.195680     -1.539054
  H       0.332975     -2.724970     -1.481875
  H      -3.817663     -0.388241     -0.869822
  H      -3.263991      1.111641     -0.205813
25
Coordinates from ORCA-job biuret_cytosine_opt_freq E -788.556933600679
  N       0.144836      4.276201      1.020256
  C      -0.727683      3.387632      1.553710
  O      -1.786168      3.064006      0.985225
  N      -0.432066      2.869852      2.810897
  C       0.803727      2.690497      3.483151
  O       0.826631      2.575228      4.698769
  N       1.895488      2.655741      2.650433
  H       0.022385      4.495913      0.043037
  H       1.067488      4.387230      1.420179
  H      -1.237031      2.533902      3.322947
  H       1.746069      2.205440      1.739958
  H       2.748937      2.396690      3.128322
  O       1.325001      1.133540      0.249116
  N      -0.825112      0.606384     -0.268710
  N      -3.069855      0.227596     -0.701604
  N       0.934700     -0.936348     -0.697457
  C      -1.790954     -0.232277     -0.722514
  C      -1.389710     -1.478221     -1.201178
  C       0.551984      0.283921     -0.220620
  C      -0.012484     -1.746218     -1.155947
  H      -1.100863      1.517622      0.110078
  H      -2.102476     -2.196290     -1.586619
  H       0.337137     -2.710689     -1.525509
  H      -3.826796     -0.406113     -0.901898
  H      -3.292262      1.085560     -0.214690
25
Coordinates from ORCA-job biuret_cytosine_opt_freq E -788.556950548700
  N       0.151877      4.268377      1.010376
  C      -0.721475      3.388902      1.558619
  O      -1.781300      3.059325      0.996436
  N      -0.425549      2.891493      2.823449
  C       0.810901      2.709395      3.494266
  O       0.835039      2.601840      4.710744
  N       1.900929      2.664089      2.659517
  H       0.028737      4.470843      0.029409
  H       1.075776      4.384392      1.406056
  H      -1.230860      2.560882      3.338629
  H       1.746763      2.206478      1.753724
  H       2.753236      2.401504      3.137779
  O       1.313577      1.123146      0.268893
  N      -0.835158      0.595697     -0.255859
  N      -3.076585      0.217489     -0.707772
  N       0.930771     -0.935494     -0.703266
  C      -1.796562     -0.239299     -0.725971
  C      -1.390498     -1.478815     -1.217765
  C       0.543651      0.277262     -0.211573
  C      -0.012874     -1.743053     -1.172907
  H      -1.113944      1.504383      0.127965
  H      -2.099676     -2.193932     -1.615141
  H       0.340697     -2.701501     -1.554072
  H      -3.831038     -0.415540     -0.919782
  H      -3.305515      1.068933     -0.212425
25
Coordinates from ORCA-job biuret_cytosine_opt_freq E -788.556979942213
  N       0.156826      4.259898      1.001682
  C      -0.716270      3.387885      1.563743
  O      -1.776452      3.052121      1.006411
  N      -0.419450      2.910727      2.835485
  C       0.817681      2.728471      3.505058
  O       0.842940      2.633672      4.722156
  N       1.905511      2.669027      2.668667
  H       0.032297      4.442787      0.016981
  H       1.082328      4.380258      1.392080
  H      -1.224633      2.588578      3.356327
  H       1.747679      2.203493      1.767809
  H       2.757311      2.406142      3.147601
  O       1.303169      1.112266      0.290207
  N      -0.843632      0.586217     -0.249108
  N      -3.082776      0.209904     -0.712603
  N       0.927370     -0.933627     -0.710565
  C      -1.802022     -0.244917     -0.731117
  C      -1.391265     -1.478905     -1.232757
  C       0.536692      0.271571     -0.203880
  C      -0.012820     -1.739133     -1.189952
  H      -1.125813      1.492182      0.138154
  H      -2.097175     -2.192128     -1.639350
  H       0.344935     -2.691868     -1.581312
  H      -3.835376     -0.421637     -0.935563
  H      -3.316135      1.053814     -0.206823
25
Coordinates from ORCA-job biuret_cytosine_opt_freq E -788.557002547506
  N       0.161614      4.251246      0.994033
  C      -0.711889      3.387306      1.568665
  O      -1.772826      3.046548      1.015803
  N      -0.414032      2.927701      2.846577
  C       0.824212      2.745414      3.513770
  O       0.852566      2.662403      4.731446
  N       1.909661      2.673641      2.675203
  H       0.036064      4.416746      0.006378
  H       1.087570      4.375843      1.381825
  H      -1.218649      2.614998      3.374357
  H       1.748590      2.201330      1.778761
  H       2.761713      2.412733      3.154461
  O       1.292504      1.102349      0.309403
  N      -0.852114      0.577614     -0.241473
  N      -3.088704      0.202320     -0.718290
  N       0.923329     -0.932986     -0.714549
  C      -1.806833     -0.250179     -0.737166
  C      -1.391755     -1.478195     -1.248155
  C       0.529238      0.266159     -0.195648
  C      -0.012709     -1.735930     -1.204355
  H      -1.136976      1.480030      0.152256
  H      -2.094988     -2.188508     -1.664516
  H       0.349392     -2.683748     -1.603584
  H      -3.839028     -0.427983     -0.952038
  H      -3.325031      1.039944     -0.203831
25
Coordinates from ORCA-job biuret_cytosine_opt_freq E -788.557028715364
  N       0.163887      4.241061      0.987828
  C      -0.709964      3.385097      1.574066
  O      -1.772181      3.040328      1.026073
  N      -0.410116      2.940035      2.857006
  C       0.829703      2.760262      3.520798
  O       0.862513      2.690829      4.738962
  N       1.912625      2.675880      2.680149
  H       0.035771      4.393191     -0.001640
  H       1.090112      4.370159      1.373333
  H      -1.213400      2.638944      3.393818
  H       1.750584      2.197685      1.787342
  H       2.765858      2.420979      3.160237
  O       1.285235      1.092994      0.324179
  N      -0.857672      0.571148     -0.238398
  N      -3.092815      0.198043     -0.724365
  N       0.920231     -0.933972     -0.716946
  C      -1.810125     -0.253251     -0.743786
  C      -1.392115     -1.476605     -1.261686
  C       0.523907      0.261346     -0.189941
  C      -0.012749     -1.733956     -1.215470
  H      -1.144876      1.470020      0.160988
  H      -2.093783     -2.184122     -1.685504
  H       0.352182     -2.678441     -1.620059
  H      -3.841577     -0.431369     -0.965330
  H      -3.330316      1.030512     -0.202322
25
Coordinates from ORCA-job biuret_cytosine_opt_freq E -788.557052899821
  N       0.166041      4.226689      0.979572
  C      -0.707988      3.382019      1.581153
  O      -1.772819      3.031770      1.041545
  N      -0.404683      2.955275      2.870127
  C       0.837534      2.780114      3.528973
  O       0.877641      2.727505      4.747884
  N       1.916710      2.679662      2.685275
  H       0.034630      4.364367     -0.011514
  H       1.092677      4.361182      1.362084
  H      -1.205629      2.668134      3.418140
  H       1.752742      2.193119      1.797653
  H       2.771779      2.433333      3.166195
  O       1.275207      1.081299      0.343705
  N      -0.865044      0.563065     -0.232377
  N      -3.097534      0.192228     -0.732978
  N       0.916106     -0.936497     -0.716776
  C      -1.813805     -0.257072     -0.751834
  C      -1.392441     -1.473820     -1.280895
  C       0.516249      0.254434     -0.180996
  C      -0.013092     -1.731688     -1.228760
  H      -1.154480      1.456779      0.177322
  H      -2.092111     -2.176730     -1.715594
  H       0.354728     -2.672309     -1.639777
  H      -3.843981     -0.435676     -0.984504
  H      -3.337514      1.019614     -0.204291
25
Coordinates from ORCA-job biuret_cytosine_opt_freq E -788.557084610684
  N       0.162832      4.211090      0.972426
  C      -0.710891      3.376447      1.587157
  O      -1.778730      3.021471      1.056691
  N      -0.402637      2.963532      2.880155
  C       0.842192      2.794218      3.533256
  O       0.889587      2.754596      4.752409
  N       1.918792      2.681580      2.687701
  H       0.027074      4.342207     -0.018864
  H       1.089630      4.351316      1.352405
  H      -1.200874      2.688778      3.438615
  H       1.756495      2.187936      1.803873
  H       2.775910      2.445701      3.170210
  O       1.273362      1.070828      0.354339
  N      -0.865863      0.559089     -0.230670
  N      -3.097642      0.193478     -0.738845
  N       0.914621     -0.941697     -0.714626
  C      -1.814011     -0.256371     -0.757318
  C      -1.392239     -1.469513     -1.294397
  C       0.514112      0.248052     -0.175934
  C      -0.013897     -1.731410     -1.236059
  H      -1.156681      1.448898      0.185674
  H      -2.092012     -2.168075     -1.735839
  H       0.353134     -2.670792     -1.650634
  H      -3.843406     -0.432797     -0.996312
  H      -3.337938      1.018235     -0.206083
25
Coordinates from ORCA-job biuret_cytosine_opt_freq E -788.557097375713
  N       0.160727      4.197136      0.964606
  C      -0.711757      3.372093      1.592907
  O      -1.782707      3.011441      1.072715
  N      -0.398242      2.974790      2.889852
  C       0.848941      2.811668      3.538573
  O       0.903400      2.785254      4.758341
  N       1.921991      2.685526      2.690680
  H       0.022408      4.319824     -0.027349
  H       1.088696      4.341015      1.340453
  H      -1.194029      2.709030      3.455642
  H       1.757409      2.182052      1.812817
  H       2.780483      2.456477      3.173812
  O       1.266912      1.060228      0.371533
  N      -0.869494      0.553437     -0.224658
  N      -3.099011      0.191224     -0.744511
  N       0.912324     -0.945683     -0.712163
  C      -1.815303     -0.257944     -0.762189
  C      -1.392242     -1.466031     -1.310480
  C       0.509462      0.240476     -0.167093
  C      -0.014631     -1.729905     -1.246013
  H      -1.160803      1.439096      0.201589
  H      -2.090856     -2.159774     -1.761169
  H       0.352922     -2.666409     -1.666607
  H      -3.843623     -0.432210     -1.011821
  H      -3.342057      1.013986     -0.210135
25
Coordinates from ORCA-job biuret_cytosine_opt_freq E -788.557110219677
  N       0.153839      4.191169      0.962060
  C      -0.717507      3.367608      1.593414
  O      -1.789428      3.004891      1.077088
  N      -0.400495      2.972641      2.890179
  C       0.847843      2.812770      3.536723
  O       0.904431      2.786689      4.756358
  N       1.921054      2.686231      2.688985
  H       0.014520      4.317108     -0.029295
  H       1.082165      4.336459      1.336612
  H      -1.195410      2.707156      3.457367
  H       1.759373      2.179009      1.812556
  H       2.779949      2.460152      3.173239
  O       1.273767      1.056158      0.370176
  N      -0.863415      0.555083     -0.225311
  N      -3.094444      0.198269     -0.742546
  N       0.914332     -0.949954     -0.710480
  C      -1.812130     -0.253714     -0.760677
  C      -1.391823     -1.463127     -1.310271
  C       0.514376      0.237264     -0.166956
  C      -0.015485     -1.731094     -1.244861
  H      -1.154070      1.440632      0.200679
  H      -2.092178     -2.155164     -1.760781
  H       0.348483     -2.668881     -1.665648
  H      -3.840815     -0.423276     -1.009492
  H      -3.336011      1.022718     -0.209788
25
Coordinates from ORCA-job biuret_cytosine_opt_freq E -788.557122972677
  N       0.150680      4.187904      0.959785
  C      -0.719686      3.365412      1.594168
  O      -1.792066      3.000935      1.080317
  N      -0.400556      2.974207      2.891269
  C       0.848540      2.816865      3.537258
  O       0.906535      2.793486      4.757141
  N       1.920967      2.688059      2.688910
  H       0.011630      4.311769     -0.031889
  H       1.080129      4.332495      1.331982
  H      -1.195038      2.708212      3.458548
  H       1.758886      2.176071      1.815171
  H       2.779822      2.461905      3.173367
  O       1.274712      1.052387      0.374662
  N      -0.861607      0.554311     -0.223375
  N      -3.092782      0.200462     -0.741694
  N       0.914817     -0.951548     -0.711078
  C      -1.811226     -0.252832     -0.760366
  C      -1.391928     -1.461968     -1.312276
  C       0.515883      0.234211     -0.164662
  C      -0.015905     -1.730868     -1.247352
  H      -1.151471      1.439540      0.204200
  H      -2.092465     -2.152621     -1.764594
  H       0.347360     -2.667785     -1.670639
  H      -3.840268     -0.419069     -1.010265
  H      -3.334043      1.025261     -0.209257
25
Coordinates from ORCA-job biuret_cytosine_opt_freq E -788.557145151111
  N       0.145940      4.187628      0.959309
  C      -0.723184      3.363311      1.593809
  O      -1.795062      2.997834      1.079896
  N      -0.402621      2.972620      2.890309
  C       0.847228      2.817877      3.536169
  O       0.905908      2.795585      4.756138
  N       1.919410      2.689803      2.687212
  H       0.007700      4.310239     -0.032690
  H       1.076826      4.329660      1.329126
  H      -1.196736      2.703576      3.456627
  H       1.758475      2.172904      1.815964
  H       2.778083      2.462897      3.171988
  O       1.278900      1.048628      0.376272
  N      -0.857131      0.554341     -0.222257
  N      -3.089507      0.205333     -0.739196
  N       0.916197     -0.953700     -0.712986
  C      -1.809251     -0.250816     -0.758872
  C      -1.392259     -1.461061     -1.310583
  C       0.520099      0.231230     -0.163997
  C      -0.016490     -1.731428     -1.248380
  H      -1.145460      1.440036      0.205263
  H      -2.093652     -2.150783     -1.763023
  H       0.345298     -2.668277     -1.673056
  H      -3.839414     -0.411827     -1.006540
  H      -3.328378      1.031188     -0.207171
25
Coordinates from ORCA-job biuret_cytosine_opt_freq E -788.557154411146
  N       0.142321      4.187486      0.959350
  C      -0.725821      3.361740      1.594078
  O      -1.797106      2.995346      1.079638
  N      -0.404561      2.971735      2.890424
  C       0.846154      2.819729      3.535739
  O       0.906122      2.799909      4.755708
  N       1.917895      2.692121      2.685814
  H       0.004089      4.307505     -0.033032
  H       1.074504      4.327086      1.327010
  H      -1.197843      2.700545      3.456953
  H       1.758548      2.170365      1.817067
  H       2.776630      2.465965      3.171101
  O       1.282186      1.044131      0.378145
  N      -0.853640      0.553172     -0.221020
  N      -3.086925      0.209541     -0.738319
  N       0.916951     -0.956265     -0.715339
  C      -1.807784     -0.249582     -0.758546
  C      -1.392927     -1.460410     -1.310145
  C       0.523333      0.228053     -0.163626
  C      -0.017266     -1.732392     -1.250134
  H      -1.140420      1.438992      0.207046
  H      -2.095103     -2.148959     -1.763206
  H       0.343405     -2.669016     -1.676220
  H      -3.839036     -0.405705     -1.003907
  H      -3.322784      1.035706     -0.205248
25
Coordinates from ORCA-job biuret_cytosine_opt_freq E -788.557162096314
  N       0.138178      4.187327      0.959667
  C      -0.728785      3.360089      1.594735
  O      -1.799503      2.992626      1.079759
  N      -0.407014      2.970462      2.891026
  C       0.844848      2.822033      3.535243
  O       0.906840      2.805612      4.755056
  N       1.916173      2.695565      2.684015
  H      -0.001292      4.304079     -0.033005
  H       1.071826      4.324092      1.324870
  H      -1.198775      2.696936      3.458796
  H       1.759654      2.167938      1.818226
  H       2.775217      2.472213      3.170295
  O       1.286471      1.037871      0.380058
  N      -0.849671      0.550827     -0.219186
  N      -3.083893      0.214976     -0.738611
  N       0.917564     -0.960252     -0.717766
  C      -1.806048     -0.248232     -0.758730
  C      -1.393983     -1.459446     -1.310524
  C       0.526802      0.223908     -0.163367
  C      -0.018496     -1.734037     -1.252290
  H      -1.134371      1.436523      0.210155
  H      -2.097334     -2.146159     -1.764593
  H       0.340512     -2.670787     -1.679498
  H      -3.838406     -0.398450     -1.001550
  H      -3.315594      1.041084     -0.203450
25
Coordinates from ORCA-job biuret_cytosine_opt_freq E -788.557169946955
  N       0.135197      4.186077      0.959150
  C      -0.730786      3.358623      1.595484
  O      -1.801356      2.989761      1.080965
  N      -0.408675      2.970185      2.892110
  C       0.844101      2.824831      3.535186
  O       0.908086      2.811456      4.754781
  N       1.915283      2.699680      2.682873
  H      -0.006487      4.299919     -0.033593
  H       1.069823      4.321336      1.322553
  H      -1.198767      2.694869      3.461534
  H       1.761655      2.166721      1.819791
  H       2.774696      2.480329      3.170428
  O       1.289731      1.031467      0.382639
  N      -0.847165      0.547550     -0.216264
  N      -3.081594      0.219500     -0.739911
  N       0.917630     -0.964293     -0.719090
  C      -1.804806     -0.247427     -0.759228
  C      -1.395079     -1.458246     -1.312676
  C       0.528711      0.219832     -0.162428
  C      -0.019845     -1.735537     -1.254628
  H      -1.129977      1.432845      0.214917
  H      -2.099511     -2.142626     -1.768597
  H       0.337613     -2.672242     -1.683247
  H      -3.837590     -0.392743     -1.001310
  H      -3.309968      1.044932     -0.202110
