25
Coordinates from ORCA-job biuret_cytosine_opt_freq E -788.557169946955
  N           0.13519670274482      4.18607718306234      0.95914977544178
  C          -0.73078576102099      3.35862340749847      1.59548425552036
  O          -1.80135607761290      2.98976123294385      1.08096545142799
  N          -0.40867457729604      2.97018466509046      2.89211020504956
  C           0.84410130566750      2.82483109923514      3.53518567344250
  O           0.90808554412226      2.81145575267505      4.75478105893428
  N           1.91528317286169      2.69968001081131      2.68287289224165
  H          -0.00648674007381      4.29991932270527     -0.03359257153977
  H           1.06982276294284      4.32133594199686      1.32255284798823
  H          -1.19876660185542      2.69486924885236      3.46153441951956
  H           1.76165504469478      2.16672096468950      1.81979099851121
  H           2.77469551253673      2.48032858366403      3.17042819055313
  O           1.28973130278241      1.03146651264848      0.38263908401200
  N          -0.84716462543042      0.54754959392913     -0.21626373256218
  N          -3.08159364393083      0.21950020691397     -0.73991058034474
  N           0.91762965131653     -0.96429332142436     -0.71909040162823
  C          -1.80480625054811     -0.24742721028462     -0.75922798790508
  C          -1.39507877801012     -1.45824614491293     -1.31267593323020
  C           0.52871138247052      0.21983162317169     -0.16242780966523
  C          -0.01984527827206     -1.73553675802834     -1.25462777970765
  H          -1.12997741848680      1.43284536506883      0.21491659776930
  H          -2.09951141157914     -2.14262596110435     -1.76859654805460
  H           0.33761320675492     -2.67224153658810     -1.68324684778085
  H          -3.83759046187613     -0.39274340858345     -1.00131037920298
  H          -3.30996796290219      1.04493162596929     -0.20210987879008
