13
Coordinates from ORCA-job cytosine_opt_freq E -394.729293290158
  O           2.17308723521248      1.16490763821027      0.00016971332653
  N          -0.09180903078290      0.97031801821818      0.00006140920093
  N          -2.42705495648292      0.94517635980108     -0.00008359878707
  N           1.29037614476648     -0.97891974051165      0.00009460420094
  C          -1.25050789269001      0.25955811859404      0.00003278198756
  C          -1.14598859704815     -1.12549375318963      0.00001809274975
  C           1.22349822470618      0.39410542175218      0.00002744503631
  C           0.15875190486253     -1.65942632975196      0.00007437832743
  H          -0.09459641285953      1.98390270598898      0.00002104756501
  H          -2.02375991880095     -1.75943440675221     -0.00000963340936
  H           0.26723581395752     -2.74491236242236      0.00009887301721
  H          -3.30050212923654      0.44434401292391      0.00034503181431
  H          -2.46133038560419      1.95187431713918      0.00054985497045
