13
Coordinates from ORCA-job cytosine_opt_freq E -394.721724685665
  O       2.213400      1.118800      0.000100
  N      -0.059500      0.981600      0.000100
  N      -2.442200      0.921400      0.000100
  N       1.293500     -0.974400      0.000000
  C      -1.240600      0.267600     -0.000100
  C      -1.164300     -1.072600     -0.000200
  C       1.208800      0.405600     -0.000300
  C       0.190800     -1.647800      0.000300
  H      -0.133100      1.994600      0.000300
  H      -2.022300     -1.731700     -0.000300
  H       0.235100     -2.748700      0.000500
  H      -3.308900      0.398400      0.000300
  H      -2.453300      1.933200      0.000600
13
Coordinates from ORCA-job cytosine_opt_freq E -394.727096180313
  O       2.190843      1.145280     -0.000285
  N      -0.076592      0.979511      0.000263
  N      -2.429539      0.942081      0.000035
  N       1.285977     -0.975612      0.000070
  C      -1.245125      0.255767      0.000078
  C      -1.153364     -1.110009      0.000001
  C       1.207920      0.410732      0.000325
  C       0.176409     -1.660279      0.000050
  H      -0.136018      1.990487      0.000206
  H      -2.010005     -1.771235     -0.000114
  H       0.243597     -2.750020      0.000171
  H      -3.299474      0.440019      0.000218
  H      -2.437229      1.949276      0.000383
13
Coordinates from ORCA-job cytosine_opt_freq E -394.728868122495
  O       2.173650      1.162858      0.000682
  N      -0.091110      0.972450     -0.000071
  N      -2.419907      0.952667      0.000104
  N       1.284621     -0.976207      0.000059
  C      -1.250038      0.249431     -0.000013
  C      -1.145217     -1.131594     -0.000133
  C       1.212858      0.407160     -0.000780
  C       0.162555     -1.661824      0.000154
  H      -0.126319      1.984849      0.000179
  H      -2.008099     -1.785480     -0.000113
  H       0.255935     -2.747544      0.000405
  H      -3.297585      0.460144      0.000412
  H      -2.433944      1.959089      0.000515
13
Coordinates from ORCA-job cytosine_opt_freq E -394.729168660517
  O       2.171542      1.165722     -0.001342
  N      -0.093495      0.969072      0.000581
  N      -2.422272      0.952150     -0.000146
  N       1.288657     -0.977548      0.000251
  C      -1.252618      0.252289      0.000272
  C      -1.145671     -1.131943      0.000364
  C       1.218289      0.401039      0.001798
  C       0.160639     -1.660687     -0.000038
  H      -0.113246      1.982154      0.000030
  H      -2.014931     -1.777503      0.000141
  H       0.264911     -2.746265     -0.000671
  H      -3.299594      0.458865      0.000032
  H      -2.444811      1.958655      0.000128
13
Coordinates from ORCA-job cytosine_opt_freq E -394.729266990777
  O       2.171939      1.165983      0.004361
  N      -0.093066      0.967871     -0.001255
  N      -2.426175      0.948154      0.000440
  N       1.291742     -0.979003     -0.000347
  C      -1.252899      0.257441     -0.000504
  C      -1.146599     -1.127956     -0.000929
  C       1.223377      0.394652     -0.005102
  C       0.159469     -1.659186      0.000254
  H      -0.098085      1.981443      0.000232
  H      -2.022634     -1.764247     -0.000398
  H       0.270296     -2.744538      0.002283
  H      -3.301549      0.450552      0.001098
  H      -2.458416      1.954836      0.001266
13
Coordinates from ORCA-job cytosine_opt_freq E -394.729276713064
  O       2.172905      1.165246     -0.003735
  N      -0.091959      0.968946      0.001282
  N      -2.427628      0.945366     -0.000478
  N       1.291671     -0.979368      0.000510
  C      -1.251570      0.259888      0.000558
  C      -1.146595     -1.125276      0.000932
  C       1.224567      0.392909      0.004810
  C       0.158899     -1.658812     -0.000073
  H      -0.092738      1.982622     -0.000146
  H      -2.024955     -1.758323      0.000395
  H       0.269571     -2.744170     -0.002028
  H      -3.301503      0.444862     -0.000376
  H      -2.463264      1.952110     -0.000251
13
Coordinates from ORCA-job cytosine_opt_freq E -394.729293585015
  O       2.172976      1.165092     -0.000132
  N      -0.091916      0.969730      0.000158
  N      -2.427000      0.945608     -0.000091
  N       1.290743     -0.979045      0.000120
  C      -1.251014      0.259279      0.000074
  C      -1.146190     -1.125734      0.000091
  C       1.223611      0.394066      0.000412
  C       0.158879     -1.659236      0.000032
  H      -0.094952      1.983330      0.000017
  H      -2.023666     -1.760054      0.000038
  H       0.267913     -2.744697     -0.000061
  H      -3.300807      0.445347      0.000286
  H      -2.461176      1.952314      0.000457
13
Coordinates from ORCA-job cytosine_opt_freq E -394.729293290158
  O       2.173087      1.164908      0.000170
  N      -0.091809      0.970318      0.000061
  N      -2.427055      0.945176     -0.000084
  N       1.290376     -0.978920      0.000095
  C      -1.250508      0.259558      0.000033
  C      -1.145989     -1.125494      0.000018
  C       1.223498      0.394105      0.000027
  C       0.158752     -1.659426      0.000074
  H      -0.094596      1.983903      0.000021
  H      -2.023760     -1.759434     -0.000010
  H       0.267236     -2.744912      0.000099
  H      -3.300502      0.444344      0.000345
  H      -2.461330      1.951874      0.000550
