27
Coordinates from ORCA-job dimethylurea_cytosine_opt_freq E -697.793526404780
  O      -2.475240      3.933079      1.501588
  N      -0.919863      2.237594      1.501588
  N      -0.228213      4.427779      1.501588
  C      -1.303033      3.562794      1.501188
  H       0.057782      1.966755      1.501288
  H      -0.362016      5.433330      1.501688
  C      -1.915398      1.156017      1.501588
  H      -2.161460      0.888688      2.529250
  H      -2.816279      1.491414      0.987757
  H      -1.506642      0.285962      0.987757
  C       1.156880      3.935419      1.501443
  H       1.499334      3.813725      2.529069
  H       1.201084      2.975149      0.987608
  H       1.797262      4.652301      0.987545
  O       2.213400      1.118800      0.000100
  N      -0.059500      0.981600      0.000100
  N      -2.442200      0.921400      0.000100
  N       1.293500     -0.974400      0.000000
  C      -1.240600      0.267600     -0.000100
  C      -1.164300     -1.072600     -0.000200
  C       1.208800      0.405600     -0.000300
  C       0.190800     -1.647800      0.000300
  H      -0.133100      1.994600      0.000300
  H      -2.022300     -1.731700     -0.000300
  H       0.235100     -2.748700      0.000500
  H      -3.308900      0.398400      0.000300
  H      -2.453300      1.933200      0.000600
27
Coordinates from ORCA-job dimethylurea_cytosine_opt_freq E -697.908738271910
  O      -2.468557      3.914164      1.517963
  N      -0.917126      2.222545      1.525859
  N      -0.236753      4.451082      1.509518
  C      -1.291463      3.556614      1.517666
  H       0.050388      1.930813      1.520971
  H      -0.421683      5.446433      1.504541
  C      -1.917441      1.157952      1.541552
  H      -2.168771      0.889155      2.579041
  H      -2.821089      1.519895      1.025206
  H      -1.515412      0.261845      1.030546
  C       1.179685      4.047053      1.510164
  H       1.535325      3.953355      2.538130
  H       1.299910      3.093131      1.001322
  H       1.770465      4.802453      0.991440
  O       2.229781      1.041581      0.009149
  N      -0.041876      0.936049     -0.001747
  N      -2.451253      0.927185     -0.035024
  N       1.279256     -1.044796     -0.017126
  C      -1.236800      0.241535     -0.008577
  C      -1.177643     -1.118520     -0.030946
  C       1.219696      0.338035     -0.003452
  C       0.160679     -1.705553     -0.030643
  H      -0.112701      1.946798      0.008562
  H      -2.045482     -1.764468     -0.042867
  H       0.193194     -2.804200     -0.044497
  H      -3.329165      0.424588     -0.050911
  H      -2.423566      1.941282     -0.043497
27
Coordinates from ORCA-job dimethylurea_cytosine_opt_freq E -698.006010984700
  O      -2.467446      3.913709      1.529764
  N      -0.921512      2.219925      1.551381
  N      -0.239638      4.454620      1.507531
  C      -1.288003      3.557839      1.530573
  H       0.041053      1.913434      1.543340
  H      -0.446524      5.443999      1.492101
  C      -1.919857      1.164368      1.585631
  H      -2.172982      0.897404      2.633663
  H      -2.820877      1.538260      1.063394
  H      -1.524092      0.254123      1.082657
  C       1.185810      4.082978      1.507926
  H       1.552369      4.009213      2.535298
  H       1.334846      3.126720      1.008891
  H       1.755804      4.846386      0.977081
  O       2.232627      1.021092      0.018975
  N      -0.035472      0.918615     -0.003451
  N      -2.452601      0.929467     -0.073404
  N       1.276205     -1.069325     -0.026359
  C      -1.233383      0.232445     -0.016050
  C      -1.178157     -1.141425     -0.052385
  C       1.226576      0.314231     -0.003841
  C       0.148648     -1.726420     -0.050150
  H      -0.113016      1.927846      0.013299
  H      -2.049998     -1.781583     -0.070118
  H       0.181405     -2.822582     -0.072371
  H      -3.334253      0.439004     -0.105754
  H      -2.395931      1.941662     -0.085277
27
Coordinates from ORCA-job dimethylurea_cytosine_opt_freq E -698.122479461739
  O      -2.462768      3.903237      1.544080
  N      -0.921891      2.214380      1.589704
  N      -0.243176      4.461017      1.506891
  C      -1.278395      3.555146      1.549364
  H       0.033562      1.886648      1.578109
  H      -0.489147      5.439723      1.476482
  C      -1.921528      1.169054      1.651026
  H      -2.177283      0.911457      2.709174
  H      -2.807879      1.552511      1.116867
  H      -1.541308      0.245758      1.160096
  C       1.195567      4.147666      1.509626
  H       1.575163      4.106137      2.536011
  H       1.395657      3.192712      1.024475
  H       1.730109      4.925936      0.962783
  O       2.232896      0.982685      0.027753
  N      -0.031873      0.889285     -0.011629
  N      -2.440358      0.926313     -0.132993
  N       1.263558     -1.109407     -0.041734
  C      -1.233089      0.219014     -0.032509
  C      -1.186500     -1.168462     -0.082856
  C       1.230813      0.272509     -0.009465
  C       0.121545     -1.755636     -0.077312
  H      -0.113049      1.897270      0.014549
  H      -2.066862     -1.796583     -0.105052
  H       0.152462     -2.848929     -0.108057
  H      -3.326050      0.451923     -0.190331
  H      -2.348577      1.934643     -0.142705
27
Coordinates from ORCA-job dimethylurea_cytosine_opt_freq E -698.243945039742
  O      -2.459192      3.911121      1.552019
  N      -0.929873      2.221422      1.645732
  N      -0.242862      4.462783      1.501978
  C      -1.272312      3.562373      1.572991
  H       0.019389      1.873507      1.631379
  H      -0.525399      5.429764      1.444437
  C      -1.932591      1.181295      1.749624
  H      -2.188676      0.946120      2.811109
  H      -2.790893      1.559419      1.199934
  H      -1.569389      0.248626      1.275063
  C       1.200749      4.193046      1.515476
  H       1.591921      4.193718      2.540236
  H       1.442825      3.232293      1.055792
  H       1.708922      4.970842      0.942082
  O       2.225754      0.959141      0.022954
  N      -0.034964      0.859686     -0.037297
  N      -2.411660      0.915914     -0.212622
  N       1.255532     -1.141350     -0.066210
  C      -1.235254      0.204974     -0.061836
  C      -1.189115     -1.195069     -0.118863
  C       1.234731      0.234796     -0.030422
  C       0.098811     -1.779197     -0.109342
  H      -0.117861      1.866889     -0.000212
  H      -2.078592     -1.810786     -0.140815
  H       0.137969     -2.869683     -0.144466
  H      -3.298472      0.453347     -0.303582
  H      -2.297901      1.921013     -0.212793
27
Coordinates from ORCA-job dimethylurea_cytosine_opt_freq E -698.324458379638
  O      -2.455000      3.925848      1.545310
  N      -0.937255      2.233192      1.694971
  N      -0.238056      4.464387      1.496687
  C      -1.268964      3.571762      1.588638
  H       0.010488      1.880954      1.679309
  H      -0.547369      5.421731      1.412496
  C      -1.946095      1.197502      1.847181
  H      -2.195707      0.992141      2.905715
  H      -2.785373      1.561358      1.285577
  H      -1.597776      0.263516      1.388870
  C       1.204737      4.220165      1.532876
  H       1.595891      4.255974      2.557913
  H       1.475282      3.253747      1.098474
  H       1.703325      4.989789      0.939407
  O       2.213822      0.947634     -0.000078
  N      -0.044730      0.833066     -0.080907
  N      -2.383554      0.900478     -0.286668
  N       1.252653     -1.162622     -0.093193
  C      -1.241504      0.187920     -0.103108
  C      -1.189790     -1.217950     -0.147957
  C       1.235254      0.206362     -0.063351
  C       0.087715     -1.798441     -0.134479
  H      -0.117911      1.841099     -0.036647
  H      -2.086758     -1.824039     -0.162167
  H       0.142348     -2.887526     -0.164945
  H      -3.269787      0.442403     -0.402736
  H      -2.274288      1.905558     -0.274842
27
Coordinates from ORCA-job dimethylurea_cytosine_opt_freq E -698.375182093264
  O      -2.452900      3.942638      1.528315
  N      -0.942480      2.248015      1.734961
  N      -0.232732      4.466383      1.488374
  C      -1.269786      3.581470      1.596140
  H       0.008991      1.907427      1.718847
  H      -0.554926      5.417562      1.379245
  C      -1.954466      1.217872      1.937716
  H      -2.189465      1.044015      2.996158
  H      -2.794787      1.563649      1.369439
  H      -1.616717      0.285714      1.492520
  C       1.205356      4.226731      1.555213
  H       1.587182      4.287491      2.582938
  H       1.486129      3.251998      1.143952
  H       1.712213      4.981528      0.949102
  O       2.203100      0.946000     -0.022344
  N      -0.053893      0.813528     -0.134192
  N      -2.369215      0.884674     -0.353133
  N       1.255149     -1.173439     -0.116635
  C      -1.247428      0.169476     -0.156581
  C      -1.187293     -1.236487     -0.173774
  C       1.235601      0.190367     -0.095291
  C       0.088642     -1.812725     -0.153976
  H      -0.107115      1.822716     -0.084751
  H      -2.088612     -1.837169     -0.177601
  H       0.160174     -2.900729     -0.173924
  H      -3.254312      0.425552     -0.480313
  H      -2.284810      1.891747     -0.328062
27
Coordinates from ORCA-job dimethylurea_cytosine_opt_freq E -698.408076868366
  O      -2.449503      3.956533      1.499920
  N      -0.942161      2.264230      1.767488
  N      -0.227512      4.473439      1.475753
  C      -1.269649      3.591199      1.594080
  H       0.015902      1.944197      1.754431
  H      -0.554511      5.420254      1.343202
  C      -1.953599      1.241281      2.020828
  H      -2.167453      1.099708      3.084654
  H      -2.809426      1.564436      1.455156
  H      -1.622373      0.306549      1.585366
  C       1.205572      4.232651      1.583884
  H       1.566350      4.310473      2.618216
  H       1.492936      3.251257      1.192440
  H       1.730739      4.973892      0.976172
  O       2.192294      0.942193     -0.034306
  N      -0.061876      0.795770     -0.193959
  N      -2.369766      0.865825     -0.413658
  N       1.256252     -1.183986     -0.135421
  C      -1.252047      0.146558     -0.220872
  C      -1.185537     -1.255106     -0.203055
  C       1.232609      0.178271     -0.122740
  C       0.092382     -1.827875     -0.172480
  H      -0.090540      1.805696     -0.142640
  H      -2.088581     -1.853605     -0.200050
  H       0.175836     -2.914987     -0.179013
  H      -3.254341      0.402711     -0.537414
  H      -2.320398      1.874443     -0.373636
27
Coordinates from ORCA-job dimethylurea_cytosine_opt_freq E -698.429466485980
  O      -2.442493      3.961448      1.458840
  N      -0.935459      2.278903      1.799728
  N      -0.221840      4.481922      1.455565
  C      -1.265291      3.597964      1.584616
  H       0.029228      1.980626      1.797028
  H      -0.549943      5.424199      1.297197
  C      -1.944316      1.265875      2.099033
  H      -2.134829      1.155885      3.170310
  H      -2.822561      1.564456      1.545131
  H      -1.617009      0.323057      1.672535
  C       1.206671      4.245311      1.614806
  H       1.535223      4.337186      2.658823
  H       1.506401      3.260596      1.241445
  H       1.752098      4.978484      1.014977
  O       2.177980      0.934655     -0.028928
  N      -0.070435      0.779581     -0.254517
  N      -2.378061      0.844163     -0.467653
  N       1.252648     -1.195654     -0.148584
  C      -1.255849      0.121590     -0.289483
  C      -1.187257     -1.273890     -0.240470
  C       1.223226      0.168321     -0.141998
  C       0.093891     -1.844062     -0.193721
  H      -0.077444      1.789956     -0.205275
  H      -2.089742     -1.873162     -0.240446
  H       0.182608     -2.930736     -0.188341
  H      -3.262811      0.376439     -0.578308
  H      -2.363034      1.852891     -0.409964
27
Coordinates from ORCA-job dimethylurea_cytosine_opt_freq E -698.443209817049
  O      -2.433045      3.952985      1.405445
  N      -0.923205      2.291732      1.837512
  N      -0.216091      4.485934      1.423886
  C      -1.257337      3.599264      1.568492
  H       0.047031      2.013142      1.854739
  H      -0.543824      5.422411      1.235071
  C      -1.928413      1.289364      2.175769
  H      -2.096860      1.207836      3.253531
  H      -2.830607      1.565648      1.640729
  H      -1.604667      0.336029      1.759939
  C       1.207198      4.262378      1.641460
  H       1.494696      4.366082      2.696560
  H       1.527557      3.278040      1.284456
  H       1.769986      4.995101      1.057369
  O       2.159436      0.924688     -0.000670
  N      -0.078996      0.766293     -0.309562
  N      -2.387906      0.824072     -0.514427
  N       1.244462     -1.206760     -0.155773
  C      -1.259394      0.099412     -0.356200
  C      -1.192471     -1.291039     -0.287963
  C       1.208221      0.160290     -0.149309
  C       0.091693     -1.859158     -0.220389
  H      -0.071441      1.777127     -0.264592
  H      -2.092547     -1.893358     -0.302510
  H       0.180401     -2.945913     -0.208908
  H      -3.273387      0.352865     -0.607391
  H      -2.398894      1.831540     -0.434920
27
Coordinates from ORCA-job dimethylurea_cytosine_opt_freq E -698.452150821433
  O      -2.421661      3.926173      1.334852
  N      -0.907115      2.302583      1.884662
  N      -0.209787      4.478750      1.375278
  C      -1.247080      3.591432      1.543860
  H       0.067158      2.041881      1.932002
  H      -0.536589      5.406393      1.146553
  C      -1.907828      1.309421      2.255344
  H      -2.056878      1.251031      3.338005
  H      -2.832030      1.569036      1.743986
  H      -1.588818      0.345669      1.852377
  C       1.205710      4.278514      1.660244
  H       1.442841      4.394639      2.726629
  H       1.555776      3.297333      1.322147
  H       1.781959      5.017104      1.097377
  O       2.136278      0.915814      0.051041
  N      -0.087025      0.758000     -0.353837
  N      -2.397008      0.811421     -0.553285
  N       1.233150     -1.214178     -0.158523
  C      -1.263589      0.084757     -0.416706
  C      -1.199581     -1.303441     -0.345532
  C       1.189685      0.155487     -0.143142
  C       0.086411     -1.869713     -0.254628
  H      -0.073090      1.769244     -0.312801
  H      -2.095906     -1.909822     -0.383863
  H       0.172912     -2.956855     -0.245977
  H      -3.283734      0.338766     -0.627588
  H      -2.422564      1.816568     -0.446128
27
Coordinates from ORCA-job dimethylurea_cytosine_opt_freq E -698.458353017203
  O      -2.403643      3.867053      1.229777
  N      -0.885979      2.310012      1.943013
  N      -0.200179      4.452115      1.302284
  C      -1.232110      3.565920      1.502596
  H       0.090492      2.067987      2.030455
  H      -0.526898      5.362897      1.013881
  C      -1.881441      1.324818      2.342546
  H      -2.012333      1.283686      3.429022
  H      -2.824558      1.575598      1.858370
  H      -1.569888      0.351098      1.953769
  C       1.200477      4.294987      1.677252
  H       1.367823      4.434808      2.754053
  H       1.595571      3.318875      1.375072
  H       1.787385      5.042602      1.138375
  O       2.108324      0.908545      0.116690
  N      -0.095728      0.756029     -0.385685
  N      -2.406250      0.810952     -0.582352
  N       1.217901     -1.217036     -0.162981
  C      -1.270720      0.080781     -0.468264
  C      -1.209363     -1.307718     -0.411709
  C       1.168488      0.153798     -0.128781
  C       0.076512     -1.873406     -0.299000
  H      -0.081487      1.767564     -0.345735
  H      -2.101775     -1.917088     -0.478173
  H       0.160659     -2.960904     -0.303332
  H      -3.295001      0.339437     -0.638148
  H      -2.434681      1.812595     -0.440651
27
Coordinates from ORCA-job dimethylurea_cytosine_opt_freq E -698.463152769392
  O      -2.371626      3.755180      1.079206
  N      -0.862227      2.312703      2.016925
  N      -0.183983      4.393346      1.202847
  C      -1.210036      3.511067      1.442699
  H       0.113930      2.092265      2.152436
  H      -0.509809      5.271852      0.826613
  C      -1.852578      1.334234      2.439927
  H      -1.967248      1.302634      3.529251
  H      -2.809944      1.585652      1.982816
  H      -1.551013      0.351282      2.064144
  C       1.188395      4.309223      1.691516
  H       1.263585      4.495722      2.771628
  H       1.642298      3.339899      1.457296
  H       1.782455      5.063197      1.170280
  O       2.081042      0.904285      0.186411
  N      -0.104023      0.765735     -0.399352
  N      -2.414660      0.830157     -0.598374
  N       1.199715     -1.211990     -0.173269
  C      -1.280282      0.093871     -0.505764
  C      -1.221220     -1.296352     -0.482498
  C       1.147859      0.158074     -0.108412
  C       0.062116     -1.864659     -0.353807
  H      -0.091831      1.777297     -0.354684
  H      -2.110939     -1.905438     -0.579317
  H       0.144282     -2.952009     -0.382474
  H      -3.306038      0.362132     -0.639366
  H      -2.436620      1.826648     -0.414332
27
Coordinates from ORCA-job dimethylurea_cytosine_opt_freq E -698.467392279948
  O      -2.320777      3.583431      0.901773
  N      -0.846016      2.313165      2.107492
  N      -0.159271      4.294221      1.088413
  C      -1.180923      3.420693      1.371951
  H       0.126477      2.117263      2.296533
  H      -0.478925      5.121346      0.605193
  C      -1.832069      1.338201      2.544522
  H      -1.935030      1.307783      3.635543
  H      -2.798071      1.596646      2.109391
  H      -1.539893      0.347543      2.179090
  C       1.171083      4.309247      1.689299
  H       1.146640      4.557844      2.759070
  H       1.685079      3.352392      1.545619
  H       1.766002      5.065701      1.173312
  O       2.058204      0.911720      0.261342
  N      -0.110372      0.794429     -0.390881
  N      -2.420714      0.872110     -0.602574
  N       1.183493     -1.190347     -0.184354
  C      -1.289255      0.129283     -0.526746
  C      -1.229969     -1.262347     -0.552284
  C       1.131797      0.176820     -0.081223
  C       0.049090     -1.835366     -0.412423
  H      -0.100718      1.805756     -0.335191
  H      -2.117648     -1.868297     -0.682036
  H       0.130929     -2.921450     -0.473131
  H      -3.313736      0.406732     -0.637010
  H      -2.433809      1.861487     -0.368345
27
Coordinates from ORCA-job dimethylurea_cytosine_opt_freq E -698.469829094353
  O      -2.254511      3.391050      0.738816
  N      -0.850425      2.323979      2.205704
  N      -0.121337      4.162421      0.978620
  C      -1.146637      3.310938      1.306562
  H       0.115142      2.155612      2.449073
  H      -0.422562      4.923870      0.387193
  C      -1.830887      1.343978      2.647547
  H      -1.925515      1.313529      3.739170
  H      -2.802545      1.605157      2.227265
  H      -1.542022      0.346419      2.294415
  C       1.160072      4.281641      1.669396
  H       1.042974      4.592972      2.715941
  H       1.722994      3.342793      1.620744
  H       1.753365      5.035827      1.148854
  O       2.035759      0.949304      0.323278
  N      -0.121652      0.840893     -0.370366
  N      -2.430666      0.918893     -0.604608
  N       1.176502     -1.142602     -0.193553
  C      -1.299616      0.177293     -0.537072
  C      -1.228466     -1.213979     -0.614028
  C       1.117311      0.219438     -0.051898
  C       0.048669     -1.784770     -0.465328
  H      -0.118644      1.852075     -0.304900
  H      -2.110788     -1.820336     -0.775340
  H       0.138618     -2.867906     -0.558926
  H      -3.320736      0.447461     -0.638630
  H      -2.442800      1.900058     -0.315585
27
Coordinates from ORCA-job dimethylurea_cytosine_opt_freq E -698.471322234637
  O      -2.273246      3.442394      0.764738
  N      -0.885658      2.359387      2.247194
  N      -0.114120      4.135573      0.962243
  C      -1.156631      3.315959      1.311458
  H       0.077618      2.206485      2.508752
  H      -0.404102      4.906995      0.377845
  C      -1.856204      1.359536      2.683574
  H      -1.950638      1.341717      3.774718
  H      -2.831615      1.603549      2.261795
  H      -1.555944      0.357768      2.350087
  C       1.183031      4.212009      1.629764
  H       1.088283      4.471029      2.692390
  H       1.733706      3.271131      1.518994
  H       1.770429      4.987838      1.135348
  O       2.015698      1.000776      0.349548
  N      -0.131662      0.860640     -0.371203
  N      -2.438962      0.905344     -0.631062
  N       1.194242     -1.102992     -0.179080
  C      -1.300184      0.181890     -0.552059
  C      -1.202213     -1.208485     -0.637143
  C       1.114008      0.257011     -0.040372
  C       0.079275     -1.760627     -0.469478
  H      -0.142043      1.872266     -0.311386
  H      -2.073414     -1.827747     -0.810197
  H       0.187993     -2.842121     -0.562978
  H      -3.319135      0.414814     -0.664280
  H      -2.466914      1.883865     -0.316867
27
Coordinates from ORCA-job dimethylurea_cytosine_opt_freq E -698.472257868264
  O      -2.284646      3.422518      0.766968
  N      -0.934446      2.400367      2.325368
  N      -0.110414      4.064763      0.932089
  C      -1.179567      3.310260      1.342326
  H       0.026092      2.268626      2.610352
  H      -0.377756      4.812506      0.307910
  C      -1.890360      1.377894      2.743774
  H      -1.987467      1.368444      3.834039
  H      -2.869271      1.604801      2.318683
  H      -1.576743      0.375538      2.427465
  C       1.203475      4.114410      1.571356
  H       1.132583      4.378320      2.634726
  H       1.727209      3.158938      1.448639
  H       1.796661      4.878206      1.065418
  O       2.003110      1.070809      0.374524
  N      -0.138126      0.902745     -0.360655
  N      -2.442877      0.913712     -0.658344
  N       1.217431     -1.041776     -0.168285
  C      -1.294557      0.209043     -0.567552
  C      -1.167981     -1.178671     -0.669864
  C       1.113692      0.314543     -0.020991
  C       0.117220     -1.713254     -0.483524
  H      -0.158065      1.914973     -0.302471
  H      -2.026592     -1.809669     -0.863637
  H       0.245440     -2.791855     -0.585048
  H      -3.310416      0.400869     -0.697776
  H      -2.492029      1.878945     -0.303146
27
Coordinates from ORCA-job dimethylurea_cytosine_opt_freq E -698.473012364022
  O      -2.268160      3.384239      0.758206
  N      -0.929536      2.419667      2.357000
  N      -0.104469      4.062536      0.932454
  C      -1.166836      3.296740      1.344273
  H       0.029639      2.303160      2.655464
  H      -0.379474      4.793708      0.292305
  C      -1.882013      1.396809      2.773619
  H      -1.975334      1.403972      3.864131
  H      -2.861217      1.622945      2.348533
  H      -1.577421      0.388838      2.473801
  C       1.196588      4.157939      1.596618
  H       1.092792      4.418346      2.658412
  H       1.755449      3.221280      1.480522
  H       1.770288      4.946623      1.106552
  O       2.019277      1.024661      0.332279
  N      -0.133451      0.879991     -0.377259
  N      -2.438487      0.907765     -0.690412
  N       1.205644     -1.079941     -0.188971
  C      -1.294390      0.196814     -0.592634
  C      -1.178362     -1.191330     -0.695122
  C       1.115737      0.277633     -0.048883
  C       0.099178     -1.740343     -0.503046
  H      -0.135481      1.894146     -0.325773
  H      -2.042840     -1.813374     -0.892716
  H       0.215826     -2.820567     -0.600622
  H      -3.305042      0.392803     -0.727079
  H      -2.486304      1.860945     -0.309308
27
Coordinates from ORCA-job dimethylurea_cytosine_opt_freq E -698.473658173360
  O      -2.263165      3.354035      0.768557
  N      -0.935518      2.439164      2.400925
  N      -0.102694      4.049742      0.936264
  C      -1.164362      3.287243      1.359052
  H       0.019267      2.332219      2.715318
  H      -0.380136      4.766959      0.281320
  C      -1.890113      1.422160      2.812895
  H      -1.984509      1.445982      3.903964
  H      -2.867093      1.645692      2.381283
  H      -1.587479      0.410298      2.527439
  C       1.198200      4.161985      1.599446
  H       1.090282      4.429952      2.658726
  H       1.766245      3.230170      1.490471
  H       1.763101      4.955970      1.107669
  O       2.026658      1.016625      0.298104
  N      -0.132179      0.872866     -0.389664
  N      -2.435076      0.902654     -0.727871
  N       1.206729     -1.090395     -0.205574
  C      -1.289845      0.189882     -0.617383
  C      -1.176087     -1.197707     -0.718515
  C       1.120745      0.269664     -0.076511
  C       0.099968     -1.749917     -0.520741
  H      -0.124546      1.887172     -0.346672
  H      -2.041603     -1.817231     -0.920227
  H       0.212975     -2.831265     -0.609637
  H      -3.298284      0.381911     -0.768104
  H      -2.489883      1.840175     -0.318189
27
Coordinates from ORCA-job dimethylurea_cytosine_opt_freq E -698.474238823241
  O      -2.253837      3.318380      0.776283
  N      -0.943531      2.463839      2.452856
  N      -0.099005      4.033631      0.944409
  C      -1.160782      3.276983      1.375934
  H       0.004297      2.364892      2.788143
  H      -0.374668      4.733642      0.270181
  C      -1.907723      1.458377      2.866226
  H      -2.006749      1.503467      3.957137
  H      -2.878549      1.680499      2.421648
  H      -1.605013      0.440305      2.596725
  C       1.200694      4.159768      1.605320
  H       1.092816      4.451277      2.658377
  H       1.770017      3.227217      1.518338
  H       1.764501      4.945695      1.099549
  O       2.040588      1.018703      0.231133
  N      -0.134004      0.864663     -0.399758
  N      -2.432009      0.892179     -0.772045
  N       1.213442     -1.095577     -0.235144
  C      -1.284529      0.178363     -0.642057
  C      -1.171467     -1.208387     -0.740584
  C       1.124985      0.265571     -0.103351
  C       0.106853     -1.758399     -0.544182
  H      -0.121640      1.879280     -0.371288
  H      -2.036229     -1.827721     -0.945491
  H       0.221622     -2.839330     -0.634837
  H      -3.291520      0.365342     -0.819301
  H      -2.496964      1.813348     -0.331876
27
Coordinates from ORCA-job dimethylurea_cytosine_opt_freq E -698.474744496814
  O      -2.242271      3.274060      0.778916
  N      -0.952801      2.490414      2.505953
  N      -0.095171      4.009351      0.950811
  C      -1.157776      3.262763      1.392985
  H      -0.012395      2.400662      2.862878
  H      -0.364440      4.687604      0.252183
  C      -1.927228      1.495963      2.928836
  H      -2.031225      1.560692      4.018333
  H      -2.890734      1.717175      2.469834
  H      -1.621629      0.472754      2.672362
  C       1.204252      4.144946      1.605913
  H       1.102758      4.472460      2.649317
  H       1.766518      3.206351      1.550543
  H       1.774281      4.908889      1.074217
  O       2.040411      1.031373      0.198826
  N      -0.138930      0.864136     -0.412266
  N      -2.431080      0.882000     -0.817104
  N       1.222583     -1.088049     -0.264980
  C      -1.280248      0.170475     -0.668255
  C      -1.162937     -1.214880     -0.767227
  C       1.131579      0.275286     -0.144442
  C       0.119478     -1.757284     -0.571073
  H      -0.131908      1.879028     -0.393543
  H      -2.024425     -1.837634     -0.974110
  H       0.238969     -2.838071     -0.657148
  H      -3.285965      0.347975     -0.873314
  H      -2.508067      1.787566     -0.346104
27
Coordinates from ORCA-job dimethylurea_cytosine_opt_freq E -698.475154749187
  O      -2.239660      3.248211      0.786720
  N      -0.966929      2.517411      2.549715
  N      -0.095698      3.989192      0.957849
  C      -1.160331      3.253918      1.410576
  H      -0.032739      2.438566      2.925088
  H      -0.356911      4.650718      0.240541
  C      -1.947414      1.531403      2.988188
  H      -2.057064      1.612873      4.075080
  H      -2.904156      1.751347      2.515023
  H      -1.638421      0.505786      2.743365
  C       1.208536      4.119938      1.600848
  H       1.122429      4.475380      2.636805
  H       1.755978      3.171498      1.565271
  H       1.788341      4.858384      1.044327
  O       2.044072      1.047969      0.164615
  N      -0.142875      0.865274     -0.419258
  N      -2.429138      0.871342     -0.856182
  N       1.234697     -1.076224     -0.291187
  C      -1.276211      0.164373     -0.689382
  C      -1.150856     -1.220019     -0.789406
  C       1.134793      0.285950     -0.162331
  C       0.136524     -1.752503     -0.597043
  H      -0.146192      1.880125     -0.407546
  H      -2.007416     -1.848339     -0.999166
  H       0.264538     -2.832156     -0.686751
  H      -3.279160      0.330182     -0.921276
  H      -2.517140      1.765406     -0.362139
27
Coordinates from ORCA-job dimethylurea_cytosine_opt_freq E -698.475505120394
  O      -2.240794      3.225440      0.794788
  N      -0.977327      2.539509      2.583156
  N      -0.101352      3.976365      0.965789
  C      -1.165726      3.247919      1.428465
  H      -0.047017      2.474459      2.971423
  H      -0.354500      4.620553      0.230377
  C      -1.960178      1.563025      3.046579
  H      -2.074623      1.657907      4.130548
  H      -2.910753      1.783120      2.560921
  H      -1.649569      0.537004      2.808679
  C       1.209373      4.099766      1.595085
  H       1.141652      4.486924      2.621070
  H       1.738115      3.139734      1.581711
  H       1.801729      4.804630      1.009013
  O       2.042860      1.055349      0.158152
  N      -0.144511      0.864372     -0.427025
  N      -2.425866      0.862495     -0.891484
  N       1.244510     -1.068539     -0.313144
  C      -1.272528      0.159067     -0.711000
  C      -1.139473     -1.224478     -0.813674
  C       1.136376      0.291378     -0.171295
  C       0.151316     -1.749507     -0.622983
  H      -0.162180      1.878923     -0.411891
  H      -1.990911     -1.857828     -1.028936
  H       0.287640     -2.827475     -0.722314
  H      -3.272111      0.316326     -0.966082
  H      -2.522551      1.749569     -0.383583
27
Coordinates from ORCA-job dimethylurea_cytosine_opt_freq E -698.475702126113
  O      -2.240841      3.203087      0.799733
  N      -0.980663      2.554224      2.604538
  N      -0.105561      3.965928      0.967865
  C      -1.167978      3.239583      1.439092
  H      -0.051834      2.505424      2.999105
  H      -0.354225      4.593776      0.217261
  C      -1.960845      1.585328      3.090977
  H      -2.076329      1.689042      4.173296
  H      -2.909347      1.804117      2.600350
  H      -1.651476      0.558918      2.857351
  C       1.207623      4.092436      1.592019
  H       1.145770      4.504270      2.608532
  H       1.727771      3.127336      1.598362
  H       1.806854      4.774490      0.986277
  O       2.034540      1.052334      0.177585
  N      -0.145435      0.861618     -0.436036
  N      -2.423378      0.857372     -0.917806
  N       1.246876     -1.068091     -0.323158
  C      -1.271009      0.155759     -0.731626
  C      -1.132869     -1.226913     -0.839874
  C       1.133216      0.289771     -0.169469
  C       0.158105     -1.749821     -0.645369
  H      -0.173238      1.875828     -0.409169
  H      -1.980550     -1.862362     -1.064131
  H       0.298388     -2.826719     -0.750891
  H      -3.267062      0.308117     -0.998344
  H      -2.524905      1.741153     -0.404125
27
Coordinates from ORCA-job dimethylurea_cytosine_opt_freq E -698.475865901131
  O      -2.242308      3.182139      0.810451
  N      -0.978970      2.566846      2.624480
  N      -0.111381      3.959862      0.968854
  C      -1.169986      3.233815      1.450838
  H      -0.050278      2.536926      3.021304
  H      -0.360416      4.572597      0.206170
  C      -1.954601      1.605007      3.130899
  H      -2.069566      1.716523      4.212193
  H      -2.903276      1.820934      2.639171
  H      -1.649574      0.577140      2.901454
  C       1.203618      4.095860      1.588540
  H       1.142711      4.528012      2.596414
  H       1.721553      3.129743      1.611210
  H       1.804101      4.763542      0.968140
  O       2.023716      1.036101      0.211443
  N      -0.143948      0.853959     -0.445972
  N      -2.418870      0.853600     -0.943800
  N       1.244384     -1.077854     -0.326738
  C      -1.268510      0.151223     -0.754962
  C      -1.128898     -1.230441     -0.871511
  C       1.128170      0.278294     -0.161238
  C       0.159042     -1.756487     -0.666713
  H      -0.176747      1.867455     -0.399837
  H      -1.973966     -1.864383     -1.110103
  H       0.300089     -2.832364     -0.780705
  H      -3.261104      0.303011     -1.030009
  H      -2.523388      1.734946     -0.427629
27
Coordinates from ORCA-job dimethylurea_cytosine_opt_freq E -698.476046913544
  O      -2.241104      3.149776      0.821794
  N      -0.975615      2.584075      2.650802
  N      -0.114538      3.943668      0.963704
  C      -1.169634      3.221832      1.461636
  H      -0.047413      2.579720      3.049170
  H      -0.366286      4.537106      0.186824
  C      -1.943946      1.629030      3.177409
  H      -2.056231      1.749631      4.258048
  H      -2.896162      1.837596      2.689189
  H      -1.645133      0.597991      2.955646
  C       1.199464      4.100213      1.582630
  H       1.131461      4.553503      2.580527
  H       1.722114      3.137423      1.624895
  H       1.796732      4.759782      0.950496
  O       2.004976      1.016962      0.260264
  N      -0.143826      0.846109     -0.457262
  N      -2.414891      0.850556     -0.974165
  N       1.238300     -1.089249     -0.324744
  C      -1.266228      0.147241     -0.784224
  C      -1.124245     -1.232668     -0.915277
  C       1.118552      0.264945     -0.145934
  C       0.158693     -1.763186     -0.692894
  H      -0.180040      1.858047     -0.383731
  H      -1.965472     -1.863458     -1.175456
  H       0.300193     -2.838007     -0.814925
  H      -3.255591      0.298712     -1.066591
  H      -2.522534      1.728656     -0.455486
27
Coordinates from ORCA-job dimethylurea_cytosine_opt_freq E -698.476183477885
  O      -2.242224      3.123217      0.840505
  N      -0.970896      2.601943      2.678620
  N      -0.119141      3.931061      0.960500
  C      -1.170683      3.215203      1.475683
  H      -0.043124      2.619027      3.076496
  H      -0.378066      4.511493      0.176082
  C      -1.934353      1.653343      3.219671
  H      -2.044368      1.783384      4.299657
  H      -2.890636      1.853446      2.735733
  H      -1.642820      0.617868      3.007266
  C       1.194891      4.107303      1.574627
  H       1.123250      4.576998      2.564720
  H       1.723752      3.149031      1.631796
  H       1.785086      4.763675      0.932572
  O       1.989542      0.992496      0.302524
  N      -0.142513      0.834784     -0.465102
  N      -2.408816      0.847132     -1.004113
  N       1.231854     -1.105772     -0.322391
  C      -1.261859      0.140769     -0.811644
  C      -1.119604     -1.237171     -0.958928
  C       1.110773      0.246944     -0.131813
  C       0.157540     -1.773413     -0.717796
  H      -0.179211      1.844255     -0.363158
  H      -1.957464     -1.862733     -1.241683
  H       0.298686     -2.847136     -0.848882
  H      -3.249580      0.296977     -1.105220
  H      -2.518417      1.721883     -0.483376
27
Coordinates from ORCA-job dimethylurea_cytosine_opt_freq E -698.476270503161
  O      -2.238661      3.096339      0.848739
  N      -0.971128      2.620890      2.702928
  N      -0.116806      3.909529      0.953976
  C      -1.169200      3.204683      1.483104
  H      -0.044912      2.652160      3.102289
  H      -0.379319      4.479560      0.162949
  C      -1.931180      1.676218      3.254001
  H      -2.038645      1.814968      4.333412
  H      -2.891902      1.866989      2.774919
  H      -1.643303      0.636719      3.052723
  C       1.193939      4.105254      1.568995
  H       1.116136      4.589710      2.551703
  H       1.729058      3.151914      1.643219
  H       1.779690      4.758517      0.919788
  O       1.977664      0.984357      0.323719
  N      -0.145983      0.829657     -0.467762
  N      -2.407532      0.843089     -1.025770
  N       1.229163     -1.110650     -0.324031
  C      -1.260553      0.136298     -0.829813
  C      -1.114271     -1.239580     -0.992188
  C       1.104620      0.240659     -0.124823
  C       0.160479     -1.775984     -0.738824
  H      -0.184766      1.837045     -0.347572
  H      -1.948066     -1.862911     -1.291130
  H       0.304433     -2.848522     -0.876422
  H      -3.248314      0.294513     -1.134516
  H      -2.519044      1.714584     -0.501266
27
Coordinates from ORCA-job dimethylurea_cytosine_opt_freq E -698.476335083181
  O      -2.240253      3.083467      0.861413
  N      -0.971277      2.635719      2.721642
  N      -0.118327      3.898304      0.951607
  C      -1.171097      3.202422      1.492473
  H      -0.045239      2.671385      3.120396
  H      -0.386556      4.467216      0.161498
  C      -1.930836      1.695445      3.280121
  H      -2.037018      1.841923      4.358795
  H      -2.894502      1.879457      2.804163
  H      -1.646164      0.652491      3.088402
  C       1.191672      4.106032      1.562826
  H       1.115602      4.603309      2.539564
  H       1.729209      3.155437      1.650745
  H       1.774550      4.752725      0.904574
  O       1.974271      0.971770      0.334855
  N      -0.147358      0.821081     -0.464025
  N      -2.403775      0.838971     -1.041815
  N       1.229037     -1.119338     -0.329636
  C      -1.257722      0.129730     -0.840840
  C      -1.109584     -1.244359     -1.017249
  C       1.103403      0.230542     -0.121024
  C       0.163841     -1.781398     -0.757838
  H      -0.187328      1.826450     -0.329253
  H      -1.940801     -1.864831     -1.328557
  H       0.309612     -2.852745     -0.903103
  H      -3.246437      0.295676     -1.161177
  H      -2.515325      1.709124     -0.516213
27
Coordinates from ORCA-job dimethylurea_cytosine_opt_freq E -698.476404399127
  O      -2.241831      3.071236      0.868402
  N      -0.975406      2.651865      2.737567
  N      -0.117322      3.880173      0.945304
  C      -1.173239      3.197499      1.498149
  H      -0.049000      2.686950      3.135558
  H      -0.388578      4.448661      0.155722
  C      -1.933105      1.714961      3.304909
  H      -2.037185      1.869032      4.382890
  H      -2.900315      1.891475      2.833262
  H      -1.648995      0.669366      3.123837
  C       1.190026      4.101073      1.556466
  H       1.113738      4.615526      2.524532
  H       1.728356      3.153036      1.664291
  H       1.774283      4.735212      0.887381
  O       1.972202      0.965535      0.342247
  N      -0.150943      0.815283     -0.454062
  N      -2.401558      0.835155     -1.052037
  N       1.231852     -1.122008     -0.339032
  C      -1.256403      0.124971     -0.845974
  C      -1.103738     -1.246918     -1.038242
  C       1.103115      0.225492     -0.118022
  C       0.170171     -1.782260     -0.777843
  H      -0.193817      1.819155     -0.308923
  H      -1.931741     -1.865908     -1.360461
  H       0.319974     -2.851628     -0.933831
  H      -3.246038      0.297820     -1.183574
  H      -2.512904      1.705250     -0.526172
27
Coordinates from ORCA-job dimethylurea_cytosine_opt_freq E -698.476473131023
  O      -2.250389      3.069819      0.879083
  N      -0.979716      2.664920      2.748345
  N      -0.121258      3.867695      0.938368
  C      -1.179604      3.197823      1.504384
  H      -0.050639      2.692082      3.141739
  H      -0.397190      4.441379      0.153996
  C      -1.934685      1.731307      3.325742
  H      -2.036318      1.891799      4.403147
  H      -2.905214      1.901717      2.858831
  H      -1.650103      0.684149      3.153532
  C       1.185195      4.098430      1.547151
  H       1.111965      4.632410      2.504981
  H       1.721154      3.151610      1.675791
  H       1.773486      4.713874      0.864316
  O       1.974149      0.950937      0.355601
  N      -0.151502      0.806437     -0.435927
  N      -2.395587      0.833620     -1.056377
  N       1.235897     -1.129241     -0.349776
  C      -1.253033      0.120675     -0.845870
  C      -1.097796     -1.248739     -1.055996
  C       1.105502      0.214875     -0.111258
  C       0.176318     -1.785000     -0.799316
  H      -0.195732      1.809027     -0.281236
  H      -1.923567     -1.864461     -1.389789
  H       0.328306     -2.851992     -0.969285
  H      -3.242627      0.305035     -1.204108
  H      -2.505412      1.705816     -0.533724
27
Coordinates from ORCA-job dimethylurea_cytosine_opt_freq E -698.476543835627
  O      -2.262300      3.070914      0.888750
  N      -0.985247      2.676420      2.755594
  N      -0.127067      3.853433      0.928166
  C      -1.187880      3.197453      1.508452
  H      -0.052328      2.694023      3.141886
  H      -0.406634      4.430775      0.147603
  C      -1.934816      1.744288      3.343973
  H      -2.032868      1.909358      4.421124
  H      -2.908800      1.909129      2.882589
  H      -1.647469      0.697091      3.178278
  C       1.178666      4.093708      1.535727
  H       1.106039      4.648904      2.481367
  H       1.710971      3.147968      1.686226
  H       1.772827      4.687778      0.839153
  O       1.975775      0.934525      0.377509
  N      -0.150273      0.799328     -0.414091
  N      -2.388081      0.835830     -1.055747
  N       1.239901     -1.135724     -0.358323
  C      -1.248761      0.120308     -0.843295
  C      -1.091783     -1.246395     -1.071083
  C       1.107841      0.204270     -0.099980
  C       0.181696     -1.785707     -0.819221
  H      -0.193796      1.801359     -0.252699
  H      -1.915523     -1.857770     -1.417785
  H       0.334991     -2.849741     -1.005727
  H      -3.236264      0.314433     -1.219964
  H      -2.497219      1.710049     -0.536136
27
Coordinates from ORCA-job dimethylurea_cytosine_opt_freq E -698.476615792384
  O      -2.279151      3.074646      0.901913
  N      -0.989920      2.686439      2.761174
  N      -0.137563      3.841020      0.916051
  C      -1.199162      3.198364      1.512674
  H      -0.051704      2.693856      3.136345
  H      -0.422448      4.421797      0.139776
  C      -1.932133      1.754458      3.361296
  H      -2.025209      1.922560      4.438468
  H      -2.909621      1.914289      2.905993
  H      -1.640415      0.708470      3.199217
  C       1.168851      4.090347      1.520719
  H       1.096209      4.666769      2.453251
  H       1.697182      3.145774      1.691366
  H       1.768024      4.662878      0.810450
  O       1.977420      0.909214      0.412084
  N      -0.145450      0.790989     -0.388812
  N      -2.376725      0.842738     -1.052821
  N       1.242277     -1.146847     -0.362540
  C      -1.241676      0.122916     -0.840970
  C      -1.085833     -1.240757     -1.087254
  C       1.110236      0.188439     -0.081938
  C       0.184968     -1.787342     -0.839112
  H      -0.184057      1.792818     -0.221265
  H      -1.908054     -1.844851     -1.450304
  H       0.336736     -2.848337     -1.042959
  H      -3.224722      0.327622     -1.235565
  H      -2.486462      1.717736     -0.534891
27
Coordinates from ORCA-job dimethylurea_cytosine_opt_freq E -698.476696436818
  O      -2.297780      3.073698      0.917364
  N      -0.994378      2.698396      2.769141
  N      -0.150377      3.824869      0.901892
  C      -1.211823      3.196894      1.517280
  H      -0.050425      2.699068      3.130618
  H      -0.441555      4.405217      0.127383
  C      -1.927501      1.765305      3.382036
  H      -2.013651      1.936020      4.459346
  H      -2.908804      1.919349      2.933299
  H      -1.629399      0.721459      3.221985
  C       1.157093      4.085664      1.502650
  H       1.082294      4.683097      2.421246
  H       1.683005      3.143483      1.692474
  H       1.758757      4.639160      0.779413
  O       1.976547      0.878775      0.457077
  N      -0.138978      0.782684     -0.363115
  N      -2.362796      0.853743     -1.051285
  N       1.242432     -1.160322     -0.361808
  C      -1.232374      0.128441     -0.842131
  C      -1.079279     -1.231660     -1.108058
  C       1.111141      0.169945     -0.058378
  C       0.186714     -1.788502     -0.859097
  H      -0.169197      1.784497     -0.189688
  H      -1.899437     -1.825925     -1.491827
  H       0.335939     -2.846038     -1.081386
  H      -3.208539      0.342745     -1.254335
  H      -2.476030      1.725946     -0.529749
27
Coordinates from ORCA-job dimethylurea_cytosine_opt_freq E -698.476785977491
  O      -2.313638      3.068194      0.932199
  N      -0.996564      2.709573      2.777749
  N      -0.163194      3.811480      0.890135
  C      -1.222984      3.194448      1.521771
  H      -0.047476      2.708678      3.125278
  H      -0.461425      4.388810      0.115773
  C      -1.921588      1.774586      3.401663
  H      -1.999523      1.947351      4.479112
  H      -2.906139      1.923413      2.958396
  H      -1.616255      0.733348      3.241297
  C       1.145470      4.083959      1.486103
  H       1.067665      4.695454      2.394798
  H       1.672431      3.145003      1.687899
  H       1.744969      4.627973      0.753848
  O       1.973503      0.846554      0.502429
  N      -0.132082      0.774041     -0.342735
  N      -2.348600      0.866336     -1.052498
  N       1.239010     -1.176525     -0.355354
  C      -1.222447      0.134211     -0.847538
  C      -1.073890     -1.222491     -1.130953
  C       1.110216      0.149888     -0.034025
  C       0.185733     -1.791008     -0.875622
  H      -0.152081      1.775728     -0.164351
  H      -1.891969     -1.805861     -1.535549
  H       0.331123     -2.846030     -1.111631
  H      -3.190766      0.357504     -1.275007
  H      -2.467902      1.731391     -0.520842
27
Coordinates from ORCA-job dimethylurea_cytosine_opt_freq E -698.476866754674
  O      -2.323482      3.056057      0.944383
  N      -0.997603      2.721620      2.788743
  N      -0.172628      3.798481      0.882343
  C      -1.230631      3.189860      1.526623
  H      -0.045027      2.725263      3.125452
  H      -0.476966      4.369281      0.105296
  C      -1.916691      1.785157      3.421730
  H      -1.985867      1.960781      4.499076
  H      -2.903855      1.928844      2.982425
  H      -1.604405      0.746098      3.261049
  C       1.136512      4.083025      1.473093
  H       1.056253      4.702054      2.376391
  H       1.667923      3.148161      1.681458
  H       1.729869      4.626345      0.735339
  O       1.967987      0.820147      0.539398
  N      -0.127580      0.766323     -0.330470
  N      -2.336885      0.876977     -1.058538
  N       1.233317     -1.191244     -0.346451
  C      -1.214097      0.137958     -0.857170
  C      -1.069060     -1.215490     -1.156048
  C       1.107383      0.132872     -0.013691
  C       0.183993     -1.793727     -0.888920
  H      -0.140273      1.767310     -0.146699
  H      -1.884462     -1.789341     -1.579150
  H       0.326986     -2.846959     -1.134221
  H      -3.175156      0.369519     -1.298773
  H      -2.463960      1.730634     -0.510325
27
Coordinates from ORCA-job dimethylurea_cytosine_opt_freq E -698.476929693327
  O      -2.328091      3.044811      0.953182
  N      -0.997406      2.731091      2.798312
  N      -0.178731      3.791279      0.879549
  C      -1.234799      3.186757      1.531452
  H      -0.043052      2.740896      3.128735
  H      -0.487776      4.356476      0.100123
  C      -1.913777      1.794495      3.437397
  H      -1.975303      1.973430      4.514440
  H      -2.902539      1.934504      3.000300
  H      -1.596891      0.756505      3.276882
  C       1.130823      4.084431      1.464469
  H       1.051765      4.704637      2.367313
  H       1.667787      3.153059      1.674145
  H       1.716653      4.632157      0.724028
  O       1.963012      0.801184      0.563247
  N      -0.125453      0.759087     -0.324732
  N      -2.328683      0.883370     -1.066118
  N       1.227615     -1.203355     -0.338746
  C      -1.208584      0.137889     -0.866280
  C      -1.065213     -1.212734     -1.178083
  C       1.104633      0.119720      0.000099
  C       0.182716     -1.797098     -0.898835
  H      -0.136589      1.758627     -0.134022
  H      -1.878368     -1.780096     -1.613763
  H       0.324717     -2.849497     -1.148620
  H      -3.164695      0.379270     -1.321330
  H      -2.462176      1.725110     -0.500798
27
Coordinates from ORCA-job dimethylurea_cytosine_opt_freq E -698.476971756672
  O      -2.331091      3.033784      0.960839
  N      -0.998195      2.741151      2.808213
  N      -0.183166      3.783124      0.877896
  C      -1.237870      3.183640      1.536940
  H      -0.043063      2.756739      3.135626
  H      -0.495153      4.341812      0.094898
  C      -1.912442      1.806094      3.454069
  H      -1.966712      1.989549      4.530608
  H      -2.902706      1.942497      3.019189
  H      -1.592784      0.768216      3.295842
  C       1.126583      4.084338      1.456528
  H       1.050826      4.707622      2.357882
  H       1.668183      3.156551      1.670543
  H       1.706749      4.632586      0.712103
  O       1.957689      0.786228      0.582575
  N      -0.125437      0.752055     -0.319622
  N      -2.322201      0.886830     -1.074229
  N       1.223870     -1.212161     -0.335300
  C      -1.204999      0.135686     -0.873609
  C      -1.060346     -1.211505     -1.199799
  C       1.102048      0.109239      0.010834
  C       0.183955     -1.799305     -0.910690
  H      -0.140505      1.749404     -0.119022
  H      -1.870956     -1.774266     -1.645744
  H       0.327299     -2.850216     -1.166349
  H      -3.157224      0.388980     -1.344782
  H      -2.460753      1.717334     -0.493095
27
Coordinates from ORCA-job dimethylurea_cytosine_opt_freq E -698.477013027777
  O      -2.333327      3.029407      0.964902
  N      -0.998609      2.746226      2.812344
  N      -0.186849      3.781700      0.877448
  C      -1.239961      3.183506      1.540182
  H      -0.043328      2.764699      3.139244
  H      -0.499976      4.336002      0.091804
  C      -1.911523      1.813023      3.463206
  H      -1.959724      2.000050      4.539379
  H      -2.902830      1.947885      3.030303
  H      -1.591243      0.774814      3.306604
  C       1.123533      4.086610      1.451101
  H       1.051745      4.711810      2.351675
  H       1.667695      3.160828      1.667989
  H       1.701043      4.633376      0.703573
  O       1.954120      0.773423      0.597658
  N      -0.125408      0.745524     -0.314135
  N      -2.317851      0.888371     -1.077521
  N       1.222232     -1.218981     -0.334982
  C      -1.203408      0.132687     -0.875457
  C      -1.056816     -1.211528     -1.213423
  C       1.100599      0.100336      0.018869
  C       0.185702     -1.801425     -0.920345
  H      -0.146053      1.740674     -0.104393
  H      -1.866015     -1.771503     -1.665238
  H       0.330313     -2.850796     -1.181826
  H      -3.153200      0.398051     -1.360590
  H      -2.459263      1.711236     -0.486025
27
Coordinates from ORCA-job dimethylurea_cytosine_opt_freq E -698.477036759737
  O      -2.336070      3.024342      0.968956
  N      -1.000235      2.752501      2.816772
  N      -0.190179      3.777116      0.875838
  C      -1.242256      3.182367      1.543213
  H      -0.045215      2.773659      3.144705
  H      -0.502872      4.324898      0.085564
  C      -1.910606      1.821864      3.474203
  H      -1.953171      2.012892      4.549937
  H      -2.903399      1.954802      3.044346
  H      -1.590815      0.783003      3.320555
  C       1.120716      4.085913      1.445654
  H       1.050899      4.718093      2.341514
  H       1.665183      3.161971      1.670089
  H       1.698781      4.625135      0.693089
  O       1.949264      0.761917      0.614079
  N      -0.126256      0.739895     -0.307138
  N      -2.314254      0.888961     -1.080266
  N       1.222810     -1.222980     -0.338569
  C      -1.202499      0.130461     -0.876124
  C      -1.052568     -1.210432     -1.225694
  C       1.098708      0.093089      0.026168
  C       0.189296     -1.801678     -0.932592
  H      -0.152258      1.733003     -0.088623
  H      -1.859862     -1.768106     -1.683784
  H       0.336107     -2.848528     -1.202756
  H      -3.149473      0.405357     -1.374964
  H      -2.458179      1.706490     -0.481827
27
Coordinates from ORCA-job dimethylurea_cytosine_opt_freq E -698.477058004555
  O      -2.337962      3.023454      0.970108
  N      -1.000507      2.754282      2.816448
  N      -0.193155      3.779270      0.875189
  C      -1.243654      3.183465      1.543612
  H      -0.046105      2.777198      3.146456
  H      -0.504826      4.322614      0.081559
  C      -1.909195      1.825618      3.478010
  H      -1.946883      2.019343      4.553491
  H      -2.903248      1.958372      3.051237
  H      -1.591228      0.786047      3.325488
  C       1.118663      4.088029      1.443039
  H       1.049737      4.724226      2.335982
  H       1.662062      3.164210      1.670883
  H       1.698265      4.621762      0.687710
  O       1.945830      0.751318      0.627459
  N      -0.126372      0.734797     -0.300603
  N      -2.312284      0.889046     -1.079340
  N       1.223895     -1.226778     -0.342231
  C      -1.202428      0.128634     -0.874002
  C      -1.050444     -1.210027     -1.230807
  C       1.097318      0.086374      0.031921
  C       0.191570     -1.802601     -0.940994
  H      -0.154666      1.726521     -0.076651
  H      -1.856726     -1.766023     -1.692873
  H       0.339302     -2.847318     -1.218596
  H      -3.147304      0.410140     -1.382058
  H      -2.458061      1.704033     -0.478092
27
Coordinates from ORCA-job dimethylurea_cytosine_opt_freq E -698.477066967344
  O      -2.339897      3.017178      0.973283
  N      -1.001637      2.759970      2.820015
  N      -0.195859      3.775292      0.873543
  C      -1.245271      3.181783      1.545184
  H      -0.048190      2.787188      3.152750
  H      -0.506303      4.311140      0.074464
  C      -1.907723      1.834181      3.488035
  H      -1.939913      2.031784      4.563031
  H      -2.903803      1.965459      3.065821
  H      -1.592064      0.793596      3.338196
  C       1.116638      4.086071      1.439436
  H       1.047112      4.730719      2.326047
  H       1.657967      3.162952      1.674883
  H       1.698369      4.610944      0.679494
  O       1.939877      0.741686      0.642899
  N      -0.128047      0.730075     -0.293550
  N      -2.310285      0.888768     -1.081563
  N       1.225543     -1.228895     -0.347366
  C      -1.202024      0.127511     -0.874779
  C      -1.046966     -1.208424     -1.239696
  C       1.094537      0.080692      0.037952
  C       0.195316     -1.801809     -0.952830
  H      -0.157178      1.720685     -0.064396
  H      -1.850859     -1.762277     -1.708657
  H       0.345007     -2.843747     -1.239422
  H      -3.143555      0.412458     -1.393024
  H      -2.459195      1.701028     -0.477403
27
Coordinates from ORCA-job dimethylurea_cytosine_opt_freq E -698.477093773706
  O      -2.340087      3.013188      0.973815
  N      -1.001259      2.761713      2.820298
  N      -0.197764      3.777245      0.873598
  C      -1.245611      3.181585      1.544847
  H      -0.049334      2.793826      3.156944
  H      -0.507001      4.307864      0.070648
  C      -1.906492      1.838451      3.492203
  H      -1.933115      2.039128      4.566789
  H      -2.904394      1.970208      3.074610
  H      -1.594535      0.796674      3.343004
  C       1.115941      4.086161      1.438252
  H       1.046725      4.734512      2.322018
  H       1.654615      3.162081      1.675793
  H       1.698903      4.606832      0.676323
  O       1.935606      0.735137      0.652926
  N      -0.129734      0.726124     -0.288059
  N      -2.310175      0.887939     -1.081881
  N       1.226821     -1.230602     -0.350681
  C      -1.202350      0.126406     -0.874558
  C      -1.045297     -1.207998     -1.243715
  C       1.092276      0.076509      0.042118
  C       0.197598     -1.801621     -0.959831
  H      -0.157266      1.716207     -0.056837
  H      -1.847298     -1.760439     -1.717686
  H       0.348497     -2.841607     -1.252649
  H      -3.141315      0.411955     -1.399450
  H      -2.462355      1.698526     -0.476497
27
Coordinates from ORCA-job dimethylurea_cytosine_opt_freq E -698.477108865596
  O      -2.340659      3.004406      0.977449
  N      -1.001264      2.766675      2.824887
  N      -0.199752      3.773021      0.873002
  C      -1.246380      3.178656      1.546698
  H      -0.050891      2.806031      3.165031
  H      -0.508909      4.297337      0.065934
  C      -1.905486      1.847400      3.503282
  H      -1.925475      2.052361      4.577169
  H      -2.905798      1.979168      3.091618
  H      -1.598011      0.804049      3.355837
  C       1.115085      4.082527      1.434966
  H       1.046999      4.737415      2.313950
  H       1.651214      3.158453      1.677843
  H       1.698329      4.597267      0.669222
  O       1.929502      0.729891      0.663964
  N      -0.133101      0.722313     -0.282338
  N      -2.309416      0.886912     -1.086362
  N       1.227586     -1.231494     -0.353211
  C      -1.201810      0.125549     -0.878256
  C      -1.041875     -1.206749     -1.253597
  C       1.088986      0.073096      0.047060
  C       0.201041     -1.800163     -0.969338
  H      -0.159059      1.711881     -0.048133
  H      -1.840564     -1.757097     -1.735549
  H       0.354233     -2.838114     -1.268123
  H      -3.137045      0.410257     -1.411988
  H      -2.465881      1.694956     -0.478672
27
Coordinates from ORCA-job dimethylurea_cytosine_opt_freq E -698.477129725131
  O      -2.339989      2.999136      0.978304
  N      -1.000250      2.766695      2.826000
  N      -0.200562      3.772595      0.873620
  C      -1.246147      3.176675      1.547060
  H      -0.051606      2.812637      3.169878
  H      -0.509971      4.294358      0.065006
  C      -1.905503      1.851248      3.508412
  H      -1.918787      2.059478      4.581690
  H      -2.907687      1.986201      3.102262
  H      -1.603980      0.806224      3.360253
  C       1.115639      4.079713      1.433237
  H       1.050620      4.735836      2.311654
  H       1.649574      3.154508      1.676373
  H       1.698041      4.593486      0.666225
  O       1.926666      0.730612      0.666861
  N      -0.136360      0.720708     -0.278601
  N      -2.310519      0.885630     -1.088635
  N       1.227743     -1.230850     -0.352453
  C      -1.201881      0.125228     -0.880648
  C      -1.039810     -1.206212     -1.258780
  C       1.087200      0.073005      0.049528
  C       0.203012     -1.798735     -0.972246
  H      -0.160418      1.710240     -0.044374
  H      -1.835979     -1.755680     -1.745764
  H       0.357990     -2.835952     -1.272833
  H      -3.134836      0.407061     -1.419790
  H      -2.470602      1.692160     -0.479893
27
Coordinates from ORCA-job dimethylurea_cytosine_opt_freq E -698.477153283968
  O      -2.341215      2.993140      0.982380
  N      -0.999007      2.766745      2.828978
  N      -0.202310      3.767683      0.873067
  C      -1.246974      3.173087      1.549412
  H      -0.051447      2.819207      3.174734
  H      -0.513843      4.288584      0.064683
  C      -1.905536      1.857271      3.518163
  H      -1.910488      2.069458      4.590635
  H      -2.909759      1.997315      3.118667
  H      -1.611865      0.810148      3.369287
  C       1.115139      4.075028      1.428749
  H       1.054327      4.733950      2.305619
  H       1.648026      3.149928      1.674426
  H       1.695895      4.586488      0.658991
  O       1.923467      0.731075      0.671394
  N      -0.139957      0.719123     -0.273926
  N      -2.310082      0.884646     -1.093177
  N       1.227039     -1.230637     -0.349625
  C      -1.200608      0.125276     -0.885163
  C      -1.035939     -1.204653     -1.268537
  C       1.085332      0.072609      0.053572
  C       0.205576     -1.796894     -0.976244
  H      -0.163640      1.708443     -0.038105
  H      -1.828979     -1.752441     -1.762307
  H       0.362612     -2.833613     -1.277755
  H      -3.130702      0.405387     -1.432283
  H      -2.473463      1.689651     -0.483289
27
Coordinates from ORCA-job dimethylurea_cytosine_opt_freq E -698.477184822740
  O      -2.342457      2.990889      0.984220
  N      -0.996901      2.761268      2.828110
  N      -0.203107      3.763384      0.871936
  C      -1.247335      3.169354      1.550279
  H      -0.049972      2.817991      3.174746
  H      -0.517162      4.287160      0.066341
  C      -1.906363      1.859079      3.523620
  H      -1.901237      2.074633      4.595300
  H      -2.912094      2.009189      3.131270
  H      -1.623493      0.809510      3.371746
  C       1.114852      4.071169      1.425011
  H       1.057617      4.729678      2.302730
  H       1.648289      3.146394      1.670817
  H       1.693889      4.583243      0.654414
  O       1.923207      0.735304      0.670962
  N      -0.142670      0.719669     -0.270126
  N      -2.310577      0.883778     -1.095026
  N       1.226029     -1.229220     -0.344224
  C      -1.199543      0.126287     -0.887622
  C      -1.032532     -1.202761     -1.274528
  C       1.084990      0.074572      0.056228
  C       0.207148     -1.794980     -0.975311
  H      -0.166976      1.709065     -0.034777
  H      -1.823465     -1.749740     -1.772382
  H       0.365669     -2.831996     -1.275255
  H      -3.128330      0.404555     -1.440806
  H      -2.475877      1.688533     -0.485325
27
Coordinates from ORCA-job dimethylurea_cytosine_opt_freq E -698.477219530275
  O      -2.347174      2.990023      0.990177
  N      -0.994553      2.754860      2.828102
  N      -0.205696      3.754659      0.868612
  C      -1.249453      3.164552      1.552793
  H      -0.046807      2.812773      3.172340
  H      -0.524081      4.283598      0.068014
  C      -1.907294      1.862896      3.532819
  H      -1.889695      2.082056      4.603545
  H      -2.914212      2.026290      3.148645
  H      -1.638006      0.810427      3.378001
  C       1.112396      4.066285      1.418568
  H       1.057319      4.726194      2.295590
  H       1.648114      3.143292      1.666312
  H       1.689703      4.577150      0.645893
  O       1.922976      0.736037      0.674876
  N      -0.143680      0.719946     -0.265473
  N      -2.308389      0.883931     -1.097820
  N       1.225191     -1.229119     -0.338581
  C      -1.196655      0.127920     -0.890506
  C      -1.027297     -1.199497     -1.282981
  C       1.085068      0.074732      0.060661
  C       0.209574     -1.793268     -0.976414
  H      -0.169962      1.709263     -0.029095
  H      -1.816361     -1.744764     -1.785612
  H       0.368985     -2.830424     -1.275475
  H      -3.123941      0.407476     -1.452119
  H      -2.474472      1.688718     -0.488527
27
Coordinates from ORCA-job dimethylurea_cytosine_opt_freq E -698.477253672147
  O      -2.350838      2.992027      0.992789
  N      -0.991921      2.744301      2.824453
  N      -0.206318      3.746553      0.864636
  C      -1.250478      3.159664      1.552821
  H      -0.042607      2.798619      3.164820
  H      -0.528065      4.282778      0.070129
  C      -1.909619      1.863328      3.536713
  H      -1.879177      2.084978      4.606593
  H      -2.916610      2.043609      3.160121
  H      -1.655992      0.807786      3.377938
  C       1.110381      4.063021      1.415498
  H       1.052808      4.721466      2.293473
  H       1.649972      3.142032      1.662523
  H       1.687006      4.575827      0.643568
  O       1.925669      0.739599      0.673380
  N      -0.142253      0.722731     -0.264620
  N      -2.307493      0.884157     -1.097498
  N       1.225833     -1.227212     -0.334642
  C      -1.194618      0.130166     -0.890390
  C      -1.023820     -1.196811     -1.284125
  C       1.086882      0.077381      0.061268
  C       0.211250     -1.791847     -0.973768
  H      -0.170522      1.712479     -0.030147
  H      -1.812999     -1.742134     -1.786597
  H       0.370568     -2.829510     -1.270950
  H      -3.122925      0.410657     -1.455624
  H      -2.472518      1.690363     -0.490017
27
Coordinates from ORCA-job dimethylurea_cytosine_opt_freq E -698.477282537860
  O      -2.356776      2.993650      0.999363
  N      -0.990580      2.737967      2.824267
  N      -0.208746      3.736420      0.860010
  C      -1.253096      3.155211      1.554499
  H      -0.038418      2.784482      3.157811
  H      -0.534110      4.278414      0.070771
  C      -1.912368      1.866780      3.543178
  H      -1.872556      2.089915      4.612466
  H      -2.918870      2.059903      3.171805
  H      -1.671089      0.808778      3.382799
  C       1.107093      4.058698      1.411126
  H       1.045630      4.717755      2.288168
  H       1.650344      3.139843      1.658087
  H       1.682823      4.571632      0.638546
  O       1.927622      0.738240      0.676983
  N      -0.137921      0.725063     -0.265768
  N      -2.303660      0.886514     -1.098452
  N       1.227989     -1.226552     -0.334351
  C      -1.191169      0.132572     -0.890698
  C      -1.020392     -1.193988     -1.285010
  C       1.089012      0.077888      0.062086
  C       0.213781     -1.790775     -0.974707
  H      -0.167351      1.715093     -0.031634
  H      -1.810388     -1.738992     -1.786749
  H       0.372248     -2.828379     -1.272237
  H      -3.120271      0.416597     -1.458363
  H      -2.467183      1.693278     -0.491650
27
Coordinates from ORCA-job dimethylurea_cytosine_opt_freq E -698.477333304060
  O      -2.360957      2.993554      1.003495
  N      -0.990158      2.732090      2.824117
  N      -0.209693      3.726316      0.856125
  C      -1.254914      3.150086      1.554785
  H      -0.034824      2.766631      3.149623
  H      -0.536962      4.272275      0.070248
  C      -1.917382      1.870738      3.547946
  H      -1.869521      2.094851      4.616765
  H      -2.922951      2.076314      3.180948
  H      -1.688698      0.810024      3.387047
  C       1.104800      4.053907      1.410042
  H       1.036411      4.712072      2.286818
  H       1.651503      3.136601      1.654893
  H       1.679900      4.569120      0.638417
  O       1.931317      0.739366      0.675728
  N      -0.131010      0.729497     -0.272852
  N      -2.300337      0.889728     -1.098810
  N       1.232779     -1.223613     -0.338838
  C      -1.188291      0.135115     -0.890104
  C      -1.018892     -1.192414     -1.280020
  C       1.092651      0.080951      0.057957
  C       0.216635     -1.789385     -0.974844
  H      -0.160448      1.720219     -0.041064
  H      -1.811154     -1.739030     -1.776656
  H       0.373892     -2.826912     -1.272907
  H      -3.119647      0.421639     -1.454963
  H      -2.462451      1.696264     -0.491552
27
Coordinates from ORCA-job dimethylurea_cytosine_opt_freq E -698.477376180958
  O      -2.369217      2.992598      1.012589
  N      -0.990503      2.727705      2.826618
  N      -0.214423      3.713681      0.851750
  C      -1.259681      3.144158      1.557129
  H      -0.031353      2.747984      3.141893
  H      -0.545150      4.263716      0.070016
  C      -1.924074      1.880803      3.559349
  H      -1.860070      2.106473      4.627041
  H      -2.929692      2.101068      3.201371
  H      -1.713307      0.816254      3.398705
  C       1.100438      4.045208      1.405154
  H       1.028410      4.703473      2.281204
  H       1.649344      3.128718      1.647658
  H       1.673160      4.561672      0.632534
  O       1.934634      0.736344      0.679804
  N      -0.122430      0.732486     -0.279087
  N      -2.293222      0.894446     -1.101809
  N       1.239109     -1.222062     -0.344988
  C      -1.182685      0.138106     -0.891876
  C      -1.015223     -1.189973     -1.279145
  C       1.097127      0.081655      0.055761
  C       0.221725     -1.787319     -0.979342
  H      -0.150221      1.723702     -0.047483
  H      -1.808901     -1.736976     -1.773217
  H       0.378002     -2.824150     -1.280151
  H      -3.113689      0.427625     -1.457099
  H      -2.456510      1.698611     -0.492035
27
Coordinates from ORCA-job dimethylurea_cytosine_opt_freq E -698.477417861888
  O      -2.379454      2.978164      1.024300
  N      -0.992937      2.715911      2.834493
  N      -0.218565      3.681023      0.847623
  C      -1.266428      3.123314      1.560525
  H      -0.026917      2.698518      3.128054
  H      -0.553070      4.234901      0.069810
  C      -1.946569      1.912576      3.591781
  H      -1.839467      2.137397      4.656420
  H      -2.952370      2.171714      3.261885
  H      -1.792872      0.836769      3.434244
  C       1.094716      4.021039      1.404528
  H       1.013413      4.678641      2.279774
  H       1.646906      3.106183      1.644307
  H       1.662345      4.543278      0.632021
  O       1.947517      0.748157      0.662331
  N      -0.099919      0.747518     -0.316262
  N      -2.281649      0.902000     -1.117703
  N       1.258900     -1.208734     -0.369812
  C      -1.170248      0.145383     -0.904828
  C      -1.010265     -1.189294     -1.270325
  C       1.112620      0.095962      0.031428
  C       0.234716     -1.779833     -0.986751
  H      -0.123850      1.740031     -0.086057
  H      -1.809112     -1.743830     -1.747369
  H       0.389463     -2.817573     -1.285637
  H      -3.105322      0.424446     -1.451907
  H      -2.449984      1.702346     -0.504527
27
Coordinates from ORCA-job dimethylurea_cytosine_opt_freq E -698.477451700074
  O      -2.382564      2.978137      1.029462
  N      -0.993437      2.721627      2.837785
  N      -0.223714      3.685200      0.849038
  C      -1.269119      3.126689      1.564746
  H      -0.028828      2.716388      3.136709
  H      -0.559707      4.236164      0.069915
  C      -1.942005      1.916502      3.598641
  H      -1.831551      2.141898      4.662531
  H      -2.949351      2.171138      3.270329
  H      -1.784461      0.841736      3.441064
  C       1.091999      4.023244      1.398400
  H       1.019677      4.685211      2.271556
  H       1.642524      3.108550      1.643108
  H       1.659226      4.539229      0.621462
  O       1.943513      0.736736      0.673918
  N      -0.105004      0.739204     -0.303473
  N      -2.278746      0.900148     -1.120979
  N       1.254160     -1.216939     -0.364409
  C      -1.168637      0.143354     -0.908454
  C      -1.006353     -1.188062     -1.286279
  C       1.109697      0.086011      0.040959
  C       0.234312     -1.782430     -0.993500
  H      -0.130564      1.730070     -0.066693
  H      -1.801685     -1.737352     -1.774871
  H       0.390340     -2.818986     -1.295959
  H      -3.098136      0.424966     -1.468451
  H      -2.449988      1.697571     -0.504208
27
Coordinates from ORCA-job dimethylurea_cytosine_opt_freq E -698.477264402016
  O      -2.357597      2.970567      1.003274
  N      -0.994717      2.726091      2.832270
  N      -0.208751      3.709820      0.863335
  C      -1.254501      3.132694      1.559807
  H      -0.041793      2.760841      3.164530
  H      -0.533849      4.244956      0.069367
  C      -1.930136      1.889213      3.573651
  H      -1.872553      2.114280      4.641297
  H      -2.938787      2.113604      3.224436
  H      -1.732215      0.822669      3.415810
  C       1.104718      4.038329      1.411134
  H       1.047460      4.701127      2.286340
  H       1.651621      3.124228      1.668500
  H       1.679924      4.547984      0.636147
  O       1.946634      0.768405      0.628767
  N      -0.127263      0.740445     -0.298920
  N      -2.295868      0.896357     -1.117711
  N       1.239721     -1.211511     -0.350312
  C      -1.180455      0.136615     -0.908317
  C      -1.015694     -1.196121     -1.285443
  C       1.106397      0.098140      0.029039
  C       0.221064     -1.786173     -0.974108
  H      -0.164588      1.728938     -0.061999
  H      -1.809928     -1.747901     -1.772200
  H       0.378980     -2.828975     -1.254161
  H      -3.113535      0.412219     -1.456238
  H      -2.462690      1.699165     -0.505949
27
Coordinates from ORCA-job dimethylurea_cytosine_opt_freq E -698.477211228234
  O      -2.380762      2.984888      1.021376
  N      -0.993437      2.717640      2.830113
  N      -0.216806      3.680147      0.841378
  C      -1.266681      3.127109      1.555597
  H      -0.025004      2.691663      3.117151
  H      -0.549857      4.235096      0.063420
  C      -1.947332      1.908399      3.581113
  H      -1.850368      2.128953      4.648616
  H      -2.952431      2.166246      3.247817
  H      -1.789479      0.832144      3.423626
  C       1.094223      4.025441      1.406880
  H       0.997209      4.679319      2.282542
  H       1.650458      3.111217      1.639264
  H       1.662445      4.554015      0.638895
  O       1.953431      0.734928      0.670303
  N      -0.089689      0.747357     -0.314584
  N      -2.283771      0.902624     -1.105704
  N       1.262556     -1.212436     -0.375702
  C      -1.170466      0.149074     -0.894143
  C      -1.012123     -1.184764     -1.259368
  C       1.115233      0.090233      0.033298
  C       0.234221     -1.780135     -0.988998
  H      -0.107201      1.741722     -0.089564
  H      -1.814701     -1.738136     -1.732501
  H       0.384413     -2.816055     -1.295510
  H      -3.112166      0.429269     -1.435161
  H      -2.450316      1.700049     -0.487809
27
Coordinates from ORCA-job dimethylurea_cytosine_opt_freq E -698.477469897060
  O      -2.383239      2.991612      1.024879
  N      -0.995291      2.718841      2.830410
  N      -0.226077      3.704431      0.853382
  C      -1.270008      3.136853      1.562829
  H      -0.033216      2.721456      3.137889
  H      -0.560520      4.256077      0.074358
  C      -1.940726      1.904289      3.583519
  H      -1.840674      2.123564      4.649568
  H      -2.949179      2.154140      3.253261
  H      -1.774386      0.831826      3.422287
  C       1.092762      4.030878      1.397671
  H       1.032350      4.684333      2.278727
  H       1.642007      3.113178      1.634935
  H       1.659423      4.551526      0.623532
  O       1.954595      0.735737      0.659821
  N      -0.104787      0.735855     -0.296514
  N      -2.277628      0.901329     -1.112313
  N       1.250169     -1.223550     -0.358702
  C      -1.167477      0.143015     -0.903461
  C      -1.009154     -1.188799     -1.283240
  C       1.115180      0.081611      0.039292
  C       0.228142     -1.787093     -0.985760
  H      -0.129512      1.726322     -0.059657
  H      -1.806431     -1.735171     -1.771617
  H       0.380908     -2.825777     -1.282664
  H      -3.095810      0.422842     -1.458241
  H      -2.449820      1.696680     -0.491845
27
Coordinates from ORCA-job dimethylurea_cytosine_opt_freq E -698.477480991434
  O      -2.378257      2.981474      1.020498
  N      -0.995631      2.719809      2.832558
  N      -0.220423      3.692679      0.851599
  C      -1.266828      3.129898      1.561194
  H      -0.033953      2.722516      3.140798
  H      -0.552482      4.239736      0.068280
  C      -1.941758      1.906741      3.586791
  H      -1.844482      2.129590      4.652468
  H      -2.950147      2.156557      3.256554
  H      -1.775926      0.833699      3.427895
  C       1.094627      4.026895      1.401465
  H       1.025919      4.686270      2.277277
  H       1.645119      3.112190      1.647040
  H       1.664001      4.543884      0.626851
  O       1.952274      0.745393      0.654525
  N      -0.106614      0.740847     -0.302311
  N      -2.280896      0.901729     -1.114149
  N       1.251919     -1.216067     -0.362581
  C      -1.169830      0.143449     -0.904636
  C      -1.009678     -1.188776     -1.281640
  C       1.113790      0.089339      0.034400
  C       0.229878     -1.783532     -0.986728
  H      -0.134010      1.731388     -0.066116
  H      -1.807021     -1.738086     -1.766761
  H       0.384189     -2.822419     -1.282064
  H      -3.100730      0.422259     -1.454814
  H      -2.451453      1.698546     -0.496048
27
Coordinates from ORCA-job dimethylurea_cytosine_opt_freq E -698.477494389862
  O      -2.382381      2.972777      1.026588
  N      -0.996507      2.721826      2.837637
  N      -0.223927      3.680353      0.848869
  C      -1.269969      3.123630      1.564600
  H      -0.034482      2.726261      3.144770
  H      -0.557715      4.224228      0.063957
  C      -1.943357      1.920710      3.603577
  H      -1.831678      2.145453      4.667423
  H      -2.952611      2.179118      3.283606
  H      -1.791570      0.845440      3.445672
  C       1.090210      4.021567      1.396773
  H       1.019819      4.688075      2.267004
  H       1.642161      3.109890      1.650250
  H       1.659528      4.532544      0.618136
  O       1.951636      0.737453      0.662642
  N      -0.104474      0.738195     -0.300083
  N      -2.277281      0.901685     -1.120340
  N       1.253777     -1.218670     -0.366141
  C      -1.165482      0.144719     -0.910522
  C      -1.003750     -1.185373     -1.294584
  C       1.114734      0.084600      0.036895
  C       0.234110     -1.782420     -0.997595
  H      -0.132921      1.727657     -0.058439
  H      -1.799371     -1.731816     -1.785787
  H       0.389091     -2.819912     -1.297454
  H      -3.095261      0.423180     -1.466810
  H      -2.450730      1.694834     -0.498299
27
Coordinates from ORCA-job dimethylurea_cytosine_opt_freq E -698.477502930763
  O      -2.385588      2.967655      1.030605
  N      -0.996829      2.719617      2.839248
  N      -0.227459      3.676170      0.848286
  C      -1.272359      3.119601      1.566301
  H      -0.034623      2.724145      3.145742
  H      -0.562751      4.219261      0.063424
  C      -1.945672      1.926890      3.611656
  H      -1.827135      2.156944      4.673570
  H      -2.954893      2.193423      3.297661
  H      -1.803638      0.850308      3.453676
  C       1.087211      4.018861      1.394147
  H       1.017329      4.686308      2.263660
  H       1.640127      3.107823      1.647864
  H       1.655363      4.529109      0.614173
  O       1.954543      0.732984      0.663130
  N      -0.100960      0.736600     -0.300549
  N      -2.273511      0.904564     -1.122555
  N       1.256157     -1.220877     -0.369660
  C      -1.161754      0.145018     -0.912660
  C      -1.000939     -1.184445     -1.298900
  C       1.117579      0.081768      0.035691
  C       0.236393     -1.782999     -1.002379
  H      -0.129338      1.725530     -0.056768
  H      -1.796700     -1.729386     -1.791563
  H       0.390929     -2.819978     -1.304213
  H      -3.091306      0.426763     -1.470496
  H      -2.448578      1.694348     -0.496749
27
Coordinates from ORCA-job dimethylurea_cytosine_opt_freq E -698.477511098447
  O      -2.393739      2.968001      1.036900
  N      -1.000770      2.720192      2.841071
  N      -0.234995      3.675131      0.847760
  C      -1.278876      3.119330      1.568560
  H      -0.038140      2.721883      3.146416
  H      -0.571497      4.217931      0.063177
  C      -1.952433      1.937626      3.621323
  H      -1.816230      2.164597      4.681746
  H      -2.961951      2.214871      3.316683
  H      -1.822341      0.859874      3.463188
  C       1.081568      4.016513      1.390618
  H       1.013421      4.683051      2.260804
  H       1.634881      3.104882      1.641372
  H       1.648073      4.527093      0.609648
  O       1.963113      0.720787      0.660963
  N      -0.092251      0.731577     -0.301888
  N      -2.262804      0.909154     -1.122877
  N       1.260670     -1.228273     -0.378382
  C      -1.154375      0.144496     -0.914528
  C      -0.997610     -1.184158     -1.304099
  C       1.124538      0.073384      0.031491
  C       0.238918     -1.786648     -1.011201
  H      -0.119037      1.719853     -0.054448
  H      -1.795068     -1.725549     -1.797997
  H       0.390941     -2.822894     -1.316675
  H      -3.081743      0.431428     -1.468575
  H      -2.440664      1.691872     -0.488706
27
Coordinates from ORCA-job dimethylurea_cytosine_opt_freq E -698.477516403421
  O      -2.395424      2.962188      1.040190
  N      -1.002943      2.724720      2.846299
  N      -0.235775      3.664804      0.846365
  C      -1.280550      3.115723      1.571279
  H      -0.040555      2.729244      3.152319
  H      -0.572465      4.205050      0.060109
  C      -1.953670      1.945268      3.630576
  H      -1.815459      2.173420      4.690475
  H      -2.963752      2.223353      3.328971
  H      -1.826238      0.866787      3.474924
  C       1.080239      4.010136      1.387994
  H       1.011682      4.682361      2.253848
  H       1.633466      3.100286      1.645233
  H       1.647211      4.515673      0.604098
  O       1.963210      0.721120      0.660926
  N      -0.092369      0.731915     -0.302041
  N      -2.260929      0.909850     -1.126753
  N       1.262072     -1.226951     -0.381204
  C      -1.152771      0.145005     -0.918216
  C      -0.994769     -1.182634     -1.310758
  C       1.125171      0.074021      0.030527
  C       0.241584     -1.784784     -1.016676
  H      -0.120273      1.719610     -0.051893
  H      -1.791128     -1.723281     -1.807170
  H       0.394782     -2.820498     -1.323350
  H      -3.079839      0.431657     -1.472086
  H      -2.438909      1.691967     -0.491640
27
Coordinates from ORCA-job dimethylurea_cytosine_opt_freq E -698.477520439816
  O      -2.394476      2.961008      1.038832
  N      -1.004078      2.725048      2.847094
  N      -0.234209      3.661968      0.846932
  C      -1.280245      3.114668      1.571460
  H      -0.042565      2.732940      3.155540
  H      -0.570174      4.202626      0.060618
  C      -1.956195      1.950016      3.633747
  H      -1.812482      2.173521      4.693934
  H      -2.965956      2.233056      3.336430
  H      -1.835573      0.870484      3.478168
  C       1.080630      4.008763      1.390479
  H       1.010565      4.682186      2.255362
  H       1.633799      3.099525      1.649919
  H       1.648633      4.513643      0.606913
  O       1.966101      0.723155      0.653469
  N      -0.091484      0.732177     -0.305853
  N      -2.261991      0.906410     -1.128496
  N       1.263689     -1.226251     -0.384981
  C      -1.152648      0.144266     -0.920852
  C      -0.994085     -1.183625     -1.312582
  C       1.127114      0.075099      0.025438
  C       0.242837     -1.784830     -1.019003
  H      -0.120023      1.719702     -0.054613
  H      -1.790594     -1.724984     -1.807932
  H       0.396104     -2.820908     -1.324463
  H      -3.082131      0.425935     -1.467973
  H      -2.438964      1.690407     -0.495241
27
Coordinates from ORCA-job dimethylurea_cytosine_opt_freq E -698.477511465292
  O      -2.393510      2.955997      1.033945
  N      -1.009589      2.728803      2.848672
  N      -0.232718      3.655836      0.846598
  C      -1.281318      3.112696      1.570333
  H      -0.050391      2.747394      3.163501
  H      -0.566699      4.195120      0.058523
  C      -1.960394      1.950803      3.634711
  H      -1.816275      2.180787      4.693632
  H      -2.971378      2.234515      3.339393
  H      -1.834874      0.870957      3.482904
  C       1.081112      4.003674      1.392002
  H       1.010549      4.679847      2.254958
  H       1.633039      3.094936      1.655527
  H       1.650257      4.506925      0.608254
  O       1.972335      0.727201      0.640173
  N      -0.091632      0.731860     -0.306858
  N      -2.259739      0.909540     -1.125575
  N       1.266209     -1.224688     -0.391404
  C      -1.153261      0.141836     -0.920208
  C      -0.994625     -1.185360     -1.313562
  C       1.130491      0.077244      0.018353
  C       0.244268     -1.784229     -1.022475
  H      -0.119908      1.719223     -0.055540
  H      -1.791276     -1.726983     -1.808209
  H       0.398277     -2.820365     -1.327518
  H      -3.083630      0.427997     -1.455279
  H      -2.433724      1.694439     -0.492508
27
Coordinates from ORCA-job dimethylurea_cytosine_opt_freq E -698.477529246074
  O      -2.394186      2.958109      1.038153
  N      -1.006444      2.725985      2.848780
  N      -0.233977      3.659760      0.847943
  C      -1.280742      3.113308      1.572050
  H      -0.046343      2.740497      3.161112
  H      -0.569231      4.199901      0.060952
  C      -1.959250      1.951844      3.635621
  H      -1.816291      2.178375      4.695351
  H      -2.968851      2.237516      3.339433
  H      -1.838824      0.871992      3.481212
  C       1.081148      4.005748      1.391358
  H       1.012118      4.681024      2.254962
  H       1.632888      3.096197      1.652558
  H       1.649810      4.508709      0.607049
  O       1.969948      0.725214      0.645397
  N      -0.090520      0.731909     -0.308041
  N      -2.261543      0.906802     -1.128097
  N       1.266213     -1.225353     -0.390077
  C      -1.152470      0.142851     -0.921309
  C      -0.993816     -1.184936     -1.312899
  C       1.129691      0.076321      0.020108
  C       0.244415     -1.784809     -1.021474
  H      -0.119192      1.719311     -0.056520
  H      -1.790523     -1.726837     -1.807303
  H       0.398000     -2.820800     -1.327192
  H      -3.083945      0.425513     -1.461160
  H      -2.436486      1.691854     -0.495623
27
Coordinates from ORCA-job dimethylurea_cytosine_opt_freq E -698.477524179419
  O      -2.395196      2.959625      1.038403
  N      -1.007160      2.725831      2.848262
  N      -0.234787      3.660749      0.847843
  C      -1.281531      3.114147      1.571939
  H      -0.047251      2.740871      3.161063
  H      -0.569984      4.201183      0.061046
  C      -1.960535      1.952260      3.634923
  H      -1.815496      2.176591      4.694823
  H      -2.970099      2.239153      3.339856
  H      -1.840830      0.872622      3.479332
  C       1.080857      4.005508      1.390640
  H       1.012909      4.681230      2.253977
  H       1.631791      3.095532      1.652065
  H       1.649880      4.507431      0.605928
  O       1.971481      0.723673      0.645227
  N      -0.089407      0.731138     -0.306868
  N      -2.261125      0.906611     -1.126005
  N       1.267105     -1.226130     -0.391302
  C      -1.151714      0.143213     -0.920211
  C      -0.993341     -1.184371     -1.312744
  C       1.130888      0.075277      0.019890
  C       0.244837     -1.784882     -1.022464
  H      -0.117674      1.718424     -0.055039
  H      -1.790261     -1.725746     -1.807404
  H       0.397862     -2.820681     -1.329120
  H      -3.083682      0.425279     -1.458478
  H      -2.435936      1.691467     -0.493237
27
Coordinates from ORCA-job dimethylurea_cytosine_opt_freq E -698.477527873834
  O      -2.395151      2.958282      1.038232
  N      -1.008762      2.726825      2.849087
  N      -0.235011      3.660867      0.848706
  C      -1.282043      3.114159      1.572441
  H      -0.050087      2.747641      3.164921
  H      -0.569675      4.200557      0.061173
  C      -1.963705      1.955840      3.636304
  H      -1.816807      2.178082      4.696391
  H      -2.972995      2.246334      3.344085
  H      -1.846692      0.876235      3.479067
  C       1.080804      4.005029      1.391174
  H       1.013806      4.683957      2.252097
  H       1.630070      3.095067      1.656074
  H       1.651432      4.503004      0.605117
  O       1.974833      0.720985      0.641345
  N      -0.087655      0.728709     -0.306593
  N      -2.261532      0.904525     -1.123125
  N       1.269828     -1.227537     -0.397319
  C      -1.150673      0.142294     -0.919649
  C      -0.992117     -1.184607     -1.314634
  C       1.133541      0.073179      0.016376
  C       0.246617     -1.785474     -1.027532
  H      -0.116242      1.715459     -0.052956
  H      -1.789247     -1.725375     -1.809672
  H       0.399015     -2.820716     -1.336420
  H      -3.085255      0.422780     -1.451897
  H      -2.434697      1.689906     -0.490450
27
Coordinates from ORCA-job dimethylurea_cytosine_opt_freq E -698.477535330764
  O      -2.395279      2.958428      1.037682
  N      -1.011333      2.730744      2.850560
  N      -0.235145      3.661304      0.849370
  C      -1.282866      3.115831      1.572933
  H      -0.053708      2.756751      3.169124
  H      -0.568772      4.199914      0.060676
  C      -1.965917      1.957352      3.636015
  H      -1.819506      2.179143      4.696291
  H      -2.975674      2.246539      3.343498
  H      -1.844925      0.878319      3.478576
  C       1.081101      4.004077      1.391446
  H       1.015440      4.685583      2.250496
  H       1.628375      3.093721      1.659059
  H       1.653196      4.498648      0.604316
  O       1.976978      0.719179      0.638274
  N      -0.087526      0.726410     -0.305127
  N      -2.261064      0.903702     -1.119642
  N       1.271485     -1.228476     -0.401927
  C      -1.150646      0.140681     -0.918248
  C      -0.991782     -1.185326     -1.316145
  C       1.134984      0.071535      0.014107
  C       0.247644     -1.785988     -1.031608
  H      -0.116407      1.712768     -0.050274
  H      -1.788892     -1.725534     -1.811828
  H       0.400120     -2.820565     -1.342652
  H      -3.085787      0.422111     -1.446188
  H      -2.432495      1.689155     -0.486439
27
Coordinates from ORCA-job dimethylurea_cytosine_opt_freq E -698.477540972448
  O      -2.394476      2.955673      1.037356
  N      -1.013060      2.733976      2.852774
  N      -0.234394      3.658889      0.849841
  C      -1.282850      3.115221      1.573692
  H      -0.056396      2.764375      3.173518
  H      -0.567095      4.195838      0.059626
  C      -1.968009      1.961145      3.638212
  H      -1.823143      2.183966      4.698479
  H      -2.977915      2.251130      3.346894
  H      -1.847546      0.882114      3.480210
  C       1.081563      4.002158      1.392176
  H       1.015783      4.686807      2.248744
  H       1.627603      3.092147      1.663438
  H       1.655237      4.493149      0.603957
  O       1.979063      0.718706      0.634459
  N      -0.087265      0.725056     -0.304949
  N      -2.262251      0.901830     -1.117394
  N       1.273783     -1.228129     -0.407416
  C      -1.150563      0.139480     -0.918021
  C      -0.990755     -1.185692     -1.318618
  C       1.136649      0.071004      0.010882
  C       0.249530     -1.785666     -1.036627
  H      -0.116982      1.710824     -0.048441
  H      -1.787796     -1.725804     -1.814519
  H       0.402536     -2.819553     -1.349644
  H      -3.087378      0.419920     -1.442407
  H      -2.432273      1.687440     -0.483877
27
Coordinates from ORCA-job dimethylurea_cytosine_opt_freq E -698.477541455910
  O      -2.394968      2.953569      1.038289
  N      -1.015158      2.737808      2.855668
  N      -0.234498      3.655455      0.850113
  C      -1.283755      3.114693      1.575058
  H      -0.058879      2.769919      3.177327
  H      -0.566497      4.190936      0.058595
  C      -1.970676      1.967504      3.642852
  H      -1.822235      2.190035      4.702667
  H      -2.980688      2.259940      3.354379
  H      -1.853816      0.888084      3.484257
  C       1.081036      3.999944      1.392800
  H       1.014579      4.687282      2.247155
  H       1.626460      3.090508      1.667200
  H       1.655905      4.488011      0.603638
  O       1.981284      0.716878      0.631064
  N      -0.086366      0.723283     -0.305638
  N      -2.261807      0.899742     -1.116306
  N       1.276191     -1.228590     -0.413428
  C      -1.149644      0.137955     -0.919062
  C      -0.989177     -1.186288     -1.322691
  C       1.138602      0.069497      0.007444
  C       0.251759     -1.785804     -1.042933
  H      -0.117054      1.708402     -0.046559
  H      -1.786273     -1.725992     -1.818933
  H       0.405374     -2.819006     -1.357837
  H      -3.086919      0.417488     -1.440902
  H      -2.431181      1.684753     -0.481872
27
Coordinates from ORCA-job dimethylurea_cytosine_opt_freq E -698.477545708322
  O      -2.394907      2.952177      1.038971
  N      -1.019832      2.747036      2.861281
  N      -0.233406      3.650859      0.851422
  C      -1.284758      3.115693      1.577346
  H      -0.063992      2.778918      3.184246
  H      -0.563017      4.183549      0.057000
  C      -1.976722      1.979027      3.649124
  H      -1.823850      2.199546      4.708639
  H      -2.986681      2.274965      3.364014
  H      -1.865767      0.899385      3.487282
  C       1.081521      3.995950      1.395441
  H       1.014066      4.687433      2.246300
  H       1.624935      3.086791      1.674695
  H       1.659212      4.478742      0.605104
  O       1.986284      0.715275      0.621645
  N      -0.084956      0.720259     -0.307583
  N      -2.263058      0.893630     -1.110419
  N       1.281802     -1.228055     -0.427078
  C      -1.148980      0.133990     -0.919291
  C      -0.986982     -1.188634     -1.328213
  C       1.142946      0.067788     -0.001088
  C       0.256333     -1.785831     -1.055004
  H      -0.117656      1.704078     -0.043733
  H      -1.784823     -1.728523     -1.823022
  H       0.411963     -2.817486     -1.373865
  H      -3.087695      0.410589     -1.435011
  H      -2.430381      1.678854     -0.475856
27
Coordinates from ORCA-job dimethylurea_cytosine_opt_freq E -698.477554078051
  O      -2.394899      2.952327      1.039489
  N      -1.023707      2.753468      2.865200
  N      -0.232456      3.648383      0.853019
  C      -1.285465      3.116887      1.579019
  H      -0.068129      2.783209      3.189253
  H      -0.559898      4.178618      0.056065
  C      -1.982675      1.987676      3.652852
  H      -1.826596      2.204702      4.712518
  H      -2.991961      2.288258      3.370297
  H      -1.878288      0.908002      3.486877
  C       1.082428      3.992824      1.397648
  H       1.015015      4.686670      2.246528
  H       1.624153      3.083494      1.679586
  H       1.661863      4.472306      0.606584
  O       1.991740      0.714938      0.611917
  N      -0.082809      0.718268     -0.309986
  N      -2.264678      0.888374     -1.104002
  N       1.287145     -1.227236     -0.438865
  C      -1.148177      0.131111     -0.918712
  C      -0.985353     -1.190559     -1.330686
  C       1.147530      0.067178     -0.009301
  C       0.260234     -1.785725     -1.063860
  H      -0.116542      1.701231     -0.042942
  H      -1.784322     -1.730945     -1.823117
  H       0.417007     -2.816372     -1.385415
  H      -3.089173      0.404566     -1.427694
  H      -2.430390      1.674354     -0.469927
27
Coordinates from ORCA-job dimethylurea_cytosine_opt_freq E -698.477558761530
  O      -2.394871      2.953543      1.039409
  N      -1.027986      2.759596      2.868482
  N      -0.231374      3.646885      0.854849
  C      -1.286177      3.118606      1.580240
  H      -0.072708      2.785887      3.194007
  H      -0.556372      4.174371      0.055089
  C      -1.989422      1.995577      3.655202
  H      -1.828574      2.207809      4.715016
  H      -2.997713      2.301892      3.375040
  H      -1.891764      0.916127      3.484111
  C       1.083645      3.990104      1.399803
  H       1.016843      4.685673      2.247292
  H       1.623798      3.080554      1.683951
  H       1.664298      4.467204      0.608218
  O       1.997489      0.714873      0.601606
  N      -0.080640      0.715950     -0.311975
  N      -2.266353      0.882852     -1.095509
  N       1.292793     -1.226433     -0.450969
  C      -1.147474      0.127953     -0.917183
  C      -0.983837     -1.192668     -1.332197
  C       1.152295      0.066780     -0.017717
  C       0.264253     -1.785665     -1.072289
  H      -0.114989      1.698102     -0.041907
  H      -1.783998     -1.733579     -1.822108
  H       0.421959     -2.815269     -1.396817
  H      -3.091072      0.399030     -1.418346
  H      -2.430451      1.670252     -0.462956
27
Coordinates from ORCA-job dimethylurea_cytosine_opt_freq E -698.477560995034
  O      -2.393323      2.950633      1.039203
  N      -1.030532      2.764108      2.871581
  N      -0.229596      3.643865      0.856214
  C      -1.285578      3.117829      1.581159
  H      -0.075691      2.787925      3.198546
  H      -0.552821      4.167250      0.053062
  C      -1.994084      2.001586      3.657479
  H      -1.837758      2.213502      4.717936
  H      -3.001334      2.312722      3.378415
  H      -1.902159      0.922371      3.482462
  C       1.085143      3.988002      1.400962
  H       1.018221      4.685389      2.246969
  H       1.625265      3.079308      1.687807
  H       1.665841      4.463806      0.608667
  O       2.002452      0.715130      0.593125
  N      -0.078657      0.714155     -0.313220
  N      -2.269426      0.879387     -1.087784
  N       1.297806     -1.225419     -0.461299
  C      -1.146744      0.125602     -0.915716
  C      -0.982331     -1.193935     -1.333531
  C       1.156402      0.066944     -0.024646
  C       0.267942     -1.785118     -1.079478
  H      -0.113220      1.695485     -0.040635
  H      -1.783357     -1.735210     -1.821637
  H       0.426189     -2.813791     -1.406838
  H      -3.094733      0.396364     -1.410039
  H      -2.432319      1.668116     -0.456420
27
Coordinates from ORCA-job dimethylurea_cytosine_opt_freq E -698.477568231663
  O      -2.394249      2.953659      1.040057
  N      -1.035150      2.770260      2.874975
  N      -0.229238      3.643469      0.858666
  C      -1.287072      3.120788      1.583153
  H      -0.081334      2.794703      3.205248
  H      -0.550347      4.165230      0.053617
  C      -2.001701      2.011470      3.661000
  H      -1.833656      2.213004      4.721629
  H      -3.007555      2.330550      3.386248
  H      -1.917336      0.932355      3.481865
  C       1.085896      3.985590      1.403283
  H       1.020466      4.684536      2.248226
  H       1.624176      3.076512      1.692287
  H       1.667706      4.459303      0.610579
  O       2.007715      0.713924      0.582494
  N      -0.076930      0.710322     -0.315448
  N      -2.269468      0.871982     -1.081809
  N       1.302977     -1.226155     -0.472842
  C      -1.145814      0.121668     -0.916126
  C      -0.980111     -1.196609     -1.337355
  C       1.160546      0.065390     -0.033167
  C       0.272017     -1.786229     -1.088457
  H      -0.112191      1.690857     -0.039466
  H      -1.781446     -1.738074     -1.824761
  H       0.430470     -2.814037     -1.418524
  H      -3.096048      0.388799     -1.400405
  H      -2.430722      1.662740     -0.452623
27
Coordinates from ORCA-job dimethylurea_cytosine_opt_freq E -698.477569246508
  O      -2.392607      2.952149      1.038457
  N      -1.034299      2.769534      2.874339
  N      -0.227849      3.642845      0.858337
  C      -1.285879      3.119995      1.582450
  H      -0.081005      2.797329      3.205459
  H      -0.548645      4.164691      0.053227
  C      -2.000506      2.010088      3.659808
  H      -1.835888      2.214360      4.720506
  H      -3.006831      2.327586      3.384679
  H      -1.914108      0.930809      3.481956
  C       1.086666      3.985434      1.404239
  H       1.019996      4.684395      2.249060
  H       1.624866      3.076382      1.693512
  H       1.669418      4.459006      0.612135
  O       2.006908      0.716212      0.581736
  N      -0.078415      0.711232     -0.314960
  N      -2.271117      0.871930     -1.082647
  N       1.302275     -1.224773     -0.471600
  C      -1.146987      0.121914     -0.915816
  C      -0.980499     -1.196391     -1.337080
  C       1.159583      0.066745     -0.032939
  C       0.271583     -1.785562     -1.087517
  H      -0.114344      1.691832     -0.039914
  H      -1.781440     -1.738406     -1.824506
  H       0.430387     -2.813491     -1.416898
  H      -3.097401      0.387905     -1.400842
  H      -2.432265      1.662257     -0.452836
27
Coordinates from ORCA-job dimethylurea_cytosine_opt_freq E -698.477567862563
  O      -2.392185      2.952101      1.038466
  N      -1.034109      2.769695      2.874566
  N      -0.227443      3.642830      0.858564
  C      -1.285529      3.120089      1.582572
  H      -0.080866      2.797203      3.206022
  H      -0.548027      4.164142      0.053042
  C      -2.000597      2.010058      3.659549
  H      -1.834096      2.216025      4.719648
  H      -3.006692      2.328168      3.383831
  H      -1.913200      0.930827      3.482018
  C       1.087050      3.985324      1.404484
  H       1.020163      4.683388      2.250042
  H       1.625652      3.076252      1.692942
  H       1.669470      4.460072      0.612850
  O       2.005260      0.717367      0.582209
  N      -0.080193      0.710801     -0.314129
  N      -2.271237      0.871381     -1.082130
  N       1.302073     -1.224120     -0.471133
  C      -1.147833      0.120790     -0.915611
  C      -0.980307     -1.197033     -1.337778
  C       1.158274      0.067340     -0.032405
  C       0.272025     -1.785502     -1.087732
  H      -0.116776      1.691394     -0.039211
  H      -1.780576     -1.739424     -1.825892
  H       0.431376     -2.813260     -1.417350
  H      -3.097381      0.388478     -1.402326
  H      -2.432701      1.661617     -0.452763
27
Coordinates from ORCA-job dimethylurea_cytosine_opt_freq E -698.477568841639
  O      -2.393091      2.951762      1.040602
  N      -1.037054      2.775292      2.878458
  N      -0.227394      3.639446      0.859590
  C      -1.286664      3.120773      1.584788
  H      -0.084379      2.802899      3.211469
  H      -0.546774      4.158576      0.052168
  C      -2.006254      2.020921      3.665110
  H      -1.834562      2.221167      4.725440
  H      -3.011239      2.346238      3.394182
  H      -1.927280      0.941520      3.484782
  C       1.087121      3.982147      1.405247
  H       1.020376      4.682407      2.249004
  H       1.624877      3.073407      1.696281
  H       1.670450      4.454284      0.612744
  O       2.009636      0.714750      0.575700
  N      -0.078341      0.707264     -0.314604
  N      -2.271900      0.865718     -1.077319
  N       1.307048     -1.224631     -0.481802
  C      -1.146289      0.117741     -0.916220
  C      -0.977284     -1.198360     -1.343341
  C       1.162059      0.065139     -0.038579
  C       0.276470     -1.785666     -1.097899
  H      -0.116014      1.686688     -0.035378
  H      -1.777526     -1.740415     -1.831883
  H       0.436576     -2.812043     -1.431412
  H      -3.098247      0.382632     -1.396604
  H      -2.432721      1.656349     -0.448181
27
Coordinates from ORCA-job dimethylurea_cytosine_opt_freq E -698.477571479264
  O      -2.393777      2.950421      1.042721
  N      -1.038889      2.779149      2.881666
  N      -0.227283      3.635367      0.860063
  C      -1.287371      3.120326      1.586652
  H      -0.086529      2.806192      3.215523
  H      -0.545742      4.151850      0.050577
  C      -2.010769      2.030477      3.670426
  H      -1.834640      2.227404      4.730630
  H      -3.014485      2.363275      3.404090
  H      -1.940210      0.950806      3.488223
  C       1.087268      3.978757      1.405292
  H       1.020305      4.680310      2.247930
  H       1.624939      3.070406      1.697716
  H       1.670819      4.449538      0.612158
  O       2.012298      0.713205      0.571858
  N      -0.077480      0.704587     -0.314121
  N      -2.272836      0.861301     -1.073566
  N       1.311198     -1.224244     -0.490012
  C      -1.145131      0.115362     -0.916716
  C      -0.974223     -1.198956     -1.348671
  C       1.164644      0.063859     -0.042670
  C       0.280745     -1.785010     -1.106619
  H      -0.116424      1.682997     -0.031403
  H      -1.774013     -1.740809     -1.838179
  H       0.442011     -2.810050     -1.443654
  H      -3.098714      0.378148     -1.393888
  H      -2.434113      1.651337     -0.443681
27
Coordinates from ORCA-job dimethylurea_cytosine_opt_freq E -698.477575915592
  O      -2.393941      2.949694      1.043766
  N      -1.038735      2.779601      2.882564
  N      -0.227084      3.633200      0.859883
  C      -1.287308      3.119623      1.587264
  H      -0.086284      2.805587      3.216192
  H      -0.545341      4.148371      0.049490
  C      -2.012317      2.034624      3.672782
  H      -1.833372      2.230879      4.732661
  H      -3.015061      2.372361      3.408901
  H      -1.946566      0.954669      3.490529
  C       1.087507      3.977119      1.404855
  H       1.020172      4.678310      2.247730
  H       1.625735      3.068891      1.696676
  H       1.670561      4.448531      0.611731
  O       2.011774      0.713113      0.572548
  N      -0.078319      0.703507     -0.312737
  N      -2.273592      0.859369     -1.072207
  N       1.312687     -1.223361     -0.492353
  C      -1.145111      0.114149     -0.916769
  C      -0.972555     -1.199023     -1.351533
  C       1.164681      0.063758     -0.042806
  C       0.283002     -1.784123     -1.110259
  H      -0.118284      1.681447     -0.028600
  H      -1.771558     -1.740912     -1.842277
  H       0.445512     -2.808347     -1.449172
  H      -3.098635      0.376394     -1.394916
  H      -2.435967      1.648575     -0.441598
27
Coordinates from ORCA-job dimethylurea_cytosine_opt_freq E -698.477575479722
  O      -2.394137      2.949944      1.044704
  N      -1.039415      2.781268      2.883898
  N      -0.226526      3.630877      0.860062
  C      -1.287343      3.119609      1.588019
  H      -0.086951      2.805697      3.217553
  H      -0.543869      4.143966      0.048010
  C      -2.015583      2.040778      3.675282
  H      -1.832477      2.234280      4.734976
  H      -3.016823      2.385676      3.414648
  H      -1.956615      0.960619      3.492116
  C       1.088399      3.974453      1.404614
  H       1.021368      4.676065      2.247124
  H       1.626307      3.066062      1.696526
  H       1.671364      4.445359      0.611123
  O       2.011829      0.713216      0.572113
  N      -0.079325      0.701688     -0.310676
  N      -2.275134      0.855532     -1.068236
  N       1.315678     -1.221617     -0.497717
  C      -1.145348      0.112043     -0.915792
  C      -0.970340     -1.199373     -1.354874
  C       1.165438      0.063798     -0.044107
  C       0.286656     -1.782543     -1.116467
  H      -0.120638      1.678919     -0.024423
  H      -1.768531     -1.741426     -1.846746
  H       0.451139     -2.805377     -1.458629
  H      -3.098996      0.372485     -1.393769
  H      -2.438529      1.644008     -0.436988
