27
Coordinates from ORCA-job dimethylurea_cytosine_opt_freq E -698.477575479722
  O          -2.39413689324985      2.94994394649187      1.04470423064765
  N          -1.03941467196238      2.78126774281667      2.88389796485230
  N          -0.22652636240274      3.63087672075507      0.86006241620330
  C          -1.28734314097349      3.11960943314894      1.58801940778987
  H          -0.08695078847348      2.80569730095843      3.21755299074346
  H          -0.54386867521675      4.14396602072551      0.04801011309188
  C          -2.01558250456291      2.04077812006788      3.67528199448593
  H          -1.83247663917045      2.23427980726262      4.73497594745435
  H          -3.01682321546153      2.38567646791410      3.41464847148575
  H          -1.95661545525539      0.96061882793318      3.49211574588469
  C           1.08839937144365      3.97445286109499      1.40461394497384
  H           1.02136763477554      4.67606535927205      2.24712397053831
  H           1.62630712272250      3.06606173669259      1.69652591276676
  H           1.67136408203656      4.44535947334282      0.61112289829224
  O           2.01182907065414      0.71321632436156      0.57211320523616
  N          -0.07932467830918      0.70168756593080     -0.31067627668228
  N          -2.27513445504412      0.85553157319776     -1.06823577220147
  N           1.31567770474610     -1.22161710069550     -0.49771746912814
  C          -1.14534797967518      0.11204257705996     -0.91579204662483
  C          -0.97034019040188     -1.19937259517446     -1.35487396302291
  C           1.16543757621045      0.06379848624974     -0.04410687173945
  C           0.28665574733870     -1.78254313723877     -1.11646728408634
  H          -0.12063827925400      1.67891860830940     -0.02442277915539
  H          -1.76853100123595     -1.74142580138814     -1.84674635020883
  H           0.45113933859049     -2.80537710574434     -1.45862892206194
  H          -3.09899553804447      0.37248471575352     -1.39376882669054
  H          -2.43852917982436      1.64400807090158     -0.43698765284445
