19
Coordinates from ORCA-job formamide_cytosine_opt_freq E -564.565693331888
  O          -1.50423598874363      2.92660445432884      1.03625841524670
  N          -0.70317941958392      4.17026284778973      2.77579331741181
  C          -1.28544907190366      4.01364107488371      1.56764235659994
  H          -0.41107898392830      5.08466525916124      3.09296884271448
  H          -0.32942625381588      3.35770994911551      3.25207138346903
  H          -1.58074764982080      4.96312688009312      1.09017084493999
  O           2.04327143815215      0.51421309260528      0.42968216470742
  N          -0.20389212780499      0.34112539253992      0.14719238930681
  N          -2.52756131610281      0.32177127020199     -0.01774567821666
  N           1.23292440360712     -1.45543101897185     -0.48824296050600
  C          -1.33536862970396     -0.30919793845035     -0.22773187927806
  C          -1.19185069361892     -1.59138564693074     -0.75014181847922
  C           1.11721721553918     -0.19132358017665      0.04079053953376
  C           0.12399250692443     -2.08187890074312     -0.84744231032906
  H          -0.26257044474677      1.28076921516258      0.53493180255165
  H          -2.04817716635682     -2.17575039565569     -1.06261701705408
  H           0.26654662260622     -3.08260826342717     -1.25899366577598
  H          -3.33967079887399     -0.03992311051776     -0.49290513978540
  H          -2.51354364182462      1.31500141899139      0.18743641294284
