19
Coordinates from ORCA-job formamide_cytosine_opt_freq E -564.454329976835
  O      -2.475240      3.933079      1.501588
  N      -0.919863      2.237594      1.501588
  C      -1.303033      3.562794      1.501188
  H       0.057782      1.966755      1.501288
  H      -1.606944      1.491130      1.501588
  H      -0.522902      4.324040      1.500478
  O       2.213400      1.118800      0.000100
  N      -0.059500      0.981600      0.000100
  N      -2.442200      0.921400      0.000100
  N       1.293500     -0.974400      0.000000
  C      -1.240600      0.267600     -0.000100
  C      -1.164300     -1.072600     -0.000200
  C       1.208800      0.405600     -0.000300
  C       0.190800     -1.647800      0.000300
  H      -0.133100      1.994600      0.000300
  H      -2.022300     -1.731700     -0.000300
  H       0.235100     -2.748700      0.000500
  H      -3.308900      0.398400      0.000300
  H      -2.453300      1.933200      0.000600
19
Coordinates from ORCA-job formamide_cytosine_opt_freq E -564.477820698002
  O      -2.493614      3.960380      1.503646
  N      -0.933192      2.287259      1.534473
  C      -1.319001      3.599334      1.525607
  H       0.047161      2.004306      1.537615
  H      -1.616600      1.525646      1.527924
  H      -0.521761      4.353962      1.518469
  O       2.212092      1.110912     -0.014588
  N      -0.051891      0.962176     -0.019561
  N      -2.439294      0.922335     -0.005967
  N       1.297734     -1.002446     -0.013103
  C      -1.234118      0.252767     -0.011958
  C      -1.149647     -1.108267     -0.007613
  C       1.221619      0.381770     -0.019793
  C       0.184995     -1.676434     -0.009070
  H      -0.125355      1.988900     -0.014793
  H      -2.009595     -1.765055     -0.002265
  H       0.236599     -2.770493     -0.005999
  H      -3.299992      0.397655     -0.012759
  H      -2.458939      1.936687     -0.001148
19
Coordinates from ORCA-job formamide_cytosine_opt_freq E -564.495054043910
  O      -2.510991      3.986183      1.506704
  N      -0.944026      2.334786      1.565525
  C      -1.334769      3.635333      1.547986
  H       0.029879      2.041702      1.571430
  H      -1.619461      1.563631      1.552213
  H      -0.519938      4.377941      1.538020
  O       2.208054      1.104266     -0.028776
  N      -0.049908      0.942012     -0.037227
  N      -2.428274      0.919197     -0.012213
  N       1.300932     -1.024738     -0.027089
  C      -1.228189      0.238847     -0.022592
  C      -1.137328     -1.137322     -0.013149
  C       1.233931      0.357908     -0.037068
  C       0.174972     -1.696022     -0.018557
  H      -0.120198      1.967651     -0.027942
  H      -2.003164     -1.787157     -0.002494
  H       0.238994     -2.785659     -0.013638
  H      -3.285565      0.390188     -0.024941
  H      -2.457750      1.932646     -0.007070
19
Coordinates from ORCA-job formamide_cytosine_opt_freq E -564.512737998241
  O      -2.535679      4.030641      1.511382
  N      -0.954187      2.399068      1.611513
  C      -1.357986      3.693699      1.578873
  H       0.012741      2.097964      1.623356
  H      -1.616604      1.619757      1.591524
  H      -0.530855      4.425259      1.571480
  O       2.208356      1.083910     -0.048044
  N      -0.048937      0.910160     -0.062151
  N      -2.412207      0.904213     -0.022518
  N       1.306954     -1.053883     -0.048763
  C      -1.222817      0.216414     -0.038433
  C      -1.130017     -1.169022     -0.021716
  C       1.249158      0.321169     -0.060019
  C       0.167442     -1.720467     -0.033890
  H      -0.108932      1.929080     -0.049000
  H      -2.006149     -1.805569     -0.004125
  H       0.249863     -2.808393     -0.027907
  H      -3.267302      0.370436     -0.042686
  H      -2.455642      1.916957     -0.019757
19
Coordinates from ORCA-job formamide_cytosine_opt_freq E -564.528248727505
  O      -2.565118      4.087307      1.517650
  N      -0.958601      2.482692      1.671582
  C      -1.385812      3.772829      1.614000
  H       0.005564      2.185875      1.694313
  H      -1.606510      1.697573      1.648493
  H      -0.559967      4.505094      1.626246
  O       2.213683      1.048058     -0.068460
  N      -0.046931      0.869244     -0.093155
  N      -2.396683      0.873887     -0.038108
  N       1.312746     -1.091886     -0.078695
  C      -1.218839      0.183388     -0.059517
  C      -1.129046     -1.206131     -0.034222
  C       1.263818      0.274419     -0.085045
  C       0.164639     -1.755471     -0.056537
  H      -0.087124      1.879835     -0.078888
  H      -2.016220     -1.827039     -0.009541
  H       0.265277     -2.842111     -0.052005
  H      -3.251922      0.339395     -0.064908
  H      -2.455754      1.884435     -0.044081
19
Coordinates from ORCA-job formamide_cytosine_opt_freq E -564.537708996238
  O      -2.590302      4.129618      1.514972
  N      -0.955100      2.559313      1.728342
  C      -1.409434      3.841967      1.645666
  H       0.014300      2.282481      1.762217
  H      -1.593702      1.770925      1.705235
  H      -0.597986      4.588852      1.676227
  O       2.220081      1.009874     -0.079200
  N      -0.043575      0.834510     -0.119557
  N      -2.387396      0.840725     -0.050679
  N       1.313770     -1.128143     -0.106787
  C      -1.215067      0.150296     -0.078069
  C      -1.129277     -1.239484     -0.049131
  C       1.271390      0.235060     -0.105991
  C       0.164425     -1.790869     -0.080319
  H      -0.063362      1.843438     -0.104954
  H      -2.022389     -1.851266     -0.019973
  H       0.271570     -2.876765     -0.079128
  H      -3.246296      0.312024     -0.081484
  H      -2.454450      1.848836     -0.068270
19
Coordinates from ORCA-job formamide_cytosine_opt_freq E -564.544077777424
  O      -2.614227      4.163012      1.511980
  N      -0.947014      2.635227      1.783198
  C      -1.430582      3.905709      1.672590
  H       0.031427      2.391457      1.829586
  H      -1.580864      1.844656      1.761931
  H      -0.642185      4.676230      1.724273
  O       2.224631      0.969864     -0.086808
  N      -0.039950      0.801512     -0.141984
  N      -2.381296      0.807155     -0.060960
  N       1.312664     -1.165347     -0.134141
  C      -1.210510      0.115441     -0.094403
  C      -1.127443     -1.273600     -0.066011
  C       1.273030      0.199199     -0.121987
  C       0.165700     -1.828260     -0.105780
  H      -0.040186      1.812176     -0.128151
  H      -2.022286     -1.882509     -0.034232
  H       0.270122     -2.914116     -0.110745
  H      -3.246232      0.289329     -0.095900
  H      -2.447598      1.814258     -0.093339
19
Coordinates from ORCA-job formamide_cytosine_opt_freq E -564.548102599397
  O      -2.633353      4.188635      1.503962
  N      -0.935961      2.706946      1.837850
  C      -1.448171      3.962769      1.700206
  H       0.051458      2.504162      1.896281
  H      -1.567499      1.915271      1.818805
  H      -0.685048      4.758515      1.759173
  O       2.224889      0.933208     -0.087129
  N      -0.038619      0.770171     -0.161173
  N      -2.377457      0.775680     -0.067464
  N       1.311805     -1.199526     -0.158654
  C      -1.207584      0.080963     -0.109258
  C      -1.125209     -1.306849     -0.086317
  C       1.269577      0.168060     -0.137395
  C       0.168266     -1.863513     -0.132174
  H      -0.022890      1.781931     -0.146997
  H      -2.018455     -1.917969     -0.053265
  H       0.265770     -2.949853     -0.143492
  H      -3.249066      0.270312     -0.107783
  H      -2.435253      1.782480     -0.116059
19
Coordinates from ORCA-job formamide_cytosine_opt_freq E -564.550332880730
  O      -2.651822      4.216918      1.508913
  N      -0.926407      2.777728      1.885676
  C      -1.463518      4.018841      1.720039
  H       0.067359      2.615596      1.957564
  H      -1.555934      1.984770      1.869522
  H      -0.725103      4.837043      1.793465
  O       2.224207      0.898695     -0.092041
  N      -0.037792      0.737603     -0.175094
  N      -2.373359      0.746409     -0.072630
  N       1.312709     -1.232839     -0.181233
  C      -1.206080      0.046503     -0.122114
  C      -1.123021     -1.340546     -0.106028
  C       1.265722      0.137318     -0.145213
  C       0.171060     -1.897405     -0.157745
  H      -0.010989      1.749994     -0.161179
  H      -2.013308     -1.955915     -0.073480
  H       0.261755     -2.984046     -0.178747
  H      -3.250449      0.252001     -0.119886
  H      -2.417831      1.752726     -0.140670
19
Coordinates from ORCA-job formamide_cytosine_opt_freq E -564.551415466340
  O      -2.662312      4.241873      1.504600
  N      -0.917723      2.838671      1.931665
  C      -1.475814      4.068047      1.746199
  H       0.080018      2.710750      2.014083
  H      -1.543418      2.043391      1.917186
  H      -0.753000      4.901174      1.807204
  O       2.220864      0.872449     -0.086119
  N      -0.039620      0.709536     -0.187911
  N      -2.371383      0.720331     -0.073224
  N       1.314400     -1.259119     -0.197862
  C      -1.207460      0.016421     -0.135522
  C      -1.122325     -1.369674     -0.129791
  C       1.262087      0.112576     -0.159214
  C       0.173663     -1.924442     -0.181496
  H      -0.008269      1.721992     -0.169902
  H      -2.009399     -1.989684     -0.098379
  H       0.261634     -3.011389     -0.206210
  H      -3.252137      0.233124     -0.126783
  H      -2.402606      1.725365     -0.159407
19
Coordinates from ORCA-job formamide_cytosine_opt_freq E -564.551981808427
  O      -2.676354      4.276585      1.520169
  N      -0.914562      2.899626      1.966009
  C      -1.487052      4.119173      1.758837
  H       0.084574      2.795981      2.062192
  H      -1.535396      2.100499      1.954263
  H      -0.777809      4.963400      1.830733
  O       2.221597      0.845742     -0.096196
  N      -0.038744      0.680695     -0.193362
  N      -2.368191      0.696253     -0.074083
  N       1.317044     -1.286540     -0.214349
  C      -1.207467     -0.012439     -0.145531
  C      -1.120718     -1.398593     -0.148517
  C       1.262396      0.085367     -0.159971
  C       0.175726     -1.951512     -0.202661
  H      -0.006766      1.693901     -0.173124
  H      -2.005813     -2.021579     -0.121042
  H       0.262989     -3.038113     -0.237972
  H      -3.250739      0.213409     -0.134414
  H      -2.387517      1.699539     -0.181861
19
Coordinates from ORCA-job formamide_cytosine_opt_freq E -564.552347667958
  O      -2.683125      4.306712      1.526033
  N      -0.912385      2.948174      1.996765
  C      -1.495041      4.161323      1.776122
  H       0.087201      2.858858      2.104313
  H      -1.526419      2.144009      1.987385
  H      -0.790665      5.010400      1.838332
  O       2.220736      0.826984     -0.095137
  N      -0.039527      0.658955     -0.200015
  N      -2.367539      0.675387     -0.071692
  N       1.319197     -1.306158     -0.223869
  C      -1.208427     -0.035134     -0.156513
  C      -1.119852     -1.420892     -0.169866
  C       1.263282      0.065676     -0.170323
  C       0.177762     -1.971498     -0.220057
  H      -0.011925      1.672457     -0.174033
  H      -2.003636     -2.045909     -0.146201
  H       0.267604     -3.057968     -0.256480
  H      -3.250397      0.193467     -0.136731
  H      -2.379643      1.676550     -0.198916
19
Coordinates from ORCA-job formamide_cytosine_opt_freq E -564.552698365463
  O      -2.688558      4.345426      1.530761
  N      -0.914521      2.999007      2.026822
  C      -1.502355      4.207358      1.791120
  H       0.084030      2.915045      2.151056
  H      -1.519092      2.187570      2.021384
  H      -0.798237      5.057412      1.842770
  O       2.222351      0.807929     -0.103426
  N      -0.039004      0.637062     -0.201211
  N      -2.367092      0.653257     -0.066527
  N       1.321504     -1.325806     -0.234583
  C      -1.208021     -0.057818     -0.165478
  C      -1.118223     -1.443196     -0.191004
  C       1.266344      0.045194     -0.175467
  C       0.180202     -1.991857     -0.238188
  H      -0.020384      1.650810     -0.168660
  H      -2.001645     -2.069001     -0.174362
  H       0.274228     -3.077829     -0.280093
  H      -3.248702      0.169518     -0.137284
  H      -2.375627      1.651311     -0.218512
19
Coordinates from ORCA-job formamide_cytosine_opt_freq E -564.553022056044
  O      -2.691630      4.388590      1.539942
  N      -0.918036      3.046301      2.051262
  C      -1.505763      4.251502      1.800204
  H       0.077931      2.958300      2.196749
  H      -1.510901      2.225934      2.052740
  H      -0.799926      5.100334      1.849549
  O       2.224156      0.791851     -0.110682
  N      -0.038558      0.618313     -0.201948
  N      -2.367483      0.631097     -0.060601
  N       1.323236     -1.342241     -0.241742
  C      -1.206616     -0.078375     -0.174563
  C      -1.116201     -1.463116     -0.212263
  C       1.269820      0.028315     -0.185601
  C       0.183093     -2.010123     -0.253491
  H      -0.033727      1.631888     -0.161706
  H      -1.999830     -2.088852     -0.203424
  H       0.282176     -3.095615     -0.295853
  H      -3.246175      0.142564     -0.137499
  H      -2.378365      1.624725     -0.241953
19
Coordinates from ORCA-job formamide_cytosine_opt_freq E -564.553171741545
  O      -2.687710      4.418158      1.528228
  N      -0.922330      3.076970      2.070827
  C      -1.505903      4.280394      1.805375
  H       0.069893      2.981759      2.237792
  H      -1.506187      2.249891      2.079743
  H      -0.796073      5.126379      1.845183
  O       2.226073      0.783075     -0.124288
  N      -0.038382      0.607566     -0.194388
  N      -2.368279      0.615574     -0.052956
  N       1.323932     -1.350618     -0.251128
  C      -1.204867     -0.091425     -0.175663
  C      -1.114593     -1.475218     -0.223469
  C       1.271272      0.019580     -0.185993
  C       0.185787     -2.020992     -0.266280
  H      -0.045505      1.620440     -0.148098
  H      -1.998363     -2.100809     -0.222627
  H       0.287516     -3.105903     -0.316159
  H      -3.243710      0.121995     -0.137537
  H      -2.385370      1.604577     -0.259445
19
Coordinates from ORCA-job formamide_cytosine_opt_freq E -564.553279996422
  O      -2.682392      4.430890      1.520033
  N      -0.921939      3.089914      2.079081
  C      -1.501852      4.291729      1.802542
  H       0.067119      2.990741      2.261784
  H      -1.501498      2.259630      2.095046
  H      -0.792739      5.138123      1.846611
  O       2.225244      0.781464     -0.128362
  N      -0.039731      0.604276     -0.190089
  N      -2.369887      0.607467     -0.049613
  N       1.323688     -1.351988     -0.255519
  C      -1.204352     -0.097525     -0.175569
  C      -1.113906     -1.480530     -0.227682
  C       1.269842      0.018958     -0.190684
  C       0.187710     -2.024905     -0.271403
  H      -0.054256      1.616505     -0.139814
  H      -1.997159     -2.106800     -0.230345
  H       0.289997     -3.109667     -0.322642
  H      -3.242736      0.110167     -0.141082
  H      -2.393956      1.592944     -0.273175
19
Coordinates from ORCA-job formamide_cytosine_opt_freq E -564.553454682999
  O      -2.668471      4.432165      1.492012
  N      -0.917928      3.094250      2.087841
  C      -1.492074      4.293210      1.793188
  H       0.066019      2.993011      2.294260
  H      -1.495384      2.262538      2.115097
  H      -0.785492      5.141436      1.842344
  O       2.221583      0.786523     -0.134365
  N      -0.043523      0.605872     -0.179315
  N      -2.374128      0.601632     -0.044997
  N       1.322566     -1.346839     -0.263322
  C      -1.205350     -0.100698     -0.170137
  C      -1.113770     -1.482513     -0.225737
  C       1.264659      0.025509     -0.193347
  C       0.190145     -2.023857     -0.276294
  H      -0.065415      1.617272     -0.124020
  H      -1.995425     -2.110890     -0.231690
  H       0.291779     -3.108450     -0.331928
  H      -3.242878      0.099195     -0.149885
  H      -2.409713      1.582026     -0.290589
19
Coordinates from ORCA-job formamide_cytosine_opt_freq E -564.553688095500
  O      -2.644618      4.411945      1.442772
  N      -0.907369      3.083397      2.094806
  C      -1.475098      4.277345      1.773668
  H       0.069478      2.985851      2.332695
  H      -1.487205      2.253974      2.137771
  H      -0.774017      5.129690      1.830050
  O       2.212978      0.802075     -0.139136
  N      -0.051321      0.614718     -0.162586
  N      -2.382478      0.601307     -0.039399
  N       1.320239     -1.332358     -0.272789
  C      -1.209878     -0.098099     -0.158944
  C      -1.114816     -1.478622     -0.216045
  C       1.254838      0.041790     -0.194487
  C       0.192213     -2.014612     -0.278422
  H      -0.078181      1.625431     -0.101131
  H      -1.993474     -2.111002     -0.223744
  H       0.293029     -3.098966     -0.340091
  H      -3.245136      0.092425     -0.165669
  H      -2.431984      1.575103     -0.310202
19
Coordinates from ORCA-job formamide_cytosine_opt_freq E -564.553948914876
  O      -2.616134      4.371162      1.382981
  N      -0.891825      3.059297      2.099061
  C      -1.455104      4.246428      1.747414
  H       0.077108      2.972562      2.369953
  H      -1.478392      2.235812      2.158587
  H      -0.760262      5.103621      1.807985
  O       2.200484      0.825730     -0.140976
  N      -0.062350      0.628703     -0.143855
  N      -2.393945      0.607101     -0.032294
  N       1.317157     -1.311606     -0.280439
  C      -1.218225     -0.089547     -0.145164
  C      -1.117099     -1.469163     -0.202902
  C       1.243170      0.063543     -0.192659
  C       0.192686     -1.998587     -0.277733
  H      -0.089799      1.639200     -0.075787
  H      -1.992173     -2.106413     -0.210866
  H       0.294623     -3.082563     -0.344909
  H      -3.249354      0.091780     -0.183456
  H      -2.453367      1.574332     -0.325823
19
Coordinates from ORCA-job formamide_cytosine_opt_freq E -564.554327100152
  O      -2.581394      4.307565      1.309494
  N      -0.870432      3.022615      2.101821
  C      -1.431038      4.199840      1.711471
  H       0.088290      2.955106      2.411533
  H      -1.467567      2.208622      2.180589
  H      -0.742113      5.061919      1.770657
  O       2.183049      0.858895     -0.138848
  N      -0.077869      0.647988     -0.122431
  N      -2.410050      0.618118     -0.020259
  N       1.313061     -1.283797     -0.284691
  C      -1.231385     -0.074747     -0.129336
  C      -1.120856     -1.453805     -0.189651
  C       1.229881      0.090869     -0.187044
  C       0.191169     -1.975286     -0.275069
  H      -0.102165      1.658596     -0.045798
  H      -1.991858     -2.096689     -0.197988
  H       0.298072     -3.058513     -0.347889
  H      -3.256127      0.095646     -0.200792
  H      -2.473468      1.578449     -0.336653
19
Coordinates from ORCA-job formamide_cytosine_opt_freq E -564.554644269428
  O      -2.543367      4.231574      1.228661
  N      -0.846747      2.982087      2.104419
  C      -1.405160      4.146144      1.667914
  H       0.098413      2.939486      2.458211
  H      -1.454867      2.178783      2.204983
  H      -0.719490      5.011353      1.717846
  O       2.163064      0.896692     -0.131067
  N      -0.096038      0.669353     -0.100711
  N      -2.429704      0.630140     -0.000151
  N       1.308281     -1.252926     -0.283355
  C      -1.247252     -0.056532     -0.114625
  C      -1.125627     -1.435196     -0.183558
  C       1.217515      0.119205     -0.177005
  C       0.187804     -1.948714     -0.273821
  H      -0.116077      1.679917     -0.013027
  H      -1.993048     -2.083129     -0.194878
  H       0.304291     -3.030631     -0.352579
  H      -3.265006      0.099960     -0.209720
  H      -2.489788      1.583827     -0.338419
19
Coordinates from ORCA-job formamide_cytosine_opt_freq E -564.554958902173
  O      -2.514951      4.169632      1.166284
  N      -0.829346      2.949979      2.103887
  C      -1.385016      4.101936      1.628373
  H       0.102634      2.928906      2.492846
  H      -1.444219      2.154179      2.223297
  H      -0.699049      4.967409      1.665376
  O       2.148322      0.926028     -0.116952
  N      -0.110032      0.687115     -0.086584
  N      -2.446149      0.638592      0.023036
  N       1.304200     -1.228678     -0.274669
  C      -1.258999     -0.040187     -0.106209
  C      -1.129646     -1.418484     -0.188766
  C       1.210237      0.140064     -0.164912
  C       0.184055     -1.927549     -0.274894
  H      -0.127453      1.697362      0.011014
  H      -1.995534     -2.068630     -0.205717
  H       0.310479     -3.008044     -0.357900
  H      -3.273455      0.102048     -0.203276
  H      -2.498877      1.589715     -0.325116
19
Coordinates from ORCA-job formamide_cytosine_opt_freq E -564.555231316205
  O      -2.487392      4.116146      1.103208
  N      -0.816088      2.926872      2.104336
  C      -1.366143      4.064663      1.587844
  H       0.100601      2.925745      2.529255
  H      -1.432866      2.135754      2.245139
  H      -0.679618      4.930016      1.610249
  O       2.137128      0.949220     -0.097209
  N      -0.121390      0.702661     -0.074386
  N      -2.459906      0.642159      0.051001
  N       1.299696     -1.208127     -0.264660
  C      -1.266910     -0.026744     -0.100049
  C      -1.133237     -1.404041     -0.202156
  C       1.204592      0.157416     -0.150449
  C       0.180668     -1.910514     -0.281454
  H      -0.140466      1.711725      0.034165
  H      -1.998737     -2.054620     -0.228039
  H       0.315333     -2.989364     -0.371566
  H      -3.280240      0.099412     -0.186179
  H      -2.507824      1.593014     -0.299930
19
Coordinates from ORCA-job formamide_cytosine_opt_freq E -564.555531070219
  O      -2.461933      4.066188      1.038201
  N      -0.806364      2.910893      2.104105
  C      -1.350009      4.031743      1.546133
  H       0.094081      2.931577      2.561351
  H      -1.421550      2.122237      2.267283
  H      -0.665971      4.899129      1.555291
  O       2.129679      0.964600     -0.066975
  N      -0.129856      0.716030     -0.065894
  N      -2.468771      0.642597      0.081813
  N       1.294789     -1.192105     -0.254729
  C      -1.270894     -0.015678     -0.096201
  C      -1.136335     -1.391441     -0.222219
  C       1.199955      0.170685     -0.132986
  C       0.177481     -1.897331     -0.294212
  H      -0.152644      1.723614      0.054361
  H      -2.002417     -2.040836     -0.258289
  H       0.317109     -2.974513     -0.394215
  H      -3.284972      0.095182     -0.158392
  H      -2.514179      1.598820     -0.255307
19
Coordinates from ORCA-job formamide_cytosine_opt_freq E -564.556007569008
  O      -2.420347      3.984706      0.931562
  N      -0.793455      2.897183      2.107403
  C      -1.328070      3.985475      1.483805
  H       0.080728      2.953988      2.611994
  H      -1.402983      2.111576      2.305450
  H      -0.656170      4.862039      1.477366
  O       2.121486      0.979249     -0.015014
  N      -0.139413      0.732440     -0.053625
  N      -2.475977      0.641437      0.126500
  N       1.287151     -1.172602     -0.248243
  C      -1.274347     -0.003308     -0.090114
  C      -1.141189     -1.375793     -0.252061
  C       1.192367      0.187126     -0.106707
  C       0.173115     -1.880788     -0.320065
  H      -0.170351      1.736686      0.086022
  H      -2.008118     -2.023077     -0.302299
  H       0.315362     -2.955364     -0.440310
  H      -3.289101      0.091105     -0.115704
  H      -2.523487      1.609313     -0.176842
19
Coordinates from ORCA-job formamide_cytosine_opt_freq E -564.556794878976
  O      -2.370381      3.877596      0.800428
  N      -0.782461      2.900394      2.116075
  C      -1.309883      3.938300      1.412246
  H       0.058220      3.009929      2.666677
  H      -1.381180      2.116294      2.353239
  H      -0.667143      4.835756      1.390872
  O       2.116875      0.977087      0.064967
  N      -0.144380      0.743686     -0.045768
  N      -2.472820      0.637443      0.176689
  N       1.278336     -1.161058     -0.250006
  C      -1.274207      0.004975     -0.087050
  C      -1.146943     -1.362492     -0.293817
  C       1.184641      0.194850     -0.072808
  C       0.167577     -1.867976     -0.363500
  H      -0.185558      1.743394      0.120087
  H      -2.015682     -2.005737     -0.359339
  H       0.306633     -2.938837     -0.514792
  H      -3.290427      0.090780     -0.054893
  H      -2.524017      1.627006     -0.050189
19
Coordinates from ORCA-job formamide_cytosine_opt_freq E -564.557777834195
  O      -2.312145      3.755068      0.673894
  N      -0.773459      2.919414      2.133407
  C      -1.295765      3.895734      1.348880
  H       0.031769      3.084874      2.723654
  H      -1.360632      2.137611      2.404729
  H      -0.697619      4.822445      1.314525
  O       2.114755      0.962491      0.142053
  N      -0.144101      0.747108     -0.036470
  N      -2.462724      0.636156      0.213122
  N       1.272162     -1.155875     -0.269205
  C      -1.274346      0.006802     -0.082454
  C      -1.153111     -1.355359     -0.325948
  C       1.177267      0.195813     -0.045032
  C       0.162840     -1.858102     -0.411282
  H      -0.196191      1.740499      0.158358
  H      -2.022410     -1.996306     -0.402486
  H       0.294105     -2.924306     -0.598411
  H      -3.291864      0.103383     -0.005710
  H      -2.521331      1.643940      0.073495
19
Coordinates from ORCA-job formamide_cytosine_opt_freq E -564.558612194584
  O      -2.305510      3.733709      0.646369
  N      -0.782400      2.979327      2.161527
  C      -1.312012      3.923155      1.346343
  H       0.016092      3.173777      2.742539
  H      -1.361153      2.190051      2.429575
  H      -0.754057      4.873884      1.313097
  O       2.125857      0.911748      0.184825
  N      -0.128738      0.719850     -0.041732
  N      -2.437367      0.627783      0.202956
  N       1.276996     -1.184988     -0.307199
  C      -1.269029     -0.016583     -0.088233
  C      -1.152099     -1.377716     -0.341474
  C       1.180859      0.163355     -0.040414
  C       0.163909     -1.877428     -0.451681
  H      -0.184538      1.711066      0.171518
  H      -2.020843     -2.018997     -0.418401
  H       0.281996     -2.940776     -0.664008
  H      -3.290451      0.123498      0.013579
  H      -2.500312      1.646677      0.149936
19
Coordinates from ORCA-job formamide_cytosine_opt_freq E -564.558808162529
  O      -2.221943      3.555366      0.548257
  N      -0.757325      2.983300      2.192101
  C      -1.281329      3.846376      1.286528
  H      -0.005056      3.242169      2.828090
  H      -1.337110      2.206380      2.490466
  H      -0.767965      4.819396      1.218872
  O       2.113984      0.928606      0.209011
  N      -0.139275      0.727498     -0.009550
  N      -2.446455      0.643648      0.216314
  N       1.274118     -1.159103     -0.342542
  C      -1.284983     -0.007853     -0.067358
  C      -1.160765     -1.364793     -0.337745
  C       1.170662      0.182153     -0.032430
  C       0.157770     -1.850535     -0.479027
  H      -0.200977      1.708081      0.236745
  H      -2.025040     -2.011600     -0.419672
  H       0.278009     -2.908767     -0.716940
  H      -3.307230      0.160047      0.003825
  H      -2.511888      1.661024      0.184176
19
Coordinates from ORCA-job formamide_cytosine_opt_freq E -564.559493430848
  O      -2.278202      3.664258      0.628728
  N      -0.768772      3.016347      2.207060
  C      -1.303128      3.911342      1.334485
  H       0.007295      3.255727      2.815434
  H      -1.350217      2.231301      2.478051
  H      -0.762618      4.870279      1.274666
  O       2.122595      0.910263      0.169972
  N      -0.132300      0.701572     -0.018682
  N      -2.445601      0.628660      0.184580
  N       1.282255     -1.186954     -0.350287
  C      -1.282962     -0.029944     -0.076594
  C      -1.154206     -1.389584     -0.331354
  C       1.181554      0.155935     -0.053057
  C       0.162385     -1.877199     -0.471009
  H      -0.188000      1.685133      0.219405
  H      -2.017814     -2.038044     -0.408860
  H       0.286763     -2.937790     -0.696595
  H      -3.308409      0.147369     -0.026003
  H      -2.503419      1.642722      0.129177
19
Coordinates from ORCA-job formamide_cytosine_opt_freq E -564.559824028292
  O      -2.268947      3.648997      0.620008
  N      -0.769491      3.050673      2.228528
  C      -1.303135      3.919775      1.329023
  H      -0.009668      3.319706      2.841041
  H      -1.345106      2.261970      2.504554
  H      -0.763335      4.877723      1.249446
  O       2.120147      0.896539      0.182353
  N      -0.134414      0.688644     -0.017840
  N      -2.446087      0.616377      0.191319
  N       1.281339     -1.197746     -0.355517
  C      -1.283824     -0.039310     -0.081206
  C      -1.154415     -1.395928     -0.354592
  C       1.183101      0.140757     -0.049812
  C       0.160368     -1.885312     -0.491183
  H      -0.189726      1.670384      0.233317
  H      -2.018779     -2.042413     -0.440698
  H       0.289677     -2.943189     -0.725371
  H      -3.310488      0.138134     -0.015642
  H      -2.490017      1.635612      0.161391
19
Coordinates from ORCA-job formamide_cytosine_opt_freq E -564.560271547703
  O      -2.234131      3.606277      0.599784
  N      -0.766659      3.106263      2.271579
  C      -1.290127      3.922887      1.318252
  H      -0.042236      3.425075      2.900882
  H      -1.332373      2.314908      2.559939
  H      -0.753854      4.879492      1.204861
  O       2.116514      0.885829      0.179608
  N      -0.139431      0.670253     -0.000898
  N      -2.455986      0.596861      0.192460
  N       1.279790     -1.205857     -0.375957
  C      -1.289292     -0.054918     -0.079007
  C      -1.155722     -1.406460     -0.376381
  C       1.183412      0.126418     -0.053707
  C       0.158093     -1.893108     -0.519831
  H      -0.197210      1.644853      0.275036
  H      -2.018920     -2.052693     -0.476723
  H       0.294506     -2.946597     -0.768298
  H      -3.320406      0.123802     -0.023910
  H      -2.488766      1.618107      0.181428
19
Coordinates from ORCA-job formamide_cytosine_opt_freq E -564.560694595884
  O      -2.178449      3.545111      0.570616
  N      -0.763008      3.170756      2.319622
  C      -1.266960      3.919539      1.303594
  H      -0.084148      3.549260      2.965905
  H      -1.315332      2.376730      2.625888
  H      -0.744903      4.879343      1.155524
  O       2.110664      0.876061      0.175210
  N      -0.146988      0.652220      0.025423
  N      -2.466805      0.572357      0.191390
  N       1.275498     -1.210532     -0.401142
  C      -1.294831     -0.072183     -0.073040
  C      -1.158320     -1.417143     -0.398439
  C       1.178910      0.115103     -0.057396
  C       0.155352     -1.899278     -0.553046
  H      -0.207090      1.617534      0.329591
  H      -2.019969     -2.062443     -0.517253
  H       0.295294     -2.947491     -0.820509
  H      -3.329068      0.102618     -0.038622
  H      -2.492647      1.593828      0.205801
19
Coordinates from ORCA-job formamide_cytosine_opt_freq E -564.561065092846
  O      -2.120896      3.500963      0.551185
  N      -0.761663      3.235976      2.364227
  C      -1.242336      3.924906      1.298090
  H      -0.122819      3.664951      3.018190
  H      -1.298656      2.438641      2.686009
  H      -0.736837      4.889012      1.123169
  O       2.104665      0.867045      0.164289
  N      -0.154364      0.633638      0.054688
  N      -2.477559      0.544262      0.184491
  N       1.270859     -1.215166     -0.425465
  C      -1.299138     -0.091994     -0.067533
  C      -1.160707     -1.430882     -0.416745
  C       1.171973      0.105156     -0.062386
  C       0.153950     -1.907145     -0.582693
  H      -0.215134      1.590372      0.380847
  H      -2.020877     -2.074584     -0.553452
  H       0.294027     -2.950929     -0.866975
  H      -3.335007      0.073573     -0.059844
  H      -2.502283      1.563597      0.219026
19
Coordinates from ORCA-job formamide_cytosine_opt_freq E -564.561337832861
  O      -2.064095      3.465333      0.539078
  N      -0.760428      3.303934      2.404981
  C      -1.220581      3.937833      1.298043
  H      -0.155427      3.777944      3.059217
  H      -1.280474      2.502101      2.741299
  H      -0.738279      4.909488      1.101510
  O       2.097175      0.854339      0.160538
  N      -0.162000      0.612271      0.082045
  N      -2.485163      0.514638      0.177966
  N       1.266465     -1.222414     -0.447328
  C      -1.302809     -0.114370     -0.066156
  C      -1.163364     -1.447107     -0.437992
  C       1.163191      0.092713     -0.064031
  C       0.153003     -1.916827     -0.612422
  H      -0.221333      1.562883      0.424558
  H      -2.022708     -2.087859     -0.591750
  H       0.291761     -2.956187     -0.913597
  H      -3.337211      0.041166     -0.078674
  H      -2.510521      1.531513      0.231833
19
Coordinates from ORCA-job formamide_cytosine_opt_freq E -564.561571073346
  O      -2.009295      3.428059      0.533800
  N      -0.758903      3.373055      2.441825
  C      -1.202711      3.952093      1.299650
  H      -0.183489      3.888336      3.090858
  H      -1.259519      2.566135      2.793419
  H      -0.747645      4.931963      1.081332
  O       2.089509      0.838337      0.167501
  N      -0.169015      0.588584      0.106972
  N      -2.491737      0.486814      0.173946
  N       1.263357     -1.231447     -0.466385
  C      -1.306900     -0.136751     -0.068394
  C      -1.166097     -1.462914     -0.462995
  C       1.155106      0.077731     -0.061319
  C       0.152277     -1.926076     -0.643086
  H      -0.225758      1.534997      0.460684
  H      -2.025313     -2.099395     -0.633401
  H       0.290495     -2.960695     -0.961118
  H      -3.339576      0.011270     -0.092199
  H      -2.517587      1.501297      0.248030
19
Coordinates from ORCA-job formamide_cytosine_opt_freq E -564.561844362647
  O      -1.955466      3.386331      0.538266
  N      -0.757065      3.450635      2.478287
  C      -1.188553      3.968521      1.303185
  H      -0.208337      4.007173      3.115349
  H      -1.232271      2.636905      2.848078
  H      -0.766106      4.956601      1.058892
  O       2.081665      0.816415      0.186265
  N      -0.175637      0.559659      0.132327
  N      -2.498174      0.458485      0.171682
  N       1.261436     -1.243954     -0.483812
  C      -1.311689     -0.160511     -0.073868
  C      -1.168709     -1.478717     -0.494202
  C       1.147901      0.057704     -0.053605
  C       0.151606     -1.935939     -0.677018
  H      -0.228142      1.503475      0.491522
  H      -2.028452     -2.108929     -0.683488
  H       0.290333     -2.964525     -1.014468
  H      -3.342882     -0.017992     -0.102399
  H      -2.524259      1.470054      0.268124
19
Coordinates from ORCA-job formamide_cytosine_opt_freq E -564.562198779631
  O      -1.909711      3.340236      0.554522
  N      -0.755494      3.533253      2.511546
  C      -1.181672      3.984200      1.307854
  H      -0.226864      4.129006      3.128980
  H      -1.196887      2.710855      2.903259
  H      -0.795406      4.978733      1.032519
  O       2.075167      0.787125      0.219814
  N      -0.180611      0.526424      0.157027
  N      -2.503778      0.432200      0.172377
  N       1.261100     -1.260390     -0.497294
  C      -1.316773     -0.183005     -0.082268
  C      -1.170705     -1.491638     -0.531565
  C       1.143195      0.031981     -0.039180
  C       0.150837     -1.945344     -0.713328
  H      -0.227194      1.470256      0.513187
  H      -2.031577     -2.113514     -0.741943
  H       0.291232     -2.966604     -1.072119
  H      -3.347491     -0.042854     -0.107069
  H      -2.530166      1.440473      0.292799
19
Coordinates from ORCA-job formamide_cytosine_opt_freq E -564.562607258077
  O      -1.872653      3.288721      0.584187
  N      -0.755921      3.624216      2.543150
  C      -1.182091      3.997469      1.314038
  H      -0.245819      4.260782      3.135628
  H      -1.153163      2.792115      2.961203
  H      -0.832721      4.993970      0.999228
  O       2.071491      0.748194      0.263712
  N      -0.182985      0.488751      0.181338
  N      -2.506561      0.406892      0.176205
  N       1.261059     -1.282176     -0.508430
  C      -1.320832     -0.204795     -0.091457
  C      -1.172213     -1.501252     -0.575063
  C       1.141928     -0.001156     -0.019764
  C       0.148833     -1.955459     -0.753385
  H      -0.224575      1.435981      0.530527
  H      -2.034260     -2.112955     -0.809653
  H       0.291742     -2.967278     -1.136994
  H      -3.351890     -0.062769     -0.107169
  H      -2.532168      1.412143      0.321818
19
Coordinates from ORCA-job formamide_cytosine_opt_freq E -564.562992082566
  O      -1.840266      3.240348      0.626198
  N      -0.760693      3.721981      2.575313
  C      -1.185992      4.011550      1.325187
  H      -0.269942      4.398743      3.138649
  H      -1.103947      2.880481      3.021504
  H      -0.870367      5.004220      0.964824
  O       2.071515      0.703629      0.302207
  N      -0.182454      0.448371      0.208262
  N      -2.508334      0.380578      0.177424
  N       1.260162     -1.307755     -0.519914
  C      -1.322746     -0.227276     -0.097769
  C      -1.173083     -1.509582     -0.618503
  C       1.143130     -0.038859     -0.001823
  C       0.146020     -1.967428     -0.794598
  H      -0.221706      1.400058      0.549484
  H      -2.035436     -2.110459     -0.879292
  H       0.290604     -2.968742     -1.203821
  H      -3.356315     -0.080492     -0.111641
  H      -2.532950      1.382024      0.347426
19
Coordinates from ORCA-job formamide_cytosine_opt_freq E -564.563272871152
  O      -1.802889      3.197187      0.665540
  N      -0.767565      3.807220      2.603116
  C      -1.185915      4.021877      1.337119
  H      -0.301087      4.520611      3.144414
  H      -1.061468      2.959989      3.073644
  H      -0.903103      5.009131      0.936036
  O       2.072491      0.665357      0.325940
  N      -0.182094      0.414897      0.230323
  N      -2.507842      0.357904      0.176222
  N       1.257393     -1.329685     -0.531364
  C      -1.322877     -0.247483     -0.101342
  C      -1.174616     -1.517083     -0.653326
  C       1.143275     -0.070684      0.009251
  C       0.142685     -1.978744     -0.829259
  H      -0.222847      1.369543      0.570254
  H      -2.036236     -2.109611     -0.935210
  H       0.286978     -2.970974     -1.259762
  H      -3.357639     -0.094003     -0.121087
  H      -2.529443      1.355945      0.368611
19
Coordinates from ORCA-job formamide_cytosine_opt_freq E -564.563539426241
  O      -1.768196      3.156028      0.717018
  N      -0.779080      3.894515      2.633028
  C      -1.191988      4.034143      1.356702
  H      -0.330020      4.640122      3.143469
  H      -1.007655      3.041623      3.128309
  H      -0.947307      5.013679      0.912837
  O       2.076989      0.624186      0.340440
  N      -0.178975      0.379486      0.253110
  N      -2.508213      0.339422      0.167131
  N       1.255273     -1.355487     -0.541277
  C      -1.322575     -0.266519     -0.103580
  C      -1.174243     -1.524221     -0.684335
  C       1.145140     -0.105650      0.017133
  C       0.140396     -1.992636     -0.859885
  H      -0.221373      1.336247      0.585116
  H      -2.033451     -2.110134     -0.986937
  H       0.281517     -2.976662     -1.309342
  H      -3.360960     -0.097636     -0.142947
  H      -2.528079      1.330886      0.383126
19
Coordinates from ORCA-job formamide_cytosine_opt_freq E -564.563755900115
  O      -1.692321      3.116787      0.763337
  N      -0.790497      3.992050      2.664313
  C      -1.180722      4.053019      1.375798
  H      -0.384097      4.777169      3.158159
  H      -0.964245      3.138728      3.181949
  H      -0.987494      5.025704      0.893463
  O       2.074999      0.585789      0.352937
  N      -0.181921      0.342165      0.271088
  N      -2.505543      0.311118      0.161119
  N       1.249993     -1.378585     -0.559592
  C      -1.321831     -0.295486     -0.111152
  C      -1.178688     -1.540162     -0.719670
  C       1.141227     -0.137952      0.020672
  C       0.135814     -2.008458     -0.897308
  H      -0.230730      1.299387      0.615522
  H      -2.037251     -2.117816     -1.039569
  H       0.275356     -2.983951     -1.365499
  H      -3.357919     -0.116297     -0.162333
  H      -2.516929      1.298183      0.405886
19
Coordinates from ORCA-job formamide_cytosine_opt_freq E -564.563984000925
  O      -1.652371      3.085441      0.796182
  N      -0.798330      4.033188      2.683362
  C      -1.183704      4.055218      1.391852
  H      -0.404848      4.837032      3.161325
  H      -0.921042      3.179417      3.214096
  H      -1.037748      5.025960      0.889777
  O       2.074863      0.568960      0.347211
  N      -0.183397      0.327478      0.268295
  N      -2.503633      0.312034      0.148567
  N       1.248803     -1.394020     -0.560737
  C      -1.324531     -0.303497     -0.116837
  C      -1.177878     -1.546507     -0.730812
  C       1.139425     -0.154014      0.017271
  C       0.135855     -2.019645     -0.903749
  H      -0.234986      1.283091      0.613459
  H      -2.032777     -2.127023     -1.055266
  H       0.270056     -2.995195     -1.373429
  H      -3.356588     -0.099696     -0.192938
  H      -2.509971      1.293170      0.411489
19
Coordinates from ORCA-job formamide_cytosine_opt_freq E -564.564206003347
  O      -1.605444      3.071483      0.829674
  N      -0.804375      4.078916      2.706405
  C      -1.184548      4.070094      1.413531
  H      -0.422064      4.895683      3.164545
  H      -0.873618      3.225184      3.245048
  H      -1.086503      5.040678      0.900409
  O       2.071300      0.557659      0.338729
  N      -0.186389      0.309780      0.265941
  N      -2.506933      0.305309      0.130647
  N       1.248688     -1.408989     -0.564017
  C      -1.327914     -0.318285     -0.125257
  C      -1.177934     -1.560168     -0.741418
  C       1.136649     -0.168233      0.012373
  C       0.136475     -2.033381     -0.909302
  H      -0.239680      1.262298      0.613941
  H      -2.031117     -2.141194     -1.069736
  H       0.268009     -3.010059     -1.377607
  H      -3.356882     -0.095575     -0.231133
  H      -2.510519      1.280189      0.406346
19
Coordinates from ORCA-job formamide_cytosine_opt_freq E -564.564408699873
  O      -1.562053      3.049294      0.850648
  N      -0.804394      4.101688      2.720843
  C      -1.182764      4.069104      1.426790
  H      -0.434712      4.930656      3.165749
  H      -0.826022      3.249229      3.265372
  H      -1.130647      5.040935      0.909945
  O       2.064485      0.557957      0.337926
  N      -0.191942      0.305242      0.252507
  N      -2.511849      0.304869      0.116314
  N       1.248782     -1.415015     -0.560634
  C      -1.332930     -0.325216     -0.134349
  C      -1.179523     -1.568199     -0.746339
  C       1.132884     -0.171091      0.010060
  C       0.136837     -2.039950     -0.906657
  H      -0.246722      1.253672      0.607415
  H      -2.032246     -2.150752     -1.073158
  H       0.269092     -3.019364     -1.369370
  H      -3.357188     -0.087598     -0.265398
  H      -2.511888      1.275931      0.401454
19
Coordinates from ORCA-job formamide_cytosine_opt_freq E -564.564630701990
  O      -1.532602      3.035153      0.869689
  N      -0.800026      4.118770      2.732737
  C      -1.183693      4.068397      1.440203
  H      -0.441034      4.957397      3.163402
  H      -0.773576      3.267365      3.278303
  H      -1.169590      5.042620      0.925320
  O       2.057043      0.557614      0.347067
  N      -0.197494      0.305754      0.234183
  N      -2.517417      0.300654      0.102796
  N       1.248370     -1.418874     -0.555765
  C      -1.336868     -0.331104     -0.144862
  C      -1.181849     -1.576054     -0.749599
  C       1.128967     -0.171748      0.011267
  C       0.136676     -2.045030     -0.902850
  H      -0.253308      1.250810      0.598205
  H      -2.035715     -2.158881     -1.072701
  H       0.273642     -3.026294     -1.360429
  H      -3.356969     -0.086259     -0.296993
  H      -2.517357      1.271102      0.389142
19
Coordinates from ORCA-job formamide_cytosine_opt_freq E -564.564934402741
  O      -1.522262      3.018933      0.883544
  N      -0.785008      4.116051      2.739896
  C      -1.188347      4.056725      1.452766
  H      -0.433574      4.963983      3.155662
  H      -0.704242      3.264510      3.280023
  H      -1.207128      5.036920      0.948554
  O       2.046122      0.564056      0.368500
  N      -0.205357      0.322556      0.202411
  N      -2.527061      0.297476      0.087909
  N       1.246894     -1.414897     -0.542723
  C      -1.341357     -0.328504     -0.158468
  C      -1.184102     -1.580047     -0.745413
  C       1.122519     -0.162670      0.016678
  C       0.136919     -2.045289     -0.889803
  H      -0.260736      1.263163      0.578251
  H      -2.039816     -2.165658     -1.058072
  H       0.283673     -3.030008     -1.337034
  H      -3.356980     -0.088099     -0.333373
  H      -2.532956      1.272193      0.359811
19
Coordinates from ORCA-job formamide_cytosine_opt_freq E -564.565189058323
  O      -1.511176      3.004695      0.906450
  N      -0.771473      4.127278      2.749016
  C      -1.193872      4.050374      1.469161
  H      -0.433340      4.988853      3.148520
  H      -0.631322      3.276918      3.280393
  H      -1.245055      5.030929      0.966589
  O       2.037627      0.555352      0.401162
  N      -0.210860      0.336327      0.176506
  N      -2.536016      0.286926      0.074304
  N       1.243483     -1.414245     -0.534700
  C      -1.343543     -0.327214     -0.173233
  C      -1.185797     -1.584219     -0.746979
  C       1.115810     -0.161722      0.025473
  C       0.136348     -2.047650     -0.886524
  H      -0.266602      1.273706      0.564726
  H      -2.042278     -2.172432     -1.052355
  H       0.291436     -3.032549     -1.330531
  H      -3.358753     -0.097278     -0.362496
  H      -2.547415      1.267342      0.333636
19
Coordinates from ORCA-job formamide_cytosine_opt_freq E -564.565315493745
  O      -1.532330      2.997837      0.916532
  N      -0.754415      4.111409      2.750514
  C      -1.207562      4.040226      1.480734
  H      -0.412108      4.977695      3.136422
  H      -0.579255      3.259280      3.267973
  H      -1.278034      5.024466      0.986811
  O       2.031813      0.553610      0.424634
  N      -0.213656      0.359075      0.149822
  N      -2.539900      0.287904      0.063582
  N       1.241161     -1.409873     -0.521527
  C      -1.343660     -0.315475     -0.184735
  C      -1.183976     -1.581805     -0.738950
  C       1.110489     -0.155734      0.032094
  C       0.137376     -2.047519     -0.873380
  H      -0.267388      1.294706      0.543054
  H      -2.039458     -2.176881     -1.033762
  H       0.295207     -3.035742     -1.308634
  H      -3.357714     -0.095902     -0.383150
  H      -2.559389      1.274116      0.301085
19
Coordinates from ORCA-job formamide_cytosine_opt_freq E -564.565358855928
  O      -1.492560      2.985011      0.952181
  N      -0.753648      4.155901      2.766617
  C      -1.206498      4.047930      1.500007
  H      -0.432571      5.040738      3.139586
  H      -0.524435      3.311659      3.279751
  H      -1.319882      5.018701      0.987824
  O       2.030398      0.527511      0.445916
  N      -0.214774      0.349105      0.152999
  N      -2.547234      0.273245      0.053507
  N       1.238221     -1.420648     -0.525789
  C      -1.344774     -0.322570     -0.193698
  C      -1.184477     -1.587202     -0.754062
  C       1.107896     -0.172924      0.038203
  C       0.135917     -2.055531     -0.888208
  H      -0.270037      1.283863      0.549695
  H      -2.037386     -2.182782     -1.055518
  H       0.291771     -3.040573     -1.331039
  H      -3.362230     -0.108580     -0.400396
  H      -2.566498      1.258535      0.291543
19
Coordinates from ORCA-job formamide_cytosine_opt_freq E -564.565411457108
  O      -1.513606      2.987667      0.944749
  N      -0.751159      4.139249      2.761141
  C      -1.215178      4.045273      1.497168
  H      -0.418460      5.017971      3.131913
  H      -0.535157      3.291960      3.272075
  H      -1.326631      5.018675      0.990163
  O       2.033250      0.529889      0.443988
  N      -0.212219      0.354865      0.150636
  N      -2.540806      0.281630      0.054504
  N       1.238974     -1.419555     -0.522219
  C      -1.342033     -0.316425     -0.193167
  C      -1.183301     -1.583619     -0.749065
  C       1.109885     -0.170807      0.038157
  C       0.136038     -2.054486     -0.882162
  H      -0.266344      1.291240      0.544220
  H      -2.036146     -2.180417     -1.048393
  H       0.287665     -3.041442     -1.322089
  H      -3.359688     -0.097500     -0.394550
  H      -2.557882      1.267223      0.292049
19
Coordinates from ORCA-job formamide_cytosine_opt_freq E -564.565433861390
  O      -1.516655      2.984010      0.945078
  N      -0.748470      4.133909      2.759962
  C      -1.219418      4.041813      1.498099
  H      -0.412804      5.012038      3.128592
  H      -0.531409      3.286920      3.270254
  H      -1.339468      5.015161      0.993519
  O       2.033955      0.533259      0.440095
  N      -0.211674      0.355821      0.150802
  N      -2.539241      0.287101      0.052270
  N       1.239379     -1.419923     -0.519034
  C      -1.341556     -0.313785     -0.193826
  C      -1.183205     -1.582247     -0.747154
  C       1.111010     -0.169920      0.037751
  C       0.135705     -2.054424     -0.877621
  H      -0.265236      1.292776      0.542081
  H      -2.035896     -2.179125     -1.046679
  H       0.285060     -3.043068     -1.314534
  H      -3.357948     -0.091282     -0.397587
  H      -2.554928      1.272360      0.287051
19
Coordinates from ORCA-job formamide_cytosine_opt_freq E -564.565484906423
  O      -1.514666      2.973742      0.957170
  N      -0.742174      4.136209      2.761743
  C      -1.231163      4.037207      1.507054
  H      -0.407533      5.017858      3.120422
  H      -0.505564      3.292797      3.268522
  H      -1.383531      5.007139      1.005476
  O       2.035945      0.532035      0.436911
  N      -0.209831      0.353164      0.151488
  N      -2.535737      0.295666      0.042743
  N       1.239460     -1.425745     -0.513407
  C      -1.340096     -0.311657     -0.198828
  C      -1.184168     -1.582363     -0.747665
  C       1.113614     -0.173782      0.038093
  C       0.133971     -2.057927     -0.871624
  H      -0.263283      1.291539      0.539928
  H      -2.036919     -2.177679     -1.049846
  H       0.278971     -3.049356     -1.303838
  H      -3.354731     -0.078542     -0.409995
  H      -2.545365      1.281087      0.274772
19
Coordinates from ORCA-job formamide_cytosine_opt_freq E -564.565552184533
  O      -1.511182      2.958575      0.977799
  N      -0.730921      4.142419      2.765534
  C      -1.246746      4.029491      1.522578
  H      -0.403624      5.032363      3.111129
  H      -0.458818      3.305583      3.265689
  H      -1.442617      4.994321      1.026554
  O       2.037578      0.530306      0.433441
  N      -0.208405      0.350432      0.150764
  N      -2.533575      0.304755      0.026822
  N       1.238454     -1.433327     -0.505062
  C      -1.338869     -0.309487     -0.206871
  C      -1.186129     -1.583712     -0.747845
  C       1.115595     -0.177917      0.038724
  C       0.131337     -2.063447     -0.862921
  H      -0.262338      1.289792      0.537278
  H      -2.039399     -2.176525     -1.053111
  H       0.273756     -3.058376     -1.288127
  H      -3.350335     -0.065800     -0.433011
  H      -2.536562      1.291945      0.249752
19
Coordinates from ORCA-job formamide_cytosine_opt_freq E -564.565634518316
  O      -1.505582      2.939942      1.009941
  N      -0.715962      4.157277      2.771819
  C      -1.268132      4.020664      1.547062
  H      -0.405340      5.060467      3.100029
  H      -0.388601      3.332468      3.259998
  H      -1.521761      4.976870      1.060148
  O       2.040511      0.522856      0.430614
  N      -0.206013      0.344995      0.149156
  N      -2.530603      0.314738      0.002674
  N       1.236005     -1.445510     -0.495386
  C      -1.337126     -0.308990     -0.218603
  C      -1.189255     -1.587722     -0.749231
  C       1.117286     -0.185396      0.039629
  C       0.127389     -2.073168     -0.853679
  H      -0.262003      1.284960      0.535369
  H      -2.043815     -2.176249     -1.058780
  H       0.268712     -3.071753     -1.270827
  H      -3.344733     -0.050318     -0.466293
  H      -2.523779      1.305260      0.215478
19
Coordinates from ORCA-job formamide_cytosine_opt_freq E -564.565693331888
  O      -1.504236      2.926604      1.036258
  N      -0.703179      4.170263      2.775793
  C      -1.285449      4.013641      1.567642
  H      -0.411079      5.084665      3.092969
  H      -0.329426      3.357710      3.252071
  H      -1.580748      4.963127      1.090171
  O       2.043271      0.514213      0.429682
  N      -0.203892      0.341125      0.147192
  N      -2.527561      0.321771     -0.017746
  N       1.232924     -1.455431     -0.488243
  C      -1.335369     -0.309198     -0.227732
  C      -1.191851     -1.591386     -0.750142
  C       1.117217     -0.191324      0.040791
  C       0.123993     -2.081879     -0.847442
  H      -0.262570      1.280769      0.534932
  H      -2.048177     -2.175750     -1.062617
  H       0.266547     -3.082608     -1.258994
  H      -3.339671     -0.039923     -0.492905
  H      -2.513544      1.315001      0.187436
