24
Coordinates from ORCA-job methylurea_cytosine_opt_freq E -659.201194812877
  O          -1.43122729737087      2.51493042398349      1.47720867955377
  N          -1.00440313287724      4.07193279322607      3.08876828166293
  N           0.39646778516867      3.85318522621651      1.21986549225853
  C          -0.70174286415295      3.43154847435695      1.90337259024264
  H          -0.28380717589410      4.60177227142817      3.55963813656069
  H          -1.56322876017775      3.51217948039417      3.71960308359508
  H           0.68549193641497      3.23537844344672      0.46543094920848
  C           1.38273963069691      4.80730622172525      1.71045326817032
  H           0.92909439223564      5.79065546064862      1.87648203126902
  H           1.86835488564174      4.46658037840874      2.63617042312466
  H           2.15514382844726      4.91415581446939      0.94756865909608
  O           1.67648225117797      1.01068409621567     -0.43994693427358
  N          -0.44911225147677      0.36113961354820     -0.04477604556125
  N          -2.69849050179448      0.01044847746098      0.33581548381883
  N           1.02279354894769     -1.07283283061307     -1.23887081259835
  C          -1.53284324613864     -0.43739365435923     -0.20235953126445
  C          -1.33310226798184     -1.63483619141760     -0.88845154325311
  C           0.83048820077148      0.12080366604021     -0.59012012852619
  C          -0.02727029274510     -1.87458988849362     -1.35639036836274
  H          -0.52658028869472      1.24677494259126      0.45938179580722
  H          -2.13729024105729     -2.34094267087413     -1.05331407880632
  H           0.16144077405265     -2.81153532382836     -1.88255593929417
  H          -3.56210563773388     -0.46243951084212      0.12711318799665
  H          -2.72286027545933      0.96014928626760      0.68749431957522
