24
Coordinates from ORCA-job methylurea_cytosine_opt_freq E -659.076387832737
  O      -2.475240      3.933079      1.501588
  N      -0.919863      2.237594      1.501588
  N      -0.228213      4.427779      1.501588
  C      -1.303033      3.562794      1.501188
  H       0.057782      1.966755      1.501288
  H      -1.606944      1.491130      1.501588
  H      -0.362016      5.433330      1.501688
  C       1.156880      3.935419      1.501443
  H       1.499334      3.813725      2.529069
  H       1.201084      2.975149      0.987608
  H       1.797262      4.652301      0.987545
  O       2.213400      1.118800      0.000100
  N      -0.059500      0.981600      0.000100
  N      -2.442200      0.921400      0.000100
  N       1.293500     -0.974400      0.000000
  C      -1.240600      0.267600     -0.000100
  C      -1.164300     -1.072600     -0.000200
  C       1.208800      0.405600     -0.000300
  C       0.190800     -1.647800      0.000300
  H      -0.133100      1.994600      0.000300
  H      -2.022300     -1.731700     -0.000300
  H       0.235100     -2.748700      0.000500
  H      -3.308900      0.398400      0.000300
  H      -2.453300      1.933200      0.000600
24
Coordinates from ORCA-job methylurea_cytosine_opt_freq E -659.100371844258
  O      -2.483279      3.954730      1.518786
  N      -0.931922      2.263935      1.542212
  N      -0.232192      4.452537      1.513674
  C      -1.305906      3.589472      1.534202
  H       0.043814      1.978753      1.548989
  H      -1.618049      1.510470      1.529692
  H      -0.391699      5.449178      1.500962
  C       1.164482      3.985038      1.503023
  H       1.529707      3.875394      2.529205
  H       1.227550      3.015202      0.993397
  H       1.789020      4.705243      0.972627
  O       2.219081      1.080253      0.002431
  N      -0.048438      0.950009     -0.012036
  N      -2.436541      0.921817     -0.011420
  N       1.288056     -1.024034     -0.013259
  C      -1.235261      0.246709     -0.015030
  C      -1.158938     -1.115261     -0.019382
  C       1.220539      0.359832     -0.011038
  C       0.171089     -1.691490     -0.018428
  H      -0.119223      1.981422      0.000296
  H      -2.022874     -1.766770     -0.022741
  H       0.215836     -2.785974     -0.022624
  H      -3.300024      0.401893     -0.025664
  H      -2.450395      1.936697     -0.000291
24
Coordinates from ORCA-job methylurea_cytosine_opt_freq E -659.118167613640
  O      -2.485374      3.976776      1.534608
  N      -0.942921      2.287630      1.584359
  N      -0.232916      4.470438      1.522419
  C      -1.305284      3.613558      1.564674
  H       0.022827      1.988818      1.598572
  H      -1.626025      1.532597      1.559516
  H      -0.422128      5.460656      1.495986
  C       1.169471      4.026386      1.502065
  H       1.559427      3.931162      2.522988
  H       1.250839      3.048704      1.001272
  H       1.777124      4.747102      0.952202
  O       2.218821      1.050993      0.010455
  N      -0.042829      0.920322     -0.020070
  N      -2.423612      0.919609     -0.022121
  N       1.283328     -1.062927     -0.026147
  C      -1.230446      0.229078     -0.027667
  C      -1.154630     -1.148807     -0.037580
  C       1.230962      0.318730     -0.017186
  C       0.149698     -1.722305     -0.037882
  H      -0.107497      1.954222      0.005637
  H      -2.027722     -1.788892     -0.045632
  H       0.201104     -2.812747     -0.048403
  H      -3.286180      0.400075     -0.051676
  H      -2.441601      1.933878     -0.002808
24
Coordinates from ORCA-job methylurea_cytosine_opt_freq E -659.136896852949
  O      -2.482573      4.012402      1.555842
  N      -0.955875      2.318190      1.647510
  N      -0.231518      4.497688      1.532896
  C      -1.302835      3.646636      1.604826
  H      -0.001229      2.001773      1.674571
  H      -1.636292      1.565139      1.608882
  H      -0.457149      5.480472      1.487654
  C       1.174905      4.084035      1.500370
  H       1.595588      4.013004      2.511585
  H       1.283460      3.100320      1.014718
  H       1.756695      4.806075      0.924328
  O       2.219506      1.005136      0.024622
  N      -0.039249      0.875755     -0.029971
  N      -2.406260      0.907053     -0.038296
  N       1.278836     -1.112535     -0.045611
  C      -1.227827      0.202306     -0.045571
  C      -1.158326     -1.186060     -0.064368
  C       1.242353      0.261006     -0.023155
  C       0.127311     -1.760348     -0.067466
  H      -0.090001      1.903316      0.012617
  H      -2.045579     -1.807135     -0.080233
  H       0.190367     -2.849314     -0.088710
  H      -3.269634      0.389338     -0.090411
  H      -2.430246      1.920801     -0.009047
24
Coordinates from ORCA-job methylurea_cytosine_opt_freq E -659.154215085950
  O      -2.473396      4.059320      1.583095
  N      -0.962606      2.358825      1.731841
  N      -0.228818      4.541214      1.545521
  C      -1.296010      3.689430      1.647250
  H      -0.016966      2.024922      1.779198
  H      -1.645603      1.613301      1.683182
  H      -0.494387      5.513844      1.481115
  C       1.182133      4.169362      1.502712
  H       1.634203      4.133583      2.502105
  H       1.328026      3.183969      1.035126
  H       1.728252      4.896705      0.898088
  O       2.221497      0.933852      0.044835
  N      -0.037189      0.812924     -0.043523
  N      -2.389065      0.878231     -0.061715
  N       1.269649     -1.180454     -0.075841
  C      -1.229034      0.159840     -0.070693
  C      -1.173803     -1.233722     -0.101191
  C       1.250895      0.183527     -0.029023
  C       0.103605     -1.815675     -0.110811
  H      -0.062436      1.827182      0.017172
  H      -2.077178     -1.830937     -0.127554
  H       0.177306     -2.903642     -0.148162
  H      -3.256128      0.368881     -0.140678
  H      -2.418512      1.890576     -0.024468
24
Coordinates from ORCA-job methylurea_cytosine_opt_freq E -659.164785818304
  O      -2.463560      4.091699      1.599924
  N      -0.954163      2.396828      1.807840
  N      -0.229203      4.587323      1.554587
  C      -1.286700      3.725119      1.676030
  H      -0.011102      2.055625      1.875160
  H      -1.645824      1.662172      1.756618
  H      -0.524086      5.550738      1.474803
  C       1.187396      4.256278      1.510376
  H       1.655940      4.253911      2.502957
  H       1.365096      3.272911      1.055657
  H       1.703849      4.990443      0.887008
  O       2.224504      0.857064      0.065394
  N      -0.034976      0.753809     -0.057095
  N      -2.377874      0.845107     -0.080774
  N       1.254827     -1.247974     -0.107758
  C      -1.231093      0.114662     -0.094443
  C      -1.191679     -1.279164     -0.137284
  C       1.252463      0.112119     -0.035607
  C       0.082032     -1.872235     -0.154674
  H      -0.033131      1.760788      0.019071
  H      -2.105492     -1.859404     -0.172527
  H       0.154575     -2.959474     -0.208177
  H      -3.252040      0.351003     -0.178836
  H      -2.405326      1.855708     -0.040672
24
Coordinates from ORCA-job methylurea_cytosine_opt_freq E -659.172007183155
  O      -2.455022      4.107815      1.600030
  N      -0.932733      2.436368      1.881655
  N      -0.233138      4.635915      1.558615
  C      -1.275361      3.756735      1.696318
  H       0.010805      2.097312      1.968881
  H      -1.637664      1.715472      1.833056
  H      -0.550515      5.590184      1.459569
  C       1.190931      4.344739      1.523215
  H       1.661639      4.373753      2.514620
  H       1.395912      3.363740      1.079279
  H       1.685639      5.084989      0.888648
  O       2.226618      0.774732      0.082819
  N      -0.033034      0.696530     -0.069809
  N      -2.370663      0.810483     -0.093065
  N       1.236455     -1.316649     -0.143142
  C      -1.233453      0.067055     -0.116142
  C      -1.208889     -1.324948     -0.174486
  C       1.247884      0.043338     -0.042280
  C       0.060906     -1.930162     -0.201747
  H      -0.003602      1.701998      0.021780
  H      -2.128679     -1.894760     -0.218059
  H       0.122601     -3.016849     -0.274158
  H      -3.254309      0.337035     -0.204798
  H      -2.387892      1.820233     -0.053216
24
Coordinates from ORCA-job methylurea_cytosine_opt_freq E -659.176833355362
  O      -2.447213      4.108759      1.583416
  N      -0.901511      2.478605      1.951518
  N      -0.238838      4.684377      1.556878
  C      -1.261946      3.785522      1.708045
  H       0.044453      2.149678      2.056857
  H      -1.621768      1.773073      1.911261
  H      -0.572860      5.629472      1.431938
  C       1.192924      4.428279      1.541255
  H       1.652122      4.482230      2.537144
  H       1.420858      3.448889      1.106605
  H       1.675815      5.173756      0.903554
  O       2.225042      0.694931      0.096856
  N      -0.033634      0.643526     -0.083113
  N      -2.367385      0.775922     -0.097146
  N       1.217982     -1.380998     -0.179009
  C      -1.237753      0.020191     -0.135592
  C      -1.224662     -1.369176     -0.212793
  C       1.237954     -0.019361     -0.053093
  C       0.041614     -1.984964     -0.249388
  H       0.020897      1.648221      0.023625
  H      -2.146634     -1.934631     -0.263624
  H       0.087983     -3.070972     -0.340058
  H      -3.260647      0.324133     -0.217917
  H      -2.368363      1.785593     -0.059639
24
Coordinates from ORCA-job methylurea_cytosine_opt_freq E -659.179799209246
  O      -2.437436      4.102794      1.549053
  N      -0.866690      2.524874      2.013175
  N      -0.243050      4.731929      1.548625
  C      -1.246644      3.814546      1.709134
  H       0.082403      2.210796      2.134098
  H      -1.601237      1.833776      1.987827
  H      -0.588562      5.667126      1.388383
  C       1.194507      4.503232      1.567205
  H       1.628600      4.573427      2.573267
  H       1.442750      3.524701      1.142303
  H       1.677335      5.253054      0.934972
  O       2.219633      0.625611      0.097326
  N      -0.038218      0.594696     -0.095115
  N      -2.368450      0.740075     -0.091673
  N       1.202036     -1.437432     -0.217296
  C      -1.245417     -0.024945     -0.150466
  C      -1.239039     -1.411698     -0.248344
  C       1.224829     -0.075002     -0.064938
  C       0.024996     -2.034183     -0.296714
  H       0.036083      1.597917      0.024791
  H      -2.160709     -1.976974     -0.304721
  H       0.057693     -3.118876     -0.406965
  H      -3.269394      0.305940     -0.217045
  H      -2.351587      1.749671     -0.059300
24
Coordinates from ORCA-job methylurea_cytosine_opt_freq E -659.181528550867
  O      -2.423057      4.095327      1.503650
  N      -0.831780      2.571506      2.061381
  N      -0.242912      4.776226      1.535985
  C      -1.229021      3.842688      1.700789
  H       0.120947      2.273468      2.192694
  H      -1.576794      1.891551      2.057310
  H      -0.596076      5.699974      1.333233
  C       1.197402      4.568676      1.601317
  H       1.595738      4.645872      2.621473
  H       1.465762      3.591718      1.185696
  H       1.689424      5.323806      0.983340
  O       2.208699      0.572062      0.092895
  N      -0.047917      0.551943     -0.110881
  N      -2.375140      0.702234     -0.078504
  N       1.188881     -1.483177     -0.253228
  C      -1.256956     -0.066873     -0.163679
  C      -1.252229     -1.451281     -0.281918
  C       1.210787     -0.120109     -0.087600
  C       0.011141     -2.075879     -0.339563
  H       0.038518      1.553387      0.020932
  H      -2.172364     -2.018863     -0.339757
  H       0.036045     -3.159545     -0.461951
  H      -3.281062      0.278723     -0.202980
  H      -2.343603      1.711622     -0.053053
24
Coordinates from ORCA-job methylurea_cytosine_opt_freq E -659.182661419927
  O      -2.403654      4.092989      1.441516
  N      -0.801805      2.621658      2.097748
  N      -0.237042      4.818630      1.516431
  C      -1.210294      3.873036      1.680788
  H       0.153942      2.338742      2.237862
  H      -1.553159      1.949297      2.121382
  H      -0.592532      5.728090      1.261208
  C       1.202034      4.628162      1.646302
  H       1.550848      4.708351      2.684181
  H       1.494517      3.652548      1.243895
  H       1.712528      5.388485      1.050865
  O       2.196596      0.532004      0.062945
  N      -0.061331      0.511098     -0.122492
  N      -2.386470      0.660583     -0.056043
  N       1.177933     -1.521134     -0.296301
  C      -1.271086     -0.108523     -0.169722
  C      -1.264158     -1.491173     -0.307624
  C       1.196524     -0.160531     -0.106373
  C      -0.000500     -2.113196     -0.382350
  H       0.030887      1.511489      0.017726
  H      -2.182329     -2.062012     -0.364797
  H       0.022723     -3.194691     -0.522827
  H      -3.294800      0.241167     -0.175770
  H      -2.344940      1.669986     -0.040968
24
Coordinates from ORCA-job methylurea_cytosine_opt_freq E -659.183543772331
  O      -2.377390      4.090401      1.372075
  N      -0.771081      2.669206      2.121766
  N      -0.224960      4.856673      1.492890
  C      -1.187687      3.900166      1.652933
  H       0.188282      2.400241      2.265973
  H      -1.523692      2.000754      2.180044
  H      -0.579133      5.748429      1.180265
  C       1.208012      4.685666      1.699713
  H       1.495684      4.764932      2.756165
  H       1.532364      3.714140      1.311916
  H       1.739502      5.455065      1.136038
  O       2.178597      0.501898      0.039150
  N      -0.079615      0.475319     -0.142678
  N      -2.402763      0.615605     -0.027619
  N       1.166765     -1.551923     -0.335579
  C      -1.288172     -0.148342     -0.177384
  C      -1.276357     -1.529133     -0.334851
  C       1.181833     -0.191579     -0.146234
  C      -0.011496     -2.146017     -0.421099
  H       0.011374      1.474717      0.006516
  H      -2.192412     -2.104015     -0.386112
  H       0.015358     -3.226971     -0.565527
  H      -3.311635      0.194553     -0.137504
  H      -2.356945      1.625271     -0.023276
24
Coordinates from ORCA-job methylurea_cytosine_opt_freq E -659.184375220588
  O      -2.343708      4.090735      1.283634
  N      -0.746374      2.716182      2.135660
  N      -0.205326      4.889168      1.460587
  C      -1.162622      3.925299      1.612826
  H       0.215014      2.457959      2.286346
  H      -1.495492      2.048997      2.234495
  H      -0.551390      5.758367      1.082603
  C       1.213759      4.744001      1.763390
  H       1.423380      4.825719      2.837833
  H       1.582687      3.778425      1.400212
  H       1.768024      5.524498      1.239034
  O       2.162962      0.478850     -0.016069
  N      -0.099003      0.439938     -0.154771
  N      -2.420737      0.568786      0.009740
  N       1.154824     -1.578271     -0.385753
  C      -1.305600     -0.187940     -0.175270
  C      -1.288637     -1.567262     -0.351620
  C       1.167408     -0.221966     -0.178079
  C      -0.023055     -2.176652     -0.461336
  H      -0.014600      1.439166     -0.000278
  H      -2.203298     -2.145060     -0.396021
  H       0.010383     -3.255222     -0.621057
  H      -3.328336      0.142195     -0.089038
  H      -2.375831      1.579142      0.000512
24
Coordinates from ORCA-job methylurea_cytosine_opt_freq E -659.185174026034
  O      -2.303140      4.085588      1.186929
  N      -0.723666      2.753456      2.139395
  N      -0.179086      4.906898      1.421044
  C      -1.134431      3.939546      1.565090
  H       0.238981      2.502264      2.298003
  H      -1.463241      2.084661      2.283847
  H      -0.511220      5.750339      0.977842
  C       1.215786      4.796486      1.829022
  H       1.335895      4.883121      2.916570
  H       1.642204      3.841428      1.498495
  H       1.787782      5.592747      1.349772
  O       2.147251      0.464643     -0.073442
  N      -0.118419      0.413374     -0.167004
  N      -2.438502      0.526779      0.051650
  N       1.141510     -1.595516     -0.434619
  C      -1.321733     -0.220077     -0.169565
  C      -1.300774     -1.597860     -0.363235
  C       1.154149     -0.241753     -0.221149
  C      -0.034944     -2.199649     -0.496742
  H      -0.047354      1.412568     -0.006948
  H      -2.214918     -2.177340     -0.397076
  H       0.006543     -3.276709     -0.664349
  H      -3.343499      0.092013     -0.035753
  H      -2.400742      1.538048      0.029802
24
Coordinates from ORCA-job methylurea_cytosine_opt_freq E -659.185915246948
  O      -2.257535      4.064840      1.086406
  N      -0.703140      2.775874      2.139786
  N      -0.148061      4.905393      1.374391
  C      -1.104057      3.936889      1.514052
  H       0.258587      2.528895      2.312790
  H      -1.430171      2.104930      2.330119
  H      -0.463639      5.721008      0.870988
  C       1.213251      4.844572      1.889022
  H       1.239662      4.940775      2.981951
  H       1.708265      3.907639      1.601846
  H       1.791499      5.661523      1.453988
  O       2.134200      0.456624     -0.134433
  N      -0.134832      0.395415     -0.171560
  N      -2.451885      0.495833      0.093115
  N       1.125958     -1.604716     -0.483047
  C      -1.334395     -0.242686     -0.158123
  C      -1.313444     -1.618777     -0.366699
  C       1.141695     -0.253163     -0.261585
  C      -0.048472     -2.214507     -0.527782
  H      -0.080631      1.393752     -0.005392
  H      -2.228237     -2.197870     -0.389856
  H      -0.001704     -3.289772     -0.704963
  H      -3.354358      0.054571      0.011192
  H      -2.424122      1.508016      0.061376
24
Coordinates from ORCA-job methylurea_cytosine_opt_freq E -659.186618334601
  O      -2.208604      4.017265      0.993466
  N      -0.679194      2.780728      2.144321
  N      -0.116804      4.885772      1.325929
  C      -1.070894      3.913562      1.467440
  H       0.279786      2.538639      2.338930
  H      -1.395246      2.110201      2.374835
  H      -0.421191      5.673799      0.773896
  C       1.205694      4.893483      1.936642
  H       1.145352      5.001042      3.027129
  H       1.775866      3.985681      1.699083
  H       1.771502      5.737450      1.537794
  O       2.124867      0.446526     -0.185291
  N      -0.146142      0.383548     -0.168345
  N      -2.458318      0.480242      0.126858
  N       1.107102     -1.611204     -0.526742
  C      -1.343359     -0.255954     -0.145245
  C      -1.328579     -1.629977     -0.366310
  C       1.129546     -0.260921     -0.295212
  C      -0.066059     -2.223405     -0.555174
  H      -0.107087      1.379751      0.006515
  H      -2.245296     -2.206267     -0.381199
  H      -0.020470     -3.296986     -0.742476
  H      -3.360440      0.038812      0.040576
  H      -2.437599      1.493269      0.090161
24
Coordinates from ORCA-job methylurea_cytosine_opt_freq E -659.187368822259
  O      -2.171468      3.948791      0.937700
  N      -0.655704      2.763555      2.156596
  N      -0.098185      4.851342      1.287526
  C      -1.043818      3.872467      1.440927
  H       0.299797      2.526946      2.375764
  H      -1.368002      2.095932      2.408058
  H      -0.407097      5.620918      0.712288
  C       1.194232      4.928036      1.954509
  H       1.081820      5.044939      3.039901
  H       1.824759      4.052896      1.753455
  H       1.732042      5.797572      1.571374
  O       2.124718      0.434897     -0.207475
  N      -0.146948      0.381903     -0.155960
  N      -2.455270      0.489301      0.141366
  N       1.090670     -1.613535     -0.551908
  C      -1.345554     -0.253481     -0.134898
  C      -1.342270     -1.625665     -0.362898
  C       1.122612     -0.263608     -0.308869
  C      -0.083356     -2.222435     -0.571051
  H      -0.115590      1.375938      0.028186
  H      -2.262134     -2.196767     -0.375952
  H      -0.046494     -3.294742     -0.767479
  H      -3.360029      0.056464      0.039010
  H      -2.434296      1.503390      0.107412
24
Coordinates from ORCA-job methylurea_cytosine_opt_freq E -659.188563990696
  O      -2.136320      3.828939      0.904864
  N      -0.619768      2.722149      2.186936
  N      -0.093162      4.794019      1.247455
  C      -1.014117      3.799861      1.428332
  H       0.330280      2.497318      2.441004
  H      -1.337858      2.061915      2.444109
  H      -0.428315      5.546210      0.663824
  C       1.173494      4.958318      1.945655
  H       1.032707      5.083795      3.027000
  H       1.864891      4.127055      1.769724
  H       1.660498      5.857619      1.562406
  O       2.134921      0.413794     -0.199245
  N      -0.136665      0.388599     -0.130108
  N      -2.440136      0.528291      0.141173
  N       1.071871     -1.614837     -0.564251
  C      -1.342271     -0.233704     -0.125896
  C      -1.359872     -1.603195     -0.360772
  C       1.119351     -0.265071     -0.302655
  C      -0.106995     -2.211288     -0.582790
  H      -0.103784      1.380290      0.067287
  H      -2.285329     -2.164584     -0.380479
  H      -0.089929     -3.281979     -0.790864
  H      -3.351009      0.117798      0.004984
  H      -2.408052      1.543742      0.119889
24
Coordinates from ORCA-job methylurea_cytosine_opt_freq E -659.189799012634
  O      -2.095334      3.677018      0.871886
  N      -0.573029      2.681266      2.227473
  N      -0.094306      4.728650      1.204778
  C      -0.980650      3.714664      1.416943
  H       0.370969      2.478898      2.518173
  H      -1.301237      2.031686      2.486179
  H      -0.458101      5.456286      0.607103
  C       1.144277      4.981769      1.928013
  H       0.980373      5.110247      3.005942
  H       1.891362      4.195812      1.770301
  H       1.574497      5.908528      1.542268
  O       2.146995      0.391094     -0.173969
  N      -0.123729      0.398316     -0.099681
  N      -2.423163      0.578439      0.143532
  N       1.053470     -1.614162     -0.570897
  C      -1.340479     -0.205855     -0.118012
  C      -1.379387     -1.571692     -0.365590
  C       1.117430     -0.266524     -0.285845
  C      -0.133289     -2.193122     -0.596809
  H      -0.081580      1.387498      0.112692
  H      -2.310629     -2.122514     -0.397181
  H      -0.137417     -3.261085     -0.819905
  H      -3.339744      0.194607     -0.029085
  H      -2.372869      1.595232      0.139270
24
Coordinates from ORCA-job methylurea_cytosine_opt_freq E -659.190712191957
  O      -2.043324      3.531557      0.823098
  N      -0.528946      2.653269      2.265498
  N      -0.086944      4.664546      1.158106
  C      -0.943307      3.634204      1.395770
  H       0.409736      2.481715      2.590083
  H      -1.262891      2.012271      2.532609
  H      -0.464317      5.359821      0.530700
  C       1.113930      4.995828      1.915362
  H       0.914967      5.119206      2.987684
  H       1.909224      4.252312      1.779363
  H       1.495452      5.945390      1.534475
  O       2.152131      0.381504     -0.149145
  N      -0.117451      0.409662     -0.071655
  N      -2.415951      0.619716      0.159347
  N       1.038609     -1.605985     -0.577914
  C      -1.344954     -0.178118     -0.109100
  C      -1.396257     -1.540181     -0.375623
  C       1.114084     -0.262983     -0.269869
  C      -0.155634     -2.169984     -0.614333
  H      -0.065754      1.395614      0.154876
  H      -2.331308     -2.083561     -0.419204
  H      -0.172308     -3.234442     -0.853768
  H      -3.334955      0.255179     -0.041583
  H      -2.349399      1.638516      0.172803
24
Coordinates from ORCA-job methylurea_cytosine_opt_freq E -659.191514045807
  O      -1.996512      3.462291      0.771796
  N      -0.503875      2.660630      2.290428
  N      -0.066008      4.633295      1.122873
  C      -0.911537      3.597093      1.369330
  H       0.432970      2.522305      2.633640
  H      -1.235576      2.023234      2.574294
  H      -0.429199      5.298052      0.455215
  C       1.098239      5.004734      1.919792
  H       0.857432      5.113639      2.984502
  H       1.918900      4.282921      1.805831
  H       1.459393      5.967951      1.554687
  O       2.141950      0.388022     -0.135808
  N      -0.126937      0.412464     -0.059645
  N      -2.427109      0.621243      0.185413
  N       1.031507     -1.596890     -0.588231
  C      -1.358769     -0.170776     -0.104632
  C      -1.405404     -1.530152     -0.392898
  C       1.105764     -0.259372     -0.264537
  C      -0.165909     -2.157087     -0.635565
  H      -0.067891      1.395696      0.177015
  H      -2.339734     -2.074378     -0.444243
  H      -0.179052     -3.218535     -0.888380
  H      -3.344462      0.256542     -0.023628
  H      -2.353748      1.642134      0.210331
24
Coordinates from ORCA-job methylurea_cytosine_opt_freq E -659.192414748390
  O      -1.962126      3.452811      0.727799
  N      -0.506960      2.684633      2.314444
  N      -0.042497      4.621845      1.098148
  C      -0.891802      3.590545      1.350234
  H       0.432446      2.586912      2.664810
  H      -1.229549      2.043341      2.609172
  H      -0.371355      5.254905      0.383594
  C       1.103259      4.992339      1.917470
  H       0.832525      5.087008      2.975265
  H       1.912185      4.258590      1.813906
  H       1.477511      5.955921      1.568334
  O       2.117147      0.424827     -0.103988
  N      -0.150955      0.420489     -0.053039
  N      -2.459152      0.594323      0.218561
  N       1.038318     -1.571962     -0.587761
  C      -1.381354     -0.169302     -0.103314
  C      -1.402219     -1.525579     -0.422527
  C       1.095133     -0.242510     -0.250597
  C      -0.158160     -2.138352     -0.658380
  H      -0.081371      1.401620      0.190231
  H      -2.330700     -2.079263     -0.486299
  H      -0.149715     -3.196393     -0.925281
  H      -3.370383      0.210604      0.016075
  H      -2.385795      1.617702      0.260724
24
Coordinates from ORCA-job methylurea_cytosine_opt_freq E -659.192757346259
  O      -1.897561      3.391260      0.656395
  N      -0.498770      2.705968      2.331050
  N      -0.001977      4.593954      1.067505
  C      -0.860184      3.565495      1.322162
  H       0.437436      2.638910      2.701518
  H      -1.205391      2.063728      2.655036
  H      -0.294726      5.187041      0.304971
  C       1.097590      5.009748      1.932210
  H       0.765510      5.095612      2.973111
  H       1.941543      4.308410      1.875962
  H       1.453252      5.986408      1.600389
  O       2.096345      0.441655     -0.107167
  N      -0.171945      0.421158     -0.044321
  N      -2.476934      0.572487      0.251559
  N       1.027666     -1.556839     -0.608438
  C      -1.395423     -0.174705     -0.093229
  C      -1.410881     -1.525120     -0.439198
  C       1.079953     -0.232415     -0.257042
  C      -0.165851     -2.129715     -0.685481
  H      -0.105521      1.397784      0.207885
  H      -2.338922     -2.079380     -0.507969
  H      -0.149449     -3.183649     -0.967340
  H      -3.385032      0.182456      0.048220
  H      -2.406296      1.594807      0.299793
24
Coordinates from ORCA-job methylurea_cytosine_opt_freq E -659.193010742319
  O      -1.904595      3.387284      0.673638
  N      -0.514750      2.703971      2.350179
  N      -0.011775      4.590813      1.072919
  C      -0.866189      3.562649      1.336799
  H       0.419419      2.648747      2.727546
  H      -1.218719      2.054166      2.661879
  H      -0.304192      5.173239      0.302128
  C       1.111824      4.995797      1.907366
  H       0.801377      5.094455      2.953909
  H       1.938497      4.281359      1.839817
  H       1.478007      5.964163      1.562580
  O       2.089540      0.456617     -0.067701
  N      -0.178954      0.431113     -0.035491
  N      -2.484837      0.567018      0.248905
  N       1.034271     -1.541908     -0.595607
  C      -1.396725     -0.169343     -0.094186
  C      -1.403951     -1.516706     -0.455132
  C       1.077883     -0.220201     -0.235374
  C      -0.156148     -2.117552     -0.691959
  H      -0.105761      1.407840      0.217973
  H      -2.330376     -2.072119     -0.536154
  H      -0.134652     -3.169123     -0.981561
  H      -3.391232      0.174853      0.043670
  H      -2.413530      1.587923      0.311439
24
Coordinates from ORCA-job methylurea_cytosine_opt_freq E -659.193274955317
  O      -1.909900      3.389316      0.687478
  N      -0.529170      2.716966      2.371744
  N      -0.017518      4.593928      1.082621
  C      -0.870189      3.566452      1.348762
  H       0.398701      2.673976      2.761620
  H      -1.228430      2.058224      2.676174
  H      -0.302557      5.162170      0.298589
  C       1.127274      4.991278      1.890447
  H       0.836753      5.107177      2.941526
  H       1.949211      4.270895      1.819127
  H       1.497274      5.953201      1.531659
  O       2.081742      0.462657     -0.036681
  N      -0.187733      0.433656     -0.028757
  N      -2.492958      0.550989      0.243801
  N       1.037080     -1.532955     -0.592997
  C      -1.398121     -0.175843     -0.096211
  C      -1.400070     -1.519623     -0.471686
  C       1.072964     -0.213908     -0.220107
  C      -0.148527     -2.114049     -0.705453
  H      -0.110665      1.410358      0.228319
  H      -2.324911     -2.076112     -0.561544
  H      -0.124349     -3.162456     -1.005883
  H      -3.398671      0.158834      0.037134
  H      -2.422797      1.569923      0.317900
24
Coordinates from ORCA-job methylurea_cytosine_opt_freq E -659.193556124735
  O      -1.906176      3.359019      0.699407
  N      -0.544664      2.728376      2.413329
  N      -0.025382      4.580249      1.088046
  C      -0.874514      3.556810      1.369536
  H       0.372315      2.705181      2.829670
  H      -1.237604      2.057561      2.705141
  H      -0.297964      5.118756      0.278762
  C       1.140211      4.978970      1.860180
  H       0.878671      5.119758      2.916126
  H       1.960387      4.257348      1.783816
  H       1.504499      5.934209      1.477910
  O       2.075019      0.473343      0.007845
  N      -0.195168      0.443265     -0.013709
  N      -2.502964      0.543218      0.235826
  N       1.041342     -1.513914     -0.591137
  C      -1.400434     -0.175072     -0.098148
  C      -1.396150     -1.513362     -0.491721
  C       1.068185     -0.200027     -0.197196
  C      -0.139003     -2.099252     -0.723903
  H      -0.113687      1.418264      0.251760
  H      -2.318689     -2.071119     -0.593896
  H      -0.112780     -3.142825     -1.041173
  H      -3.408432      0.156191      0.019408
  H      -2.432586      1.560106      0.331702
24
Coordinates from ORCA-job methylurea_cytosine_opt_freq E -659.193808831492
  O      -1.900975      3.342472      0.705504
  N      -0.556331      2.755390      2.450341
  N      -0.028294      4.577856      1.094492
  C      -0.877427      3.557069      1.384179
  H       0.349117      2.751365      2.890059
  H      -1.242036      2.074464      2.736615
  H      -0.281327      5.087350      0.260537
  C       1.151220      4.974744      1.845811
  H       0.911115      5.132621      2.904466
  H       1.972685      4.251423      1.765694
  H       1.510319      5.925865      1.447958
  O       2.067156      0.478134      0.028169
  N      -0.202927      0.442516     -0.007232
  N      -2.512888      0.528731      0.228018
  N       1.043892     -1.504594     -0.599532
  C      -1.405460     -0.183472     -0.102994
  C      -1.394284     -1.517957     -0.507258
  C       1.062587     -0.194960     -0.189797
  C      -0.132471     -2.094404     -0.741960
  H      -0.121660      1.415300      0.267524
  H      -2.314055     -2.078794     -0.615509
  H      -0.102609     -3.134336     -1.070900
  H      -3.417201      0.144343      0.003155
  H      -2.443716      1.543930      0.340240
24
Coordinates from ORCA-job methylurea_cytosine_opt_freq E -659.194125016254
  O      -1.889252      3.312219      0.712214
  N      -0.571105      2.791256      2.500607
  N      -0.031242      4.571671      1.098823
  C      -0.880554      3.554026      1.403944
  H       0.318616      2.814294      2.970697
  H      -1.246562      2.097596      2.781263
  H      -0.258939      5.040648      0.234352
  C       1.162430      4.966894      1.828268
  H       0.945637      5.140846      2.889060
  H       1.981638      4.239458      1.741240
  H       1.515823      5.913181      1.413424
  O       2.058648      0.487617      0.041468
  N      -0.210379      0.440733     -0.000367
  N      -2.524739      0.517121      0.217840
  N       1.048369     -1.493100     -0.611976
  C      -1.412706     -0.189669     -0.109611
  C      -1.391178     -1.520390     -0.523551
  C       1.057668     -0.188326     -0.186642
  C      -0.125005     -2.086646     -0.761290
  H      -0.133180      1.409605      0.287292
  H      -2.307244     -2.085727     -0.639261
  H      -0.088729     -3.123284     -1.100268
  H      -3.426126      0.135058     -0.022180
  H      -2.457456      1.529974      0.352234
24
Coordinates from ORCA-job methylurea_cytosine_opt_freq E -659.194457858816
  O      -1.877725      3.287652      0.724400
  N      -0.588683      2.837169      2.553713
  N      -0.035184      4.572929      1.104788
  C      -0.884752      3.557765      1.426883
  H       0.284326      2.890730      3.051582
  H      -1.251672      2.129926      2.830440
  H      -0.238253      5.000096      0.212981
  C       1.175112      4.959283      1.813508
  H       0.979225      5.144107      2.876060
  H       1.984277      4.220378      1.716443
  H       1.529641      5.899210      1.385074
  O       2.050607      0.497201      0.039418
  N      -0.216894      0.433362      0.002454
  N      -2.535159      0.504458      0.205892
  N       1.053674     -1.486756     -0.626861
  C      -1.419820     -0.197679     -0.117975
  C      -1.386920     -1.525658     -0.539166
  C       1.054385     -0.185358     -0.191832
  C      -0.118083     -2.083668     -0.778794
  H      -0.148055      1.397776      0.303849
  H      -2.299030     -2.096025     -0.662769
  H      -0.073645     -3.118234     -1.123141
  H      -3.431776      0.122124     -0.050970
  H      -2.471163      1.514267      0.361602
24
Coordinates from ORCA-job methylurea_cytosine_opt_freq E -659.194739185721
  O      -1.861062      3.258951      0.740047
  N      -0.606801      2.887553      2.609440
  N      -0.038784      4.576080      1.109371
  C      -0.885200      3.562171      1.451457
  H       0.248483      2.977003      3.133599
  H      -1.255358      2.166480      2.884191
  H      -0.221031      4.958859      0.193117
  C       1.187730      4.953355      1.797668
  H       1.005650      5.146039      2.860843
  H       1.982543      4.200730      1.692842
  H       1.547520      5.886160      1.358436
  O       2.043475      0.505013      0.032453
  N      -0.222825      0.423297      0.005799
  N      -2.543705      0.491396      0.194882
  N       1.057881     -1.483488     -0.640713
  C      -1.425268     -0.205736     -0.126031
  C      -1.383117     -1.530413     -0.557856
  C       1.052052     -0.184671     -0.198594
  C      -0.112905     -2.082843     -0.797407
  H      -0.164197      1.383108      0.321264
  H      -2.291742     -2.104314     -0.692574
  H      -0.060853     -3.115408     -1.146365
  H      -3.434841      0.108057     -0.079068
  H      -2.483211      1.497674      0.370781
24
Coordinates from ORCA-job methylurea_cytosine_opt_freq E -659.194958388791
  O      -1.839459      3.232617      0.756682
  N      -0.622762      2.941651      2.662242
  N      -0.041182      4.585398      1.114929
  C      -0.881383      3.571288      1.475615
  H       0.214794      3.068463      3.207638
  H      -1.256508      2.207836      2.937262
  H      -0.206469      4.925314      0.178517
  C       1.199665      4.954429      1.784986
  H       1.024743      5.154411      2.847781
  H       1.979795      4.188199      1.677431
  H       1.567317      5.879891      1.337317
  O       2.037543      0.504769      0.024092
  N      -0.228440      0.408806      0.009113
  N      -2.550105      0.473531      0.185588
  N       1.059157     -1.486215     -0.654690
  C      -1.428638     -0.218380     -0.134169
  C      -1.381773     -1.538861     -0.580054
  C       1.049553     -0.189696     -0.205829
  C      -0.110461     -2.087446     -0.818964
  H      -0.180053      1.364725      0.337720
  H      -2.287797     -2.114157     -0.727073
  H      -0.053269     -3.117387     -1.174399
  H      -3.436908      0.089503     -0.100973
  H      -2.492927      1.476366      0.376819
24
Coordinates from ORCA-job methylurea_cytosine_opt_freq E -659.195141261539
  O      -1.805222      3.197692      0.768392
  N      -0.632379      2.995878      2.710784
  N      -0.038863      4.594280      1.117443
  C      -0.868752      3.577600      1.495551
  H       0.186702      3.161890      3.274567
  H      -1.251765      2.251751      2.990041
  H      -0.187190      4.889955      0.163005
  C       1.207463      4.966890      1.777490
  H       1.029091      5.175421      2.837959
  H       1.980656      4.194223      1.676876
  H       1.579078      5.887311      1.323264
  O       2.032165      0.494664      0.018663
  N      -0.234338      0.390793      0.014177
  N      -2.555777      0.452100      0.179759
  N       1.055764     -1.493820     -0.670680
  C      -1.431619     -0.234976     -0.142178
  C      -1.384934     -1.549857     -0.605746
  C       1.045403     -0.200589     -0.211917
  C      -0.112516     -2.095442     -0.845419
  H      -0.194967      1.343355      0.355150
  H      -2.289627     -2.123902     -0.765175
  H      -0.053249     -3.121688     -1.210765
  H      -3.440320      0.069391     -0.115113
  H      -2.500373      1.452134      0.381453
24
Coordinates from ORCA-job methylurea_cytosine_opt_freq E -659.195328093981
  O      -1.756650      3.156302      0.777409
  N      -0.637408      3.054173      2.757641
  N      -0.031314      4.605077      1.119326
  C      -0.848048      3.583955      1.514127
  H       0.161073      3.261872      3.336803
  H      -1.242365      2.301131      3.044380
  H      -0.159770      4.852927      0.148171
  C       1.212567      4.993337      1.776445
  H       1.023579      5.214979      2.832374
  H       1.986430      4.220114      1.692582
  H       1.584238      5.909562      1.314215
  O       2.026102      0.473453      0.015261
  N      -0.241425      0.366602      0.020090
  N      -2.562109      0.424167      0.175867
  N       1.048009     -1.507493     -0.691737
  C      -1.435654     -0.258140     -0.151822
  C      -1.392444     -1.565928     -0.635674
  C       1.038775     -0.219220     -0.218519
  C      -0.118623     -2.108275     -0.878367
  H      -0.210613      1.316027      0.373150
  H      -2.296881     -2.136539     -0.807202
  H      -0.059327     -3.129492     -1.257521
  H      -3.446494      0.044620     -0.123120
  H      -2.507214      1.421845      0.383702
24
Coordinates from ORCA-job methylurea_cytosine_opt_freq E -659.195564759096
  O      -1.684145      3.095403      0.785509
  N      -0.637105      3.118236      2.807121
  N      -0.015087      4.610277      1.117748
  C      -0.814065      3.582889      1.532502
  H       0.135127      3.375479      3.402071
  H      -1.226456      2.357296      3.105523
  H      -0.116855      4.800332      0.130167
  C       1.213497      5.036364      1.780178
  H       1.003565      5.278937      2.827485
  H       1.999849      4.273473      1.727596
  H       1.576901      5.949209      1.305004
  O       2.017329      0.441429      0.017403
  N      -0.251373      0.335706      0.028847
  N      -2.570880      0.390241      0.174011
  N       1.035149     -1.525650     -0.719482
  C      -1.442722     -0.286983     -0.163828
  C      -1.405072     -1.585216     -0.672368
  C       1.028031     -0.245262     -0.224389
  C      -0.129725     -2.123620     -0.920749
  H      -0.228699      1.281559      0.394918
  H      -2.310403     -2.149643     -0.857405
  H      -0.071601     -3.137807     -1.318748
  H      -3.456758      0.016530     -0.127474
  H      -2.514068      1.385875      0.385943
24
Coordinates from ORCA-job methylurea_cytosine_opt_freq E -659.195876791902
  O      -1.592520      3.027356      0.793732
  N      -0.630462      3.179573      2.851698
  N       0.011527      4.611582      1.116514
  C      -0.768647      3.577475      1.550287
  H       0.113821      3.486296      3.456656
  H      -1.205435      2.412892      3.164079
  H      -0.060929      4.746534      0.117037
  C       1.209283      5.098486      1.792165
  H       0.968915      5.372648      2.825060
  H       2.019114      4.357878      1.787543
  H       1.557119      6.005743      1.294978
  O       2.006813      0.396513      0.022828
  N      -0.262988      0.296897      0.038236
  N      -2.581318      0.351842      0.173904
  N       1.017611     -1.550867     -0.752874
  C      -1.452770     -0.321248     -0.178377
  C      -1.422619     -1.608669     -0.711952
  C       1.013876     -0.280727     -0.230792
  C      -0.146127     -2.143623     -0.968510
  H      -0.247678      1.239623      0.415184
  H      -2.330482     -2.163980     -0.910013
  H      -0.090517     -3.149454     -1.388060
  H      -3.470986     -0.013731     -0.126083
  H      -2.520169      1.346016      0.384342
24
Coordinates from ORCA-job methylurea_cytosine_opt_freq E -659.196234734626
  O      -1.495095      2.950277      0.804531
  N      -0.618779      3.225471      2.889020
  N       0.047309      4.594810      1.112710
  C      -0.716919      3.557438      1.566388
  H       0.097967      3.578270      3.501819
  H      -1.182201      2.455101      3.214560
  H       0.005605      4.679091      0.106006
  C       1.198653      5.162061      1.803227
  H       0.920073      5.476393      2.814938
  H       2.040034      4.458568      1.858730
  H       1.523681      6.059440      1.273347
  O       1.993751      0.354896      0.036394
  N      -0.276319      0.261956      0.048830
  N      -2.593382      0.320964      0.175743
  N       1.000015     -1.571171     -0.783774
  C      -1.465812     -0.348576     -0.192013
  C      -1.440515     -1.625210     -0.748464
  C       0.997738     -0.312486     -0.233031
  C      -0.163593     -2.157268     -1.013049
  H      -0.265589      1.201877      0.433876
  H      -2.351345     -2.170638     -0.959345
  H      -0.109368     -3.154485     -1.453391
  H      -3.486560     -0.036098     -0.124034
  H      -2.524916      1.314374      0.384562
24
Coordinates from ORCA-job methylurea_cytosine_opt_freq E -659.196603489469
  O      -1.397579      2.880940      0.827350
  N      -0.606791      3.273702      2.927248
  N       0.090166      4.575505      1.114490
  C      -0.664007      3.540919      1.589189
  H       0.082129      3.670616      3.542503
  H      -1.158310      2.499054      3.264103
  H       0.082580      4.611520      0.104236
  C       1.185788      5.228371      1.816381
  H       0.863373      5.592978      2.797777
  H       2.055334      4.567661      1.942187
  H       1.493236      6.104816      1.242284
  O       1.978403      0.312701      0.043517
  N      -0.291092      0.222226      0.055600
  N      -2.606027      0.289474      0.176646
  N       0.982933     -1.594106     -0.818230
  C      -1.481651     -0.377336     -0.207266
  C      -1.458033     -1.643455     -0.784884
  C       0.980333     -0.346755     -0.240022
  C      -0.181742     -2.173174     -1.058160
  H      -0.285289      1.160077      0.448524
  H      -2.371363     -2.179680     -1.008825
  H      -0.127162     -3.161999     -1.517346
  H      -3.501719     -0.060416     -0.124219
  H      -2.529078      1.281416      0.384496
24
Coordinates from ORCA-job methylurea_cytosine_opt_freq E -659.196905758126
  O      -1.313504      2.814529      0.871784
  N      -0.603201      3.333333      2.973206
  N       0.130222      4.552137      1.118172
  C      -0.618379      3.526971      1.622180
  H       0.051620      3.779005      3.595499
  H      -1.137990      2.551514      3.320962
  H       0.160801      4.532186      0.107963
  C       1.178262      5.278989      1.819060
  H       0.813470      5.689242      2.766811
  H       2.066476      4.659638      2.008511
  H       1.475717      6.129995      1.202559
  O       1.962950      0.283039      0.041858
  N      -0.305764      0.185676      0.060029
  N      -2.619237      0.259830      0.174470
  N       0.970027     -1.610694     -0.851801
  C      -1.496830     -0.403739     -0.221308
  C      -1.471142     -1.658713     -0.821687
  C       0.964967     -0.373155     -0.250580
  C      -0.195295     -2.184815     -1.102203
  H      -0.306661      1.120006      0.464863
  H      -2.384623     -2.188767     -1.060501
  H      -0.138016     -3.165544     -1.578115
  H      -3.514252     -0.084708     -0.134681
  H      -2.535183      1.249101      0.390531
24
Coordinates from ORCA-job methylurea_cytosine_opt_freq E -659.196937928611
  O      -1.298737      2.806660      0.893818
  N      -0.594243      3.334532      2.991278
  N       0.171261      4.522600      1.124946
  C      -0.596012      3.516915      1.637733
  H       0.059636      3.785169      3.601618
  H      -1.126693      2.551641      3.338812
  H       0.206901      4.505507      0.115304
  C       1.167853      5.312466      1.829575
  H       0.758097      5.771704      2.735319
  H       2.064288      4.729661      2.082715
  H       1.474185      6.126015      1.167922
  O       1.955026      0.274864      0.024612
  N      -0.311688      0.164632      0.052981
  N      -2.626833      0.259384      0.174065
  N       0.966538     -1.624057     -0.866332
  C      -1.510142     -0.410921     -0.224937
  C      -1.475873     -1.664259     -0.829066
  C       0.958629     -0.385801     -0.264126
  C      -0.203387     -2.193905     -1.112335
  H      -0.317189      1.098253      0.454850
  H      -2.387901     -2.195319     -1.074415
  H      -0.143471     -3.174635     -1.587359
  H      -3.520566     -0.081980     -0.142898
  H      -2.535248      1.245931      0.393502
24
Coordinates from ORCA-job methylurea_cytosine_opt_freq E -659.197212862519
  O      -1.252709      2.778545      0.929500
  N      -0.596150      3.403043      3.016671
  N       0.179327      4.534690      1.126228
  C      -0.577671      3.531484      1.657585
  H       0.034142      3.887930      3.634365
  H      -1.114012      2.616982      3.377903
  H       0.243660      4.478882      0.119157
  C       1.170310      5.333372      1.833282
  H       0.742505      5.783944      2.734882
  H       2.066357      4.755729      2.098014
  H       1.475428      6.152801      1.178756
  O       1.949048      0.252727      0.008691
  N      -0.318746      0.139336      0.050472
  N      -2.629347      0.228714      0.170178
  N       0.956553     -1.641698     -0.886883
  C      -1.513275     -0.438536     -0.233571
  C      -1.484929     -1.683151     -0.856306
  C       0.951948     -0.406759     -0.277290
  C      -0.211890     -2.210384     -1.142165
  H      -0.326832      1.071349      0.466509
  H      -2.396263     -2.211561     -1.108912
  H      -0.153536     -3.186113     -1.627357
  H      -3.522105     -0.109874     -0.151773
  H      -2.537380      1.213603      0.399645
24
Coordinates from ORCA-job methylurea_cytosine_opt_freq E -659.197284139337
  O      -1.251654      2.767849      0.941648
  N      -0.600114      3.409900      3.025107
  N       0.182122      4.524979      1.123332
  C      -0.577605      3.528503      1.663536
  H       0.026465      3.900085      3.645506
  H      -1.114511      2.622593      3.389356
  H       0.246801      4.460803      0.116916
  C       1.173486      5.328719      1.825106
  H       0.739006      5.782418      2.722027
  H       2.068141      4.753710      2.098047
  H       1.480855      6.146078      1.169220
  O       1.948845      0.258972      0.007610
  N      -0.319517      0.142162      0.051411
  N      -2.632364      0.228079      0.168424
  N       0.957677     -1.636624     -0.885961
  C      -1.512888     -0.438591     -0.232032
  C      -1.483727     -1.680722     -0.860313
  C       0.952568     -0.401908     -0.276613
  C      -0.209155     -2.206026     -1.145059
  H      -0.328955      1.071764      0.468832
  H      -2.393343     -2.211014     -1.114515
  H      -0.151083     -3.180520     -1.632775
  H      -3.525024     -0.107429     -0.156955
  H      -2.541595      1.211278      0.405728
24
Coordinates from ORCA-job methylurea_cytosine_opt_freq E -659.197392304906
  O      -1.229104      2.750677      0.959539
  N      -0.589042      3.427840      3.034384
  N       0.206304      4.510790      1.124059
  C      -0.558635      3.525413      1.671000
  H       0.038504      3.924187      3.647356
  H      -1.100922      2.644118      3.408889
  H       0.274730      4.443984      0.118429
  C       1.164652      5.350726      1.831521
  H       0.692514      5.816670      2.703161
  H       2.060109      4.798646      2.148952
  H       1.478750      6.157383      1.166025
  O       1.946075      0.245535     -0.002523
  N      -0.323159      0.130338      0.045798
  N      -2.636007      0.220097      0.164863
  N       0.950949     -1.649096     -0.892671
  C      -1.516974     -0.450684     -0.234610
  C      -1.490511     -1.688417     -0.872357
  C       0.948785     -0.414288     -0.283701
  C      -0.215746     -2.215069     -1.156331
  H      -0.332001      1.058983      0.463742
  H      -2.398918     -2.219812     -1.127845
  H      -0.161946     -3.187794     -1.648016
  H      -3.530851     -0.105661     -0.164008
  H      -2.543124      1.200488      0.411925
24
Coordinates from ORCA-job methylurea_cytosine_opt_freq E -659.197504172261
  O      -1.231966      2.742874      0.990913
  N      -0.587770      3.442936      3.055808
  N       0.217954      4.492456      1.126738
  C      -0.553367      3.523644      1.689186
  H       0.041909      3.942978      3.661772
  H      -1.095625      2.657322      3.432116
  H       0.278819      4.418867      0.121396
  C       1.164608      5.352423      1.822370
  H       0.676824      5.847859      2.669298
  H       2.049138      4.806293      2.175739
  H       1.496330      6.135920      1.138498
  O       1.940873      0.248109     -0.000982
  N      -0.328210      0.129452      0.039517
  N      -2.640360      0.216191      0.156164
  N       0.952629     -1.647212     -0.896379
  C      -1.520487     -0.455232     -0.238934
  C      -1.488902     -1.689883     -0.882867
  C       0.945796     -0.413642     -0.285552
  C      -0.212021     -2.213145     -1.164946
  H      -0.335597      1.057044      0.459234
  H      -2.393725     -2.227011     -1.138714
  H      -0.158667     -3.184343     -1.659890
  H      -3.536172     -0.100311     -0.178493
  H      -2.547577      1.191465      0.425588
24
Coordinates from ORCA-job methylurea_cytosine_opt_freq E -659.197608131330
  O      -1.214793      2.722355      1.004115
  N      -0.573192      3.445939      3.063251
  N       0.240782      4.468555      1.128913
  C      -0.535829      3.508537      1.696306
  H       0.065500      3.944898      3.658621
  H      -1.082006      2.665491      3.447880
  H       0.298037      4.396577      0.123254
  C       1.151061      5.366262      1.824637
  H       0.631014      5.886380      2.637351
  H       2.030003      4.844783      2.229100
  H       1.497129      6.127707      1.123491
  O       1.936518      0.242830      0.001054
  N      -0.332542      0.129230      0.031774
  N      -2.644555      0.216885      0.148971
  N       0.949125     -1.649890     -0.900572
  C      -1.525871     -0.456756     -0.243701
  C      -1.492598     -1.691003     -0.888256
  C       0.941433     -0.417429     -0.288102
  C      -0.215538     -2.214227     -1.169927
  H      -0.336037      1.057304      0.451022
  H      -2.396776     -2.230730     -1.140882
  H      -0.164211     -3.185363     -1.665527
  H      -3.541808     -0.089960     -0.190804
  H      -2.550412      1.186680      0.435610
24
Coordinates from ORCA-job methylurea_cytosine_opt_freq E -659.197732171799
  O      -1.199950      2.705526      1.033731
  N      -0.569439      3.464896      3.084447
  N       0.251187      4.455774      1.135667
  C      -0.525921      3.502752      1.716898
  H       0.072574      3.968216      3.671209
  H      -1.073238      2.684890      3.476336
  H       0.306022      4.372167      0.130676
  C       1.146422      5.374986      1.819908
  H       0.613043      5.931411      2.599620
  H       2.010199      4.863021      2.266594
  H       1.516635      6.105106      1.098237
  O       1.931213      0.238374      0.003213
  N      -0.337294      0.127609      0.022822
  N      -2.649611      0.209756      0.136815
  N       0.948073     -1.649732     -0.912069
  C      -1.530324     -0.461321     -0.253569
  C      -1.493294     -1.695619     -0.897248
  C       0.936924     -0.420642     -0.293442
  C      -0.215627     -2.215406     -1.181352
  H      -0.339086      1.055579      0.446368
  H      -2.397173     -2.237314     -1.147066
  H      -0.162875     -3.185826     -1.678490
  H      -3.546667     -0.090068     -0.209580
  H      -2.557359      1.170921      0.447853
24
Coordinates from ORCA-job methylurea_cytosine_opt_freq E -659.197836085331
  O      -1.200579      2.696770      1.048393
  N      -0.566557      3.470505      3.095059
  N       0.247456      4.449192      1.136306
  C      -0.526117      3.496042      1.726797
  H       0.088243      3.968923      3.672749
  H      -1.068444      2.694201      3.496755
  H       0.296763      4.360772      0.131568
  C       1.142453      5.370673      1.815424
  H       0.605748      5.954888      2.572477
  H       1.989029      4.855316      2.289361
  H       1.539237      6.076407      1.083729
  O       1.929725      0.241718      0.007425
  N      -0.338591      0.137216      0.012351
  N      -2.651614      0.209524      0.125900
  N       0.949250     -1.643809     -0.915895
  C      -1.530222     -0.456767     -0.260910
  C      -1.491225     -1.695066     -0.896509
  C       0.936014     -0.415722     -0.296061
  C      -0.213958     -2.212892     -1.182517
  H      -0.337255      1.065255      0.438335
  H      -2.396594     -2.237325     -1.140079
  H      -0.158139     -3.184538     -1.676822
  H      -3.546567     -0.087919     -0.227532
  H      -2.563622      1.161691      0.461276
24
Coordinates from ORCA-job methylurea_cytosine_opt_freq E -659.197914390020
  O      -1.178338      2.676452      1.086085
  N      -0.569392      3.504158      3.119202
  N       0.253675      4.443314      1.146591
  C      -0.517001      3.495527      1.752120
  H       0.081916      4.014670      3.691955
  H      -1.060005      2.728015      3.535559
  H       0.318064      4.327189      0.145617
  C       1.139791      5.383611      1.812784
  H       0.592322      6.002537      2.533566
  H       1.971794      4.881268      2.324963
  H       1.561338      6.054443      1.062079
  O       1.926979      0.231879     -0.000180
  N      -0.341438      0.128643      0.003218
  N      -2.656815      0.195800      0.116467
  N       0.945871     -1.648143     -0.934059
  C      -1.532318     -0.464628     -0.272770
  C      -1.494040     -1.702658     -0.908730
  C       0.932655     -0.423025     -0.307486
  C      -0.217838     -2.218442     -1.200568
  H      -0.342930      1.054710      0.435367
  H      -2.401606     -2.241363     -1.152683
  H      -0.158187     -3.188279     -1.697683
  H      -3.548632     -0.100810     -0.245333
  H      -2.571434      1.140187      0.471499
24
Coordinates from ORCA-job methylurea_cytosine_opt_freq E -659.197973276512
  O      -1.197414      2.679809      1.090493
  N      -0.573262      3.503029      3.121969
  N       0.237332      4.445068      1.143513
  C      -0.530159      3.496885      1.752967
  H       0.093288      4.003545      3.687356
  H      -1.062338      2.730993      3.547858
  H       0.301187      4.325406      0.142921
  C       1.140566      5.369634      1.808993
  H       0.600414      6.002873      2.522648
  H       1.958555      4.852190      2.326921
  H       1.582491      6.026550      1.057675
  O       1.931278      0.240780     -0.003626
  N      -0.337745      0.141052     -0.004780
  N      -2.654096      0.199531      0.112701
  N       0.948714     -1.641537     -0.931295
  C      -1.526109     -0.455580     -0.275417
  C      -1.490564     -1.698598     -0.902584
  C       0.936690     -0.413860     -0.309779
  C      -0.215165     -2.214749     -1.195123
  H      -0.338880      1.066329      0.427099
  H      -2.399962     -2.236406     -1.141406
  H      -0.152699     -3.186443     -1.687877
  H      -3.542581     -0.101034     -0.253596
  H      -2.575109      1.139590      0.479947
24
Coordinates from ORCA-job methylurea_cytosine_opt_freq E -659.198006630558
  O      -1.196759      2.671622      1.107288
  N      -0.576088      3.515408      3.130768
  N       0.239909      4.436911      1.146795
  C      -0.529588      3.496116      1.761928
  H       0.089599      4.020438      3.693867
  H      -1.060471      2.743759      3.562611
  H       0.311777      4.305440      0.148259
  C       1.139784      5.370696      1.806157
  H       0.593743      6.014776      2.505289
  H       1.953332      4.860499      2.338598
  H       1.588916      6.014295      1.047687
  O       1.932046      0.240674     -0.009823
  N      -0.337254      0.138604     -0.006903
  N      -2.654504      0.197204      0.112642
  N       0.948401     -1.642344     -0.935246
  C      -1.525278     -0.456251     -0.278319
  C      -1.491356     -1.698336     -0.908221
  C       0.937285     -0.414332     -0.313913
  C      -0.215858     -2.214549     -1.200738
  H      -0.340726      1.062705      0.425995
  H      -2.400419     -2.235795     -1.148764
  H      -0.153123     -3.185521     -1.694791
  H      -3.541729     -0.104140     -0.255967
  H      -2.577206      1.137174      0.482381
24
Coordinates from ORCA-job methylurea_cytosine_opt_freq E -659.198043751470
  O      -1.204211      2.665055      1.122985
  N      -0.580821      3.523998      3.138776
  N       0.239754      4.425762      1.148752
  C      -0.533822      3.494419      1.769741
  H       0.086844      4.030816      3.698017
  H      -1.061594      2.752634      3.575160
  H       0.315366      4.285966      0.151556
  C       1.140173      5.365360      1.800738
  H       0.591866      6.020453      2.487611
  H       1.948219      4.858808      2.345403
  H       1.596371      5.995371      1.035306
  O       1.934155      0.245545     -0.015793
  N      -0.335207      0.139875     -0.007537
  N      -2.653084      0.198076      0.114432
  N       0.950017     -1.639923     -0.936309
  C      -1.523053     -0.453431     -0.279992
  C      -1.490601     -1.694605     -0.912584
  C       0.939574     -0.411013     -0.316657
  C      -0.214397     -2.210911     -1.203341
  H      -0.341265      1.063323      0.425543
  H      -2.398442     -2.233167     -1.154670
  H      -0.152416     -3.181855     -1.697669
  H      -3.539575     -0.105100     -0.254605
  H      -2.579416      1.139598      0.482718
24
Coordinates from ORCA-job methylurea_cytosine_opt_freq E -659.198065210831
  O      -1.213813      2.658361      1.139143
  N      -0.586547      3.532625      3.147249
  N       0.238600      4.412745      1.150157
  C      -0.539580      3.491045      1.778250
  H       0.084894      4.040584      3.701164
  H      -1.063991      2.761755      3.588150
  H       0.314316      4.266249      0.153961
  C       1.141244      5.356371      1.793881
  H       0.593032      6.025286      2.467433
  H       1.941767      4.851955      2.351956
  H       1.606754      5.970433      1.021303
  O       1.935738      0.253250     -0.020108
  N      -0.333385      0.143517     -0.007922
  N      -2.651480      0.199160      0.116269
  N       0.952660     -1.634740     -0.937442
  C      -1.520915     -0.449400     -0.281646
  C      -1.488649     -1.689605     -0.916590
  C       0.941886     -0.405388     -0.318908
  C      -0.211587     -2.205351     -1.205499
  H      -0.341641      1.066808      0.425591
  H      -2.395099     -2.229867     -1.159681
  H      -0.150167     -3.176461     -1.699723
  H      -3.537432     -0.106385     -0.252311
  H      -2.582174      1.142107      0.482905
24
Coordinates from ORCA-job methylurea_cytosine_opt_freq E -659.198105103154
  O      -1.228764      2.650308      1.160575
  N      -0.596873      3.545677      3.158744
  N       0.235810      4.394494      1.151492
  C      -0.549851      3.486230      1.790081
  H       0.081531      4.054471      3.703690
  H      -1.069866      2.775805      3.606303
  H       0.308545      4.239785      0.156379
  C       1.144724      5.339807      1.783677
  H       0.600173      6.030452      2.438200
  H       1.932556      4.836041      2.360480
  H       1.625904      5.929882      1.002240
  O       1.936881      0.267495     -0.025175
  N      -0.331650      0.150684     -0.007961
  N      -2.649765      0.199386      0.119527
  N       0.957366     -1.623993     -0.940092
  C      -1.518253     -0.443671     -0.283166
  C      -1.484402     -1.682345     -0.921190
  C       0.944743     -0.394771     -0.322013
  C      -0.206001     -2.195846     -1.208754
  H      -0.342804      1.074047      0.426373
  H      -2.388925     -2.225406     -1.164922
  H      -0.144396     -3.167068     -1.702898
  H      -3.535187     -0.110635     -0.246917
  H      -2.587065      1.144227      0.482909
24
Coordinates from ORCA-job methylurea_cytosine_opt_freq E -659.198148522164
  O      -1.243947      2.643844      1.181070
  N      -0.609962      3.561976      3.169632
  N       0.233096      4.376709      1.152346
  C      -0.561297      3.482301      1.801718
  H       0.075751      4.071873      3.704820
  H      -1.078336      2.793590      3.624831
  H       0.301783      4.212974      0.158474
  C       1.150846      5.320020      1.773717
  H       0.612698      6.034057      2.408485
  H       1.924222      4.815520      2.369260
  H       1.650163      5.885066      0.985216
  O       1.935929      0.285426     -0.030194
  N      -0.331793      0.158775     -0.007660
  N      -2.649726      0.196766      0.123625
  N       0.962768     -1.609551     -0.945153
  C      -1.516700     -0.439538     -0.283449
  C      -1.478726     -1.676282     -0.924846
  C       0.946392     -0.381448     -0.325799
  C      -0.198809     -2.185163     -1.213448
  H      -0.345724      1.082078      0.428015
  H      -2.381334     -2.222553     -1.168567
  H      -0.135132     -3.155744     -1.708624
  H      -3.534674     -0.118836     -0.239431
  H      -2.593057      1.143195      0.483543
24
Coordinates from ORCA-job methylurea_cytosine_opt_freq E -659.198190035085
  O      -1.259642      2.639610      1.199454
  N      -0.626612      3.582033      3.178750
  N       0.231103      4.359742      1.152580
  C      -0.574094      3.480251      1.812012
  H       0.066370      4.092986      3.703881
  H      -1.090385      2.816082      3.643135
  H       0.296682      4.185000      0.160415
  C       1.160350      5.296878      1.764870
  H       0.631175      6.034891      2.379823
  H       1.917901      4.790091      2.378442
  H       1.679782      5.836762      0.971641
  O       1.932292      0.308435     -0.036822
  N      -0.334321      0.167467     -0.006943
  N      -2.651923      0.190699      0.129260
  N       0.968781     -1.590609     -0.953337
  C      -1.516529     -0.437739     -0.281750
  C      -1.471583     -1.672206     -0.926755
  C       0.946368     -0.364514     -0.331034
  C      -0.189817     -2.173175     -1.219773
  H      -0.351152      1.090203      0.430620
  H      -2.372151     -2.222390     -1.169602
  H      -0.121562     -3.142213     -1.717238
  H      -3.536364     -0.131923     -0.228944
  H      -2.600237      1.138693      0.484896
24
Coordinates from ORCA-job methylurea_cytosine_opt_freq E -659.198232921168
  O      -1.275936      2.637955      1.214706
  N      -0.646209      3.604760      3.184984
  N       0.230152      4.344064      1.152012
  C      -0.587451      3.480500      1.819798
  H       0.052964      4.116506      3.701306
  H      -1.105884      2.842423      3.659807
  H       0.295825      4.155441      0.162369
  C       1.172973      5.271245      1.757705
  H       0.654599      6.031441      2.354836
  H       1.914649      4.760251      2.386742
  H       1.712343      5.787782      0.962058
  O       1.925769      0.336857     -0.046082
  N      -0.339262      0.176345     -0.005986
  N      -2.656379      0.181852      0.136278
  N       0.975130     -1.567469     -0.964263
  C      -1.517776     -0.438305     -0.277926
  C      -1.463371     -1.670505     -0.926201
  C       0.944404     -0.343845     -0.337952
  C      -0.179319     -2.160134     -1.226893
  H      -0.359095      1.097699      0.434122
  H      -2.361520     -2.225647     -1.167275
  H      -0.104010     -3.126765     -1.727806
  H      -3.540132     -0.148813     -0.216174
  H      -2.608031      1.131416      0.487415
24
Coordinates from ORCA-job methylurea_cytosine_opt_freq E -659.198277452221
  O      -1.291615      2.635882      1.231222
  N      -0.668915      3.632550      3.189940
  N       0.231533      4.326699      1.151697
  C      -0.600429      3.482322      1.827246
  H       0.034922      4.145571      3.698562
  H      -1.124635      2.875559      3.677567
  H       0.302980      4.118168      0.166350
  C       1.187940      5.243745      1.751497
  H       0.680372      6.026087      2.329046
  H       1.912348      4.728874      2.397143
  H       1.747788      5.735188      0.953966
  O       1.916246      0.371244     -0.059990
  N      -0.346373      0.185109     -0.005512
  N      -2.662716      0.170369      0.144246
  N       0.981583     -1.540232     -0.978725
  C      -1.520207     -0.440945     -0.273123
  C      -1.454544     -1.670844     -0.924505
  C       0.940411     -0.319276     -0.347745
  C      -0.167608     -2.145647     -1.235607
  H      -0.369723      1.104107      0.438291
  H      -2.349400     -2.232552     -1.163082
  H      -0.083353     -3.109271     -1.740660
  H      -3.545533     -0.168905     -0.202049
  H      -2.616639      1.121253      0.491806
24
Coordinates from ORCA-job methylurea_cytosine_opt_freq E -659.198323093495
  O      -1.306582      2.631030      1.251557
  N      -0.694211      3.664748      3.194577
  N       0.235147      4.305011      1.152068
  C      -0.612516      3.483845      1.835748
  H       0.012791      4.179746      3.696686
  H      -1.146458      2.915128      3.697164
  H       0.318047      4.070162      0.173387
  C       1.204066      5.214220      1.744907
  H       0.706371      6.019063      2.299480
  H       1.909496      4.697395      2.409759
  H       1.784232      5.676924      0.944711
  O       1.904561      0.411505     -0.078923
  N      -0.354483      0.194509     -0.005801
  N      -2.669656      0.157998      0.152803
  N       0.988176     -1.509524     -0.995588
  C      -1.522968     -0.443835     -0.268422
  C      -1.445413     -1.671497     -0.922695
  C       0.935152     -0.290939     -0.360334
  C      -0.155032     -2.129150     -1.245106
  H      -0.382024      1.110393      0.442986
  H      -2.335692     -2.241713     -1.158382
  H      -0.061263     -3.089746     -1.754142
  H      -3.551353     -0.190020     -0.187287
  H      -2.625954      1.109804      0.498429
24
Coordinates from ORCA-job methylurea_cytosine_opt_freq E -659.198375894763
  O      -1.321001      2.620601      1.279957
  N      -0.724292      3.704823      3.199799
  N       0.242241      4.274068      1.154072
  C      -0.624284      3.483352      1.847630
  H      -0.014714      4.222865      3.695027
  H      -1.173934      2.965984      3.720976
  H       0.342555      4.004256      0.185881
  C       1.221849      5.180009      1.736710
  H       0.732822      6.010922      2.259224
  H       1.903936      4.666247      2.428014
  H       1.824604      5.604949      0.932451
  O       1.890037      0.460835     -0.105104
  N      -0.363557      0.205955     -0.007225
  N      -2.676689      0.144135      0.162997
  N       0.995320     -1.473109     -1.016159
  C      -1.525717     -0.446144     -0.264274
  C      -1.435387     -1.671127     -0.922004
  C       0.928602     -0.256675     -0.377202
  C      -0.140907     -2.108778     -1.256510
  H      -0.396450      1.118091      0.448260
  H      -2.319198     -2.252609     -1.154323
  H      -0.037280     -3.066555     -1.768984
  H      -3.557183     -0.213492     -0.169832
  H      -2.636938      1.096451      0.508201
24
Coordinates from ORCA-job methylurea_cytosine_opt_freq E -659.198451089874
  O      -1.336556      2.604019      1.317491
  N      -0.763293      3.756666      3.203472
  N       0.254393      4.229289      1.158105
  C      -0.637082      3.479937      1.862969
  H      -0.051243      4.278488      3.691008
  H      -1.213247      3.034635      3.748155
  H       0.379194      3.913341      0.206596
  C       1.243813      5.135814      1.726697
  H       0.763248      5.997285      2.205089
  H       1.896265      4.631815      2.453238
  H       1.872875      5.511040      0.918199
  O       1.870417      0.526180     -0.142945
  N      -0.374334      0.221716     -0.009894
  N      -2.683753      0.127148      0.177669
  N       1.003593     -1.426116     -1.042779
  C      -1.528383     -0.447541     -0.259635
  C      -1.423047     -1.668920     -0.921901
  C       0.919929     -0.211767     -0.400894
  C      -0.123708     -2.081658     -1.270610
  H      -0.414309      1.129312      0.454627
  H      -2.297482     -2.265997     -1.149620
  H      -0.009120     -3.036745     -1.785937
  H      -3.563013     -0.242729     -0.144583
  H      -2.650724      1.079844      0.523062
24
Coordinates from ORCA-job methylurea_cytosine_opt_freq E -659.198616698395
  O      -1.353730      2.581360      1.352943
  N      -0.814211      3.816180      3.194858
  N       0.277226      4.164306      1.163031
  C      -0.650321      3.470300      1.873911
  H      -0.099167      4.339243      3.676688
  H      -1.275595      3.122142      3.766694
  H       0.438280      3.790863      0.237755
  C       1.272501      5.076261      1.717836
  H       0.796682      5.966741      2.143956
  H       1.892046      4.590074      2.484911
  H       1.928456      5.396189      0.907437
  O       1.840393      0.619491     -0.198454
  N      -0.388730      0.246285     -0.013221
  N      -2.691055      0.107113      0.203104
  N       1.012746     -1.360818     -1.076331
  C      -1.531674     -0.446303     -0.250538
  C      -1.407172     -1.663179     -0.917788
  C       0.906500     -0.148067     -0.433836
  C      -0.102214     -2.043073     -1.284864
  H      -0.437423      1.148234      0.462703
  H      -2.267358     -2.283090     -1.137835
  H       0.025479     -2.996088     -1.801252
  H      -3.569214     -0.280015     -0.101186
  H      -2.668013      1.060909      0.547061
24
Coordinates from ORCA-job methylurea_cytosine_opt_freq E -659.198771491789
  O      -1.368365      2.568187      1.382237
  N      -0.847327      3.858287      3.190351
  N       0.290934      4.118297      1.168514
  C      -0.660979      3.464623      1.884990
  H      -0.131407      4.383980      3.667674
  H      -1.315206      3.181349      3.777693
  H       0.471247      3.704339      0.263952
  C       1.290865      5.034259      1.709686
  H       0.821262      5.945677      2.096270
  H       1.887266      4.564174      2.504150
  H       1.965535      5.313873      0.899893
  O       1.820393      0.679246     -0.232351
  N      -0.397270      0.263170     -0.016300
  N      -2.694305      0.093985      0.219608
  N       1.018683     -1.317696     -1.098530
  C      -1.532544     -0.444593     -0.245201
  C      -1.395479     -1.657846     -0.916700
  C       0.898198     -0.106957     -0.454780
  C      -0.087949     -2.016962     -1.295856
  H      -0.451480      1.162076      0.466176
  H      -2.246839     -2.291497     -1.131731
  H       0.048629     -2.967912     -1.813803
  H      -3.571133     -0.304875     -0.072941
  H      -2.678297      1.047872      0.564578
24
Coordinates from ORCA-job methylurea_cytosine_opt_freq E -659.198927527505
  O      -1.374099      2.557832      1.396831
  N      -0.867836      3.885185      3.181793
  N       0.304395      4.085856      1.173195
  C      -0.665345      3.459088      1.888959
  H      -0.150051      4.411192      3.656419
  H      -1.344137      3.222714      3.779189
  H       0.500916      3.645552      0.284264
  C       1.301771      5.008651      1.708406
  H       0.831676      5.931054      2.067024
  H       1.883845      4.553492      2.522451
  H       1.989254      5.264643      0.901659
  O       1.805168      0.719465     -0.258212
  N      -0.403718      0.274536     -0.019362
  N      -2.696489      0.084307      0.232478
  N       1.020768     -1.289036     -1.114705
  C      -1.533634     -0.443971     -0.240855
  C      -1.388659     -1.654989     -0.914745
  C       0.891132     -0.079551     -0.470751
  C      -0.079999     -2.000154     -1.303172
  H      -0.461074      1.171506      0.466840
  H      -2.234265     -2.297810     -1.125131
  H       0.062488     -2.949841     -1.821836
  H      -3.572561     -0.322750     -0.050809
  H      -2.685114      1.038085      0.577651
24
Coordinates from ORCA-job methylurea_cytosine_opt_freq E -659.199077748808
  O      -1.378848      2.552396      1.406794
  N      -0.883477      3.905217      3.175377
  N       0.314068      4.063566      1.176588
  C      -0.668862      3.456496      1.891716
  H      -0.165733      4.432009      3.649223
  H      -1.366628      3.252564      3.778163
  H       0.521648      3.603939      0.299718
  C       1.310751      4.989460      1.707546
  H       0.841386      5.919176      2.047597
  H       1.883087      4.544146      2.533723
  H       2.006993      5.230047      0.903552
  O       1.793801      0.748429     -0.277303
  N      -0.408269      0.282607     -0.021610
  N      -2.697795      0.076438      0.242322
  N       1.022015     -1.268234     -1.126926
  C      -1.534162     -0.443883     -0.237531
  C      -1.383452     -1.653210     -0.913320
  C       0.885906     -0.059912     -0.482684
  C      -0.074298     -1.988121     -1.308896
  H      -0.468084      1.178196      0.467394
  H      -2.224950     -2.302571     -1.120053
  H       0.072611     -2.936722     -1.828264
  H      -3.573159     -0.336876     -0.033914
  H      -2.690119      1.029900      0.588371
24
Coordinates from ORCA-job methylurea_cytosine_opt_freq E -659.199242524559
  O      -1.383398      2.546574      1.416296
  N      -0.898302      3.924829      3.167773
  N       0.324032      4.040659      1.180610
  C      -0.672024      3.453397      1.894011
  H      -0.180172      4.452039      3.640699
  H      -1.388943      3.282547      3.775865
  H       0.542842      3.561997      0.316445
  C       1.319176      4.970728      1.707371
  H       0.850080      5.907365      2.028083
  H       1.881745      4.536347      2.546096
  H       2.024197      5.195819      0.906543
  O       1.782075      0.777251     -0.296649
  N      -0.412867      0.290675     -0.024148
  N      -2.698872      0.068800      0.252325
  N       1.022921     -1.247506     -1.139312
  C      -1.534643     -0.443724     -0.234142
  C      -1.378382     -1.651461     -0.911604
  C       0.880383     -0.040295     -0.494862
  C      -0.068880     -1.976150     -1.314519
  H      -0.474945      1.184939      0.467300
  H      -2.215796     -2.307301     -1.114426
  H       0.082409     -2.923719     -1.834481
  H      -3.573465     -0.350776     -0.016731
  H      -2.694739      1.022020      0.599040
24
Coordinates from ORCA-job methylurea_cytosine_opt_freq E -659.199422510180
  O      -1.388749      2.541096      1.425789
  N      -0.913155      3.944423      3.159629
  N       0.333765      4.017190      1.184986
  C      -0.675590      3.450360      1.896201
  H      -0.194883      4.472038      3.631862
  H      -1.411408      3.312579      3.772631
  H       0.563346      3.519296      0.334211
  C       1.327831      4.951197      1.707087
  H       0.859543      5.894635      2.008259
  H       1.880607      4.528036      2.558046
  H       2.041426      5.160497      0.909568
  O       1.769791      0.806882     -0.316152
  N      -0.417479      0.299032     -0.026689
  N      -2.699754      0.061321      0.262494
  N       1.023784     -1.226090     -1.151856
  C      -1.534964     -0.443417     -0.230545
  C      -1.373011     -1.649608     -0.909536
  C       0.874638     -0.020066     -0.507137
  C      -0.063270     -1.963743     -1.320032
  H      -0.481832      1.191974      0.467078
  H      -2.206184     -2.312068     -1.108255
  H       0.092544     -2.910223     -1.840605
  H      -3.573443     -0.364633      0.000731
  H      -2.699120      1.014346      0.609816
24
Coordinates from ORCA-job methylurea_cytosine_opt_freq E -659.199618137309
  O      -1.394607      2.535830      1.435125
  N      -0.927649      3.963868      3.150810
  N       0.343285      3.993269      1.189721
  C      -0.679331      3.447252      1.898183
  H      -0.209170      4.491769      3.622404
  H      -1.433732      3.342653      3.768447
  H       0.583221      3.476287      0.352878
  C       1.336366      4.931194      1.706940
  H       0.869161      5.881198      1.988303
  H       1.879258      4.519623      2.569975
  H       2.058434      5.124529      0.913023
  O       1.757072      0.836909     -0.335745
  N      -0.422087      0.307614     -0.029338
  N      -2.700384      0.054054      0.272761
  N       1.024510     -1.204304     -1.164480
  C      -1.535135     -0.442956     -0.226823
  C      -1.367469     -1.647671     -0.907163
  C       0.868688      0.000498     -0.519523
  C      -0.057621     -1.951101     -1.325395
  H      -0.488627      1.199278      0.466556
  H      -2.196298     -2.316819     -1.101584
  H       0.102788     -2.896490     -1.846517
  H      -3.573066     -0.378334      0.018406
  H      -2.703173      1.006905      0.620618
24
Coordinates from ORCA-job methylurea_cytosine_opt_freq E -659.199830052375
  O      -1.401085      2.530838      1.444338
  N      -0.941847      3.983173      3.141395
  N       0.352493      3.968899      1.194765
  C      -0.683330      3.444103      1.899992
  H      -0.223155      4.511276      3.612429
  H      -1.455906      3.372738      3.763382
  H       0.602246      3.432966      0.372346
  C       1.344846      4.910588      1.706819
  H       0.879124      5.866959      1.968159
  H       1.877785      4.510916      2.581696
  H       2.075254      5.087733      0.916757
  O       1.743935      0.867349     -0.355244
  N      -0.426680      0.316464     -0.032035
  N      -2.700762      0.046994      0.283123
  N       1.025127     -1.182063     -1.177164
  C      -1.535133     -0.442314     -0.222964
  C      -1.361704     -1.645614     -0.904484
  C       0.862553      0.021439     -0.531937
  C      -0.051886     -1.938143     -1.330627
  H      -0.495337      1.206893      0.465816
  H      -2.186062     -2.321525     -1.094436
  H       0.113196     -2.882404     -1.852294
  H      -3.572324     -0.391892      0.036290
  H      -2.706914      0.999685      0.631461
24
Coordinates from ORCA-job methylurea_cytosine_opt_freq E -659.200058931608
  O      -1.408150      2.526101      1.453374
  N      -0.955685      4.002290      3.131375
  N       0.361376      3.944067      1.200094
  C      -0.687566      3.440887      1.901598
  H      -0.236747      4.530513      3.601906
  H      -1.477856      3.402786      3.757435
  H       0.620400      3.389364      0.392540
  C       1.353224      4.889389      1.706704
  H       0.889374      5.851915      1.947802
  H       1.876161      4.501948      2.593191
  H       2.091833      5.050126      0.920763
  O       1.730369      0.898153     -0.374418
  N      -0.431282      0.325583     -0.034750
  N      -2.700893      0.040138      0.293581
  N       1.025630     -1.159350     -1.189867
  C      -1.534965     -0.441482     -0.218971
  C      -1.355716     -1.643415     -0.901520
  C       0.856223      0.042734     -0.544276
  C      -0.046071     -1.924836     -1.335752
  H      -0.501965      1.214830      0.464877
  H      -2.175469     -2.326161     -1.086863
  H       0.123765     -2.867908     -1.858000
  H      -3.571226     -0.405298      0.054400
  H      -2.710332      0.992683      0.642356
24
Coordinates from ORCA-job methylurea_cytosine_opt_freq E -659.200303088037
  O      -1.415756      2.521678      1.462136
  N      -0.969094      4.021173      3.120757
  N       0.369931      3.918898      1.205661
  C      -0.691993      3.437638      1.902948
  H      -0.249889      4.549428      3.590853
  H      -1.499514      3.432738      3.750595
  H       0.637669      3.345721      0.413311
  C       1.361486      4.867681      1.706636
  H       0.899868      5.836092      1.927409
  H       1.874421      4.492711      2.604427
  H       2.108123      5.011917      0.925083
  O       1.716358      0.929221     -0.393137
  N      -0.435910      0.334914     -0.037463
  N      -2.700786      0.033458      0.304119
  N       1.025993     -1.136226     -1.202565
  C      -1.534646     -0.440504     -0.214852
  C      -1.349527     -1.641114     -0.898290
  C       0.849682      0.064300     -0.556482
  C      -0.040199     -1.911226     -1.340775
  H      -0.508510      1.223041      0.463771
  H      -2.164537     -2.330753     -1.078913
  H       0.134466     -2.853039     -1.863659
  H      -3.569789     -0.418559      0.072719
  H      -2.713415      0.985865      0.653292
24
Coordinates from ORCA-job methylurea_cytosine_opt_freq E -659.200556656982
  O      -1.423638      2.517778      1.470267
  N      -0.981892      4.039762      3.109503
  N       0.378202      3.893974      1.211365
  C      -0.696406      3.434523      1.903883
  H      -0.262378      4.567868      3.579246
  H      -1.520792      3.462587      3.742780
  H       0.654083      3.303084      0.434195
  C       1.369582      4.845920      1.706934
  H       0.910414      5.819775      1.907786
  H       1.872540      4.483263      2.615567
  H       2.124050      4.974036      0.930100
  O       1.702053      0.959980     -0.411401
  N      -0.440550      0.344194     -0.040195
  N      -2.700436      0.026814      0.314708
  N       1.026088     -1.113108     -1.215311
  C      -1.534207     -0.439594     -0.210653
  C      -1.343277     -1.638938     -0.894838
  C       0.842928      0.085729     -0.568591
  C      -0.034448     -1.897636     -1.345763
  H      -0.514922      1.231288      0.462502
  H      -2.153455     -2.335461     -1.070636
  H       0.145045     -2.838121     -1.869353
  H      -3.568046     -0.431755      0.091258
  H      -2.716107      0.979093      0.664231
24
Coordinates from ORCA-job methylurea_cytosine_opt_freq E -659.200813179838
  O      -1.431420      2.514591      1.477386
  N      -0.993926      4.057990      3.097608
  N       0.386249      3.870009      1.217089
  C      -0.700568      3.431743      1.904251
  H      -0.274059      4.585674      3.567120
  H      -1.541646      3.492311      3.733910
  H       0.669650      3.262710      0.454576
  C       1.377491      4.824670      1.707952
  H       0.920859      5.803385      1.889879
  H       1.870526      4.473678      2.626785
  H       2.139563      4.937575      0.936195
  O       1.687693      0.989694     -0.429134
  N      -0.445187      0.353109     -0.042962
  N      -2.699847      0.020024      0.325316
  N       1.025764     -1.090495     -1.228191
  C      -1.533686     -0.439007     -0.206429
  C      -1.337133     -1.637144     -0.891236
  C       0.835973      0.106522     -0.580621
  C      -0.029032     -1.884445     -1.350830
  H      -0.521156      1.239282      0.461079
  H      -2.142466     -2.340448     -1.062115
  H       0.155181     -2.823539     -1.875231
  H      -3.566034     -0.445013      0.110030
  H      -2.718356      0.972181      0.675154
24
Coordinates from ORCA-job methylurea_cytosine_opt_freq E -659.201194812877
  O      -1.431227      2.514930      1.477209
  N      -1.004403      4.071933      3.088768
  N       0.396468      3.853185      1.219865
  C      -0.701743      3.431548      1.903373
  H      -0.283807      4.601772      3.559638
  H      -1.563229      3.512179      3.719603
  H       0.685492      3.235378      0.465431
  C       1.382740      4.807306      1.710453
  H       0.929094      5.790655      1.876482
  H       1.868355      4.466580      2.636170
  H       2.155144      4.914156      0.947569
  O       1.676482      1.010684     -0.439947
  N      -0.449112      0.361140     -0.044776
  N      -2.698491      0.010448      0.335815
  N       1.022794     -1.072833     -1.238871
  C      -1.532843     -0.437394     -0.202360
  C      -1.333102     -1.634836     -0.888452
  C       0.830488      0.120804     -0.590120
  C      -0.027270     -1.874590     -1.356390
  H      -0.526580      1.246775      0.459382
  H      -2.137290     -2.340943     -1.053314
  H       0.161441     -2.811535     -1.882556
  H      -3.562106     -0.462440      0.127113
  H      -2.722860      0.960149      0.687494
