31
Coordinates from ORCA-job phenylurea_cytosine_opt_freq E -850.837762868450
  N           1.14266166909932      1.42667611925652      0.55166965071739
  C           0.10335461351107      1.67571952533574      1.37345039475932
  O          -1.08976724700512      1.63713836369619      0.99327444655539
  N           0.35234969014031      2.00729960869336      2.69276673378033
  C           1.54240324053811      1.95494726950057      3.45562011776177
  C           2.50276352507341      0.94423244207046      3.28411927065928
  C           3.63205222251198      0.90555463321574      4.10723121198030
  C           3.81471594172330      1.85594180757274      5.11480081976710
  C           2.85243793181641      2.85565258732237      5.29340421304847
  C           1.73076449177487      2.91258528583522      4.46626637317218
  H           0.95933131734626      1.14506682560489     -0.42449087462885
  H           2.09370013594700      1.57916890830577      0.84854114236017
  H          -0.47935030597413      2.34260144064766      3.15960517123994
  H           2.35309871486919      0.16782024060516      2.54170345106650
  H           4.36469405052415      0.11638370852435      3.96241955231506
  H           4.69133199716251      1.81700941129994      5.75438019981075
  H           2.97960686031223      3.60216143205514      6.07250388691402
  H           0.99397810451344      3.70111043184523      4.59863348079457
  O           0.52723691243364      0.51232421809976     -2.07781434144803
  N          -1.65867256627112      0.50493738284413     -1.46833112775473
  N          -3.82504777916778      0.54444020275814     -0.65520240683342
  N          -0.96732625826275     -0.54926617396891     -3.48602571757061
  C          -2.95505079683866      0.14241996495332     -1.62338536419903
  C          -3.29662415501592     -0.57969430251375     -2.76567085928116
  C          -0.62744248287851      0.15668688737996     -2.36467698463747
  C          -2.24213036022509     -0.87883664117042     -3.64351835045150
  H          -1.38069097090259      1.00564640519983     -0.60363343783898
  H          -4.31410159797827     -0.89571761065274     -2.95906820952686
  H          -2.46678794092715     -1.44241172692546     -4.55005368456739
  H          -4.76079449074950      0.17246889034925     -0.64776333071266
  H          -3.46277746710062      0.93280146225969      0.20575157274802
