31
Coordinates from ORCA-job phenylurea_cytosine_opt_freq E -849.958887590491
  N      -0.265800      4.451135      1.495993
  C      -1.268410      3.550544      1.519327
  O      -2.436164      3.927315      1.494641
  N      -0.955975      2.232251      1.495991
  C       0.249191      1.540561      1.716302
  C       0.281931      0.189359      1.347969
  C       1.436853     -0.574777      1.534804
  C       2.565956      0.000662      2.110229
  C       2.534548      1.334947      2.507668
  C       1.379228      2.100463      2.316710
  H      -0.593287      5.400785      1.372353
  H       0.523935      4.205260      0.915524
  H      -1.774407      1.665534      1.310186
  H      -0.586141     -0.283047      0.894507
  H       1.452182     -1.618913      1.232630
  H       3.463921     -0.592533      2.261719
  H       3.405311      1.780070      2.982934
  H       1.379645      3.117253      2.695620
  O       2.213400      1.118800      0.000100
  N      -0.059500      0.981600      0.000100
  N      -2.442200      0.921400      0.000100
  N       1.293500     -0.974400      0.000000
  C      -1.240600      0.267600     -0.000100
  C      -1.164300     -1.072600     -0.000200
  C       1.208800      0.405600     -0.000300
  C       0.190800     -1.647800      0.000300
  H      -0.133100      1.994600      0.000300
  H      -2.022300     -1.731700     -0.000300
  H       0.235100     -2.748700      0.000500
  H      -3.308900      0.398400      0.000300
  H      -2.453300      1.933200      0.000600
31
Coordinates from ORCA-job phenylurea_cytosine_opt_freq E -850.067043954258
  N      -0.274456      4.492127      1.505290
  C      -1.275695      3.572010      1.519700
  O      -2.454927      3.925180      1.479949
  N      -0.949759      2.248569      1.505949
  C       0.262116      1.556347      1.738514
  C       0.294772      0.187069      1.369415
  C       1.463282     -0.583217      1.559553
  C       2.604346      0.005805      2.140068
  C       2.558809      1.336292      2.528701
  C       1.387635      2.111798      2.334380
  H      -0.613536      5.436517      1.373768
  H       0.532379      4.258964      0.941027
  H      -1.765679      1.668441      1.313732
  H      -0.598373     -0.299791      0.903658
  H       1.483445     -1.627811      1.286341
  H       3.504130     -0.582005      2.298891
  H       3.426467      1.787562      3.002618
  H       1.387173      3.130459      2.707050
  O       2.225189      1.106934     -0.050870
  N      -0.063248      0.975815     -0.020782
  N      -2.464696      0.924134     -0.003517
  N       1.295096     -0.997979     -0.039761
  C      -1.265561      0.254378     -0.013209
  C      -1.189812     -1.105441     -0.019450
  C       1.223249      0.391264     -0.025298
  C       0.160781     -1.689366     -0.038613
  H      -0.143565      1.987860     -0.024252
  H      -2.048377     -1.763808     -0.022772
  H       0.204403     -2.786420     -0.046613
  H      -3.337357      0.415053      0.003212
  H      -2.458315      1.936128     -0.000174
31
Coordinates from ORCA-job phenylurea_cytosine_opt_freq E -850.156103451310
  N      -0.276270      4.521170      1.514601
  C      -1.278788      3.589264      1.520438
  O      -2.465617      3.924401      1.465741
  N      -0.943212      2.262021      1.516879
  C       0.273133      1.570786      1.761770
  C       0.304440      0.185440      1.393111
  C       1.481762     -0.587604      1.586435
  C       2.631607      0.013732      2.168921
  C       2.576892      1.339790      2.547617
  C       1.393141      2.122220      2.351473
  H      -0.621960      5.461868      1.374475
  H       0.545219      4.295871      0.966939
  H      -1.755401      1.671579      1.320428
  H      -0.605335     -0.312089      0.917458
  H       1.506685     -1.630189      1.341226
  H       3.532340     -0.570260      2.333387
  H       3.442307      1.797839      3.018335
  H       1.392803      3.143362      2.717134
  O       2.225559      1.094693     -0.102107
  N      -0.072564      0.969613     -0.045336
  N      -2.480521      0.923418     -0.005883
  N       1.287617     -1.019263     -0.082808
  C      -1.287484      0.242372     -0.026357
  C      -1.208383     -1.132084     -0.036328
  C       1.229185      0.377428     -0.051640
  C       0.139735     -1.720285     -0.078149
  H      -0.160095      1.979907     -0.052974
  H      -2.067095     -1.790627     -0.041539
  H       0.188674     -2.812822     -0.095033
  H      -3.357997      0.425392      0.010338
  H      -2.460457      1.935927     -0.002042
31
Coordinates from ORCA-job phenylurea_cytosine_opt_freq E -850.268961474921
  N      -0.273838      4.548278      1.527576
  C      -1.278227      3.606163      1.522255
  O      -2.471557      3.922326      1.446813
  N      -0.932176      2.275615      1.534204
  C       0.287485      1.586803      1.795946
  C       0.317570      0.183264      1.431833
  C       1.500859     -0.587072      1.628868
  C       2.657688      0.029183      2.208729
  C       2.597452      1.351336      2.574565
  C       1.402276      2.136215      2.378096
  H      -0.624931      5.484935      1.374295
  H       0.565854      4.329738      1.003913
  H      -1.737783      1.674376      1.334984
  H      -0.605319     -0.324069      0.944314
  H       1.533547     -1.627843      1.420806
  H       3.559100     -0.551691      2.377915
  H       3.460980      1.819358      3.038313
  H       1.402510      3.161221      2.733120
  O       2.211124      1.078694     -0.177485
  N      -0.093956      0.958557     -0.086264
  N      -2.493210      0.920016     -0.011082
  N       1.264938     -1.047853     -0.146697
  C      -1.312971      0.227385     -0.047709
  C      -1.228806     -1.161804     -0.057882
  C       1.224984      0.358140     -0.089970
  C       0.116208     -1.753093     -0.135618
  H      -0.191148      1.966091     -0.101175
  H      -2.089090     -1.818970     -0.063229
  H       0.174978     -2.840514     -0.165466
  H      -3.376449      0.434885      0.022251
  H      -2.458177      1.933199     -0.009710
31
Coordinates from ORCA-job phenylurea_cytosine_opt_freq E -850.406890797873
  N      -0.266523      4.566899      1.543822
  C      -1.272135      3.615751      1.524717
  O      -2.470240      3.912473      1.421250
  N      -0.914620      2.283119      1.559867
  C       0.306070      1.598853      1.843515
  C       0.338230      0.179202      1.494348
  C       1.520214     -0.577017      1.692414
  C       2.680540      0.053745      2.260460
  C       2.620728      1.375988      2.612110
  C       1.419044      2.153257      2.418742
  H      -0.621443      5.498758      1.370888
  H       0.595484      4.353553      1.054441
  H      -1.710516      1.671103      1.361682
  H      -0.587005     -0.332748      0.993927
  H       1.564101     -1.621105      1.526142
  H       3.582905     -0.525447      2.429902
  H       3.483214      1.857574      3.063377
  H       1.418418      3.183461      2.759027
  O       2.170389      1.060330     -0.282800
  N      -0.135734      0.940022     -0.151124
  N      -2.500153      0.918019     -0.025090
  N       1.221798     -1.082063     -0.232186
  C      -1.338252      0.212776     -0.084118
  C      -1.247901     -1.191514     -0.083025
  C       1.201302      0.333651     -0.142782
  C       0.088176     -1.781442     -0.210983
  H      -0.243429      1.944267     -0.176465
  H      -2.112253     -1.843782     -0.083612
  H       0.159513     -2.864570     -0.257317
  H      -3.389561      0.448091      0.035889
  H      -2.450445      1.931665     -0.030512
31
Coordinates from ORCA-job phenylurea_cytosine_opt_freq E -850.518512891254
  N      -0.251352      4.565502      1.560862
  C      -1.257318      3.612436      1.524927
  O      -2.454338      3.899816      1.391708
  N      -0.894614      2.279747      1.583157
  C       0.322309      1.601335      1.887583
  C       0.360992      0.177671      1.560997
  C       1.535597     -0.556721      1.757589
  C       2.692873      0.081047      2.308371
  C       2.634875      1.408654      2.649571
  C       1.436030      2.169718      2.460046
  H      -0.603893      5.494369      1.367577
  H       0.630820      4.351848      1.109451
  H      -1.682643      1.661937      1.387438
  H      -0.551316     -0.330520      1.054452
  H       1.587522     -1.612207      1.621655
  H       3.596647     -0.497194      2.474360
  H       3.496369      1.902939      3.088653
  H       1.430684      3.204641      2.785477
  O       2.116422      1.045506     -0.387769
  N      -0.182424      0.916465     -0.220812
  N      -2.508963      0.914302     -0.041833
  N       1.177310     -1.103206     -0.313191
  C      -1.354948      0.200293     -0.124758
  C      -1.257063     -1.210481     -0.105376
  C       1.165337      0.312762     -0.200537
  C       0.060104     -1.789257     -0.278117
  H      -0.291846      1.919204     -0.255486
  H      -2.125440     -1.857195     -0.096894
  H       0.139570     -2.871568     -0.338502
  H      -3.400226      0.453342      0.047893
  H      -2.457163      1.927685     -0.051988
31
Coordinates from ORCA-job phenylurea_cytosine_opt_freq E -850.601508266471
  N      -0.234447      4.553019      1.575015
  C      -1.235966      3.599942      1.520453
  O      -2.428272      3.883575      1.354239
  N      -0.870968      2.269192      1.602983
  C       0.337785      1.597194      1.927460
  C       0.382150      0.181924      1.624374
  C       1.550214     -0.532208      1.819620
  C       2.700095      0.105718      2.353510
  C       2.643391      1.441130      2.688005
  C       1.452175      2.183694      2.500991
  H      -0.581807      5.478868      1.359020
  H       0.666546      4.335963      1.165829
  H      -1.653112      1.648853      1.409550
  H      -0.506264     -0.315281      1.120939
  H       1.605089     -1.597818      1.700285
  H       3.605788     -0.471240      2.513793
  H       3.504463      1.945122      3.117028
  H       1.438905      3.222142      2.813421
  O       2.064162      1.037493     -0.481824
  N      -0.223335      0.893099     -0.293019
  N      -2.524218      0.903566     -0.056568
  N       1.140813     -1.107123     -0.387752
  C      -1.370078      0.186554     -0.166669
  C      -1.266661     -1.218292     -0.124904
  C       1.126770      0.298005     -0.264871
  C       0.030394     -1.782590     -0.336264
  H      -0.321272      1.896459     -0.333802
  H      -2.139772     -1.858475     -0.100126
  H       0.113440     -2.866237     -0.409396
  H      -3.412595      0.443571      0.062436
  H      -2.483498      1.917052     -0.067246
31
Coordinates from ORCA-job phenylurea_cytosine_opt_freq E -850.662072945728
  N      -0.221771      4.541137      1.581060
  C      -1.213193      3.584464      1.510299
  O      -2.400435      3.863503      1.307205
  N      -0.845599      2.257345      1.621819
  C       0.353978      1.590178      1.966083
  C       0.400765      0.190711      1.684237
  C       1.568106     -0.510998      1.878551
  C       2.710097      0.123275      2.398328
  C       2.653430      1.467552      2.729377
  C       1.469343      2.194923      2.542900
  H      -0.564115      5.461816      1.337340
  H       0.697512      4.320295      1.218772
  H      -1.624122      1.635933      1.430347
  H      -0.460215     -0.291862      1.189603
  H       1.620828     -1.582918      1.760408
  H       3.618594     -0.451211      2.551648
  H       3.515046      1.977147      3.151128
  H       1.446357      3.235389      2.846208
  O       2.019453      1.039301     -0.559638
  N      -0.256188      0.875369     -0.365316
  N      -2.545445      0.886798     -0.067415
  N       1.111534     -1.099755     -0.458042
  C      -1.389877      0.172455     -0.208179
  C      -1.283607     -1.220029     -0.143864
  C       1.089076      0.290532     -0.335176
  C      -0.000031     -1.771784     -0.388539
  H      -0.332638      1.880784     -0.407703
  H      -2.160878     -1.853490     -0.095858
  H       0.085201     -2.856391     -0.474679
  H      -3.427133      0.421386      0.079055
  H      -2.524154      1.901013     -0.073453
31
Coordinates from ORCA-job phenylurea_cytosine_opt_freq E -850.705724945053
  N      -0.211591      4.534474      1.581093
  C      -1.190903      3.571271      1.497284
  O      -2.373171      3.843049      1.253327
  N      -0.821833      2.249429      1.643922
  C       0.371005      1.585114      2.006626
  C       0.418363      0.200865      1.743232
  C       1.590549     -0.495673      1.935202
  C       2.726884      0.136167      2.442981
  C       2.667726      1.489096      2.772036
  C       1.487454      2.206985      2.584657
  H      -0.547024      5.447891      1.303944
  H       0.725342      4.308987      1.271914
  H      -1.599538      1.628103      1.454659
  H      -0.422599     -0.270210      1.255814
  H       1.637320     -1.570166      1.804382
  H       3.639949     -0.432950      2.588722
  H       3.530816      2.001007      3.188271
  H       1.454209      3.248548      2.882195
  O       1.978815      1.047646     -0.621884
  N      -0.285997      0.862527     -0.433881
  N      -2.570681      0.867930     -0.076441
  N       1.084904     -1.091096     -0.523442
  C      -1.415607      0.159284     -0.248731
  C      -1.306850     -1.223051     -0.168284
  C       1.049853      0.287937     -0.410386
  C      -0.028521     -1.765192     -0.435876
  H      -0.338010      1.870162     -0.473434
  H      -2.185516     -1.852246     -0.095503
  H       0.060207     -2.849381     -0.533831
  H      -3.444167      0.393289      0.089982
  H      -2.571470      1.883075     -0.072043
31
Coordinates from ORCA-job phenylurea_cytosine_opt_freq E -850.737472649591
  N      -0.205491      4.532676      1.571486
  C      -1.170916      3.558874      1.483232
  O      -2.348638      3.816438      1.196856
  N      -0.799701      2.245178      1.673941
  C       0.390954      1.584922      2.051830
  C       0.438199      0.209126      1.803274
  C       1.616604     -0.486128      1.990080
  C       2.750364      0.146865      2.488105
  C       2.686962      1.506403      2.815692
  C       1.508286      2.221007      2.626713
  H      -0.533676      5.435008      1.253582
  H       0.747264      4.303439      1.319868
  H      -1.577512      1.622650      1.490744
  H      -0.396886     -0.256788      1.317235
  H       1.655294     -1.559510      1.835541
  H       3.669523     -0.414080      2.626182
  H       3.552290      2.017900      3.227923
  H       1.466314      3.262763      2.921987
  O       1.939427      1.057647     -0.671305
  N      -0.316736      0.854528     -0.495131
  N      -2.596654      0.853921     -0.084139
  N       1.058489     -1.085723     -0.584251
  C      -1.445027      0.150590     -0.287387
  C      -1.333366     -1.228475     -0.202532
  C       1.008126      0.288642     -0.488308
  C      -0.054919     -1.764115     -0.480815
  H      -0.347009      1.864109     -0.527174
  H      -2.210330     -1.856839     -0.107350
  H       0.038148     -2.847330     -0.586242
  H      -3.463097      0.369405      0.091659
  H      -2.616369      1.869766     -0.064791
31
Coordinates from ORCA-job phenylurea_cytosine_opt_freq E -850.760778462603
  N      -0.197647      4.530181      1.554977
  C      -1.150933      3.545986      1.467874
  O      -2.322886      3.785375      1.137523
  N      -0.780199      2.243023      1.710948
  C       0.411863      1.589685      2.099834
  C       0.460112      0.214751      1.861888
  C       1.644344     -0.479545      2.042244
  C       2.776915      0.159175      2.534110
  C       2.706916      1.521648      2.860302
  C       1.528270      2.236473      2.668317
  H      -0.514621      5.418558      1.190847
  H       0.768371      4.297069      1.366084
  H      -1.558267      1.618375      1.537496
  H      -0.378399     -0.250938      1.374658
  H       1.676435     -1.548632      1.857127
  H       3.703275     -0.391148      2.665641
  H       3.574009      2.032063      3.270287
  H       1.479462      3.278270      2.963072
  O       1.900226      1.067742     -0.714342
  N      -0.350577      0.851075     -0.550570
  N      -2.624271      0.843405     -0.089390
  N       1.032840     -1.081700     -0.643220
  C      -1.477531      0.145074     -0.323268
  C      -1.360398     -1.235593     -0.245169
  C       0.965273      0.292554     -0.568221
  C      -0.079559     -1.765734     -0.526496
  H      -0.366475      1.862179     -0.570712
  H      -2.232365     -1.867076     -0.129024
  H       0.018583     -2.848374     -0.631178
  H      -3.485103      0.349323      0.087924
  H      -2.657749      1.859624     -0.053058
31
Coordinates from ORCA-job phenylurea_cytosine_opt_freq E -850.777628108552
  N      -0.190070      4.522298      1.526866
  C      -1.132065      3.527641      1.450556
  O      -2.297317      3.744044      1.077402
  N      -0.763288      2.238796      1.755846
  C       0.433703      1.596733      2.149991
  C       0.484619      0.219114      1.917587
  C       1.673483     -0.473964      2.091416
  C       2.804999      0.172804      2.581350
  C       2.727040      1.534037      2.907567
  C       1.547182      2.250152      2.711778
  H      -0.494030      5.392155      1.111338
  H       0.785743      4.287677      1.402398
  H      -1.540548      1.609375      1.596628
  H      -0.360258     -0.247772      1.431076
  H       1.702702     -1.536538      1.872713
  H       3.738258     -0.366757      2.707897
  H       3.594479      2.043699      3.317932
  H       1.493509      3.291365      3.008425
  O       1.862549      1.078203     -0.758075
  N      -0.386472      0.852934     -0.601480
  N      -2.651850      0.838582     -0.091722
  N       1.007197     -1.075205     -0.702975
  C      -1.511258      0.143605     -0.355037
  C      -1.387252     -1.239369     -0.292477
  C       0.924178      0.299932     -0.649029
  C      -0.104591     -1.764559     -0.573844
  H      -0.396292      1.864999     -0.605833
  H      -2.252034     -1.876413     -0.155531
  H      -0.001668     -2.847314     -0.668636
  H      -3.509363      0.337534      0.082307
  H      -2.691369      1.855080     -0.039926
31
Coordinates from ORCA-job phenylurea_cytosine_opt_freq E -850.789599641957
  N      -0.169759      4.503167      1.492991
  C      -1.108677      3.506328      1.430602
  O      -2.262865      3.705402      1.011631
  N      -0.753015      2.233686      1.807873
  C       0.450912      1.603350      2.202342
  C       0.509544      0.222988      1.969699
  C       1.703440     -0.465759      2.136917
  C       2.831792      0.191516      2.628423
  C       2.743039      1.548799      2.957204
  C       1.559423      2.262802      2.758372
  H      -0.450062      5.352087      1.021872
  H       0.811113      4.263312      1.438736
  H      -1.530624      1.601491      1.662017
  H      -0.340564     -0.247441      1.487260
  H       1.737139     -1.520524      1.884385
  H       3.771774     -0.337228      2.750808
  H       3.608354      2.060894      3.369177
  H       1.500927      3.303692      3.056892
  O       1.821065      1.094639     -0.808840
  N      -0.427295      0.858107     -0.648664
  N      -2.682666      0.830633     -0.090903
  N       0.980542     -1.062722     -0.765799
  C      -1.547080      0.141706     -0.383119
  C      -1.413253     -1.242018     -0.342900
  C       0.882831      0.312087     -0.729450
  C      -0.128716     -1.759303     -0.623441
  H      -0.440347      1.870527     -0.634050
  H      -2.268181     -1.887646     -0.185346
  H      -0.018452     -2.842341     -0.702029
  H      -3.537777      0.323315      0.076541
  H      -2.722644      1.847322     -0.022695
31
Coordinates from ORCA-job phenylurea_cytosine_opt_freq E -850.798067849837
  N      -0.144867      4.467980      1.433221
  C      -1.085073      3.472869      1.406096
  O      -2.228030      3.651837      0.946149
  N      -0.747373      2.224266      1.872102
  C       0.466151      1.607075      2.260834
  C       0.536556      0.226714      2.020055
  C       1.735564     -0.456018      2.179480
  C       2.859094      0.210650      2.676454
  C       2.758360      1.562403      3.013871
  C       1.568968      2.271288      2.815599
  H      -0.400729      5.286327      0.898754
  H       0.836302      4.224811      1.444146
  H      -1.524316      1.587135      1.743063
  H      -0.317287     -0.247690      1.544235
  H       1.779799     -1.501741      1.893452
  H       3.804620     -0.309297      2.794334
  H       3.619157      2.078390      3.430432
  H       1.504650      3.309787      3.121820
  O       1.776946      1.122552     -0.866185
  N      -0.470098      0.871728     -0.688926
  N      -2.713199      0.828060     -0.084821
  N       0.951649     -1.039652     -0.832349
  C      -1.582373      0.146165     -0.406191
  C      -1.439652     -1.237136     -0.394123
  C       0.842258      0.333604     -0.804957
  C      -0.153207     -1.744778     -0.675873
  H      -0.491103      1.883618     -0.652299
  H      -2.283848     -1.892003     -0.217057
  H      -0.033900     -2.827722     -0.738396
  H      -3.567539      0.316896      0.073951
  H      -2.747566      1.844749     -0.000362
31
Coordinates from ORCA-job phenylurea_cytosine_opt_freq E -850.804219123473
  N      -0.087369      4.414099      1.373830
  C      -1.047546      3.440491      1.379307
  O      -2.172422      3.616954      0.873533
  N      -0.752158      2.221071      1.943482
  C       0.469978      1.608896      2.321624
  C       0.559955      0.230551      2.066736
  C       1.767247     -0.439879      2.218163
  C       2.881955      0.239041      2.722604
  C       2.764037      1.585075      3.071746
  C       1.565219      2.281567      2.876900
  H      -0.299610      5.199822      0.775476
  H       0.886810      4.155981      1.456014
  H      -1.532369      1.586304      1.824208
  H      -0.294069     -0.253131      1.599630
  H       1.830467     -1.475883      1.901454
  H       3.834097     -0.270143      2.835001
  H       3.617519      2.110013      3.492036
  H       1.491173      3.318780      3.187914
  O       1.720910      1.164958     -0.933467
  N      -0.521484      0.886885     -0.724978
  N      -2.752048      0.810483     -0.075114
  N       0.920967     -1.006962     -0.903216
  C      -1.621670      0.145211     -0.427351
  C      -1.464843     -1.236732     -0.446467
  C       0.796051      0.363539     -0.876397
  C      -0.173845     -1.726722     -0.732050
  H      -0.557522      1.897708     -0.665273
  H      -2.294978     -1.904482     -0.251378
  H      -0.038820     -2.808381     -0.782550
  H      -3.603026      0.291159      0.074038
  H      -2.782691      1.826595      0.031052
31
Coordinates from ORCA-job phenylurea_cytosine_opt_freq E -850.808682463153
  N      -0.048122      4.334774      1.267366
  C      -1.021222      3.379761      1.348380
  O      -2.135893      3.528832      0.810869
  N      -0.753979      2.212075      2.030274
  C       0.480002      1.608355      2.389200
  C       0.588052      0.236714      2.113175
  C       1.801984     -0.423604      2.256563
  C       2.908615      0.261656      2.772010
  C       2.775705      1.600946      3.140023
  C       1.567901      2.285420      2.953028
  H      -0.237246      5.065026      0.595686
  H       0.920313      4.077854      1.399891
  H      -1.531900      1.569428      1.932438
  H      -0.266066     -0.253597      1.655561
  H       1.883322     -1.449767      1.912923
  H       3.865164     -0.240620      2.878734
  H       3.620844      2.131224      3.570177
  H       1.481060      3.316307      3.281434
  O       1.668904      1.218512     -1.002987
  N      -0.567062      0.917054     -0.750738
  N      -2.781106      0.817173     -0.060493
  N       0.888406     -0.961866     -0.973510
  C      -1.654941      0.162125     -0.442871
  C      -1.491454     -1.218628     -0.494514
  C       0.753922      0.406067     -0.937067
  C      -0.197428     -1.693702     -0.788936
  H      -0.614476      1.925679     -0.669142
  H      -2.310716     -1.895351     -0.284632
  H      -0.049733     -2.773828     -0.836291
  H      -3.632335      0.296571      0.080805
  H      -2.800598      1.832280      0.059147
31
Coordinates from ORCA-job phenylurea_cytosine_opt_freq E -850.812041298913
  N       0.053713      4.258141      1.220757
  C      -0.963001      3.356285      1.330716
  O      -2.057345      3.532402      0.760003
  N      -0.766716      2.232514      2.108316
  C       0.472001      1.611734      2.444180
  C       0.605499      0.245163      2.149304
  C       1.830759     -0.395984      2.289932
  C       2.924208      0.302217      2.814279
  C       2.769948      1.635640      3.196221
  C       1.550512      2.298938      3.014712
  H      -0.079269      4.953843      0.500872
  H       1.004967      3.972460      1.410491
  H      -1.554933      1.603132      2.013828
  H      -0.243077     -0.264161      1.704496
  H       1.937271     -1.414314      1.928931
  H       3.887533     -0.187973      2.917016
  H       3.604654      2.178104      3.631354
  H       1.446520      3.328454      3.345091
  O       1.595649      1.271068     -1.093100
  N      -0.628391      0.928403     -0.784924
  N      -2.828158      0.774982     -0.052718
  N       0.853959     -0.923545     -1.048469
  C      -1.697935      0.149526     -0.466194
  C      -1.514788     -1.228713     -0.545555
  C       0.698529      0.440561     -1.003505
  C      -0.214228     -1.676064     -0.849139
  H      -0.697931      1.935430     -0.687477
  H      -2.317390     -1.920352     -0.320825
  H      -0.043698     -2.753071     -0.895266
  H      -3.671311      0.239974      0.082150
  H      -2.847632      1.788074      0.091030
31
Coordinates from ORCA-job phenylurea_cytosine_opt_freq E -850.814229606919
  N       0.088699      4.156718      1.111783
  C      -0.942755      3.290072      1.313563
  O      -2.034234      3.429679      0.727822
  N      -0.762205      2.238560      2.196078
  C       0.485175      1.615323      2.503778
  C       0.632611      0.258307      2.187324
  C       1.862805     -0.373885      2.328708
  C       2.948130      0.326226      2.865820
  C       2.781630      1.654089      3.265112
  C       1.555230      2.304737      3.089150
  H      -0.036685      4.785244      0.331454
  H       1.036280      3.876050      1.325266
  H      -1.549861      1.603073      2.132001
  H      -0.214020     -0.261072      1.753132
  H       1.983604     -1.386651      1.956519
  H       3.913850     -0.159650      2.967207
  H       3.608323      2.199010      3.712240
  H       1.434210      3.328526      3.432277
  O       1.546289      1.322435     -1.171690
  N      -0.667378      0.959898     -0.808898
  N      -2.850718      0.786208     -0.044178
  N       0.822950     -0.878711     -1.113992
  C      -1.725015      0.169749     -0.484662
  C      -1.538880     -1.206845     -0.589091
  C       0.660007      0.483387     -1.056042
  C      -0.236749     -1.640845     -0.904725
  H      -0.746517      1.964953     -0.702395
  H      -2.334160     -1.903644     -0.354775
  H      -0.056551     -2.716072     -0.957860
  H      -3.693689      0.251048      0.088428
  H      -2.860457      1.796953      0.107153
31
Coordinates from ORCA-job phenylurea_cytosine_opt_freq E -850.815825710270
  N       0.132150      4.111297      1.071601
  C      -0.918775      3.285086      1.327276
  O      -2.020596      3.443410      0.769439
  N      -0.751526      2.263108      2.250236
  C       0.495734      1.621840      2.535432
  C       0.651324      0.269759      2.208586
  C       1.884776     -0.355692      2.360740
  C       2.963169      0.346002      2.906554
  C       2.788965      1.671827      3.312255
  C       1.559084      2.312273      3.134530
  H       0.004694      4.722829      0.278248
  H       1.076384      3.808692      1.267674
  H      -1.550853      1.640833      2.210290
  H      -0.191454     -0.263963      1.786227
  H       2.014439     -1.369181      1.992900
  H       3.929305     -0.137903      3.013558
  H       3.609612      2.218279      3.768557
  H       1.423593      3.333590      3.479179
  O       1.504256      1.339534     -1.255425
  N      -0.699339      0.961722     -0.843338
  N      -2.873454      0.766242     -0.053827
  N       0.799175     -0.866482     -1.169447
  C      -1.747473      0.162334     -0.511993
  C      -1.555717     -1.213458     -0.626107
  C       0.627808      0.494631     -1.108871
  C      -0.252366     -1.636189     -0.950332
  H      -0.788996      1.966483     -0.742392
  H      -2.345046     -1.913808     -0.382717
  H      -0.063604     -2.709967     -1.006842
  H      -3.712134      0.225095      0.080299
  H      -2.883222      1.774647      0.104218
31
Coordinates from ORCA-job phenylurea_cytosine_opt_freq E -850.817030241977
  N       0.168016      4.049601      1.025840
  C      -0.901292      3.267889      1.340481
  O      -2.011156      3.427005      0.800984
  N      -0.734241      2.282343      2.304387
  C       0.511157      1.630238      2.572980
  C       0.672331      0.283405      2.233409
  C       1.907987     -0.336982      2.399244
  C       2.980026      0.365863      2.955058
  C       2.800030      1.692300      3.362032
  C       1.567558      2.325409      3.179893
  H       0.039802      4.635418      0.213544
  H       1.108383      3.726938      1.211684
  H      -1.544651      1.672765      2.301867
  H      -0.167582     -0.264370      1.820902
  H       2.042747     -1.353369      2.040893
  H       3.946397     -0.116027      3.069032
  H       3.617172      2.240015      3.823039
  H       1.418948      3.348391      3.514259
  O       1.463111      1.360431     -1.335291
  N      -0.729193      0.968932     -0.876505
  N      -2.896591      0.755220     -0.065823
  N       0.774868     -0.849772     -1.226539
  C      -1.770153      0.162427     -0.540372
  C      -1.573859     -1.212188     -0.664473
  C       0.596245      0.510726     -1.161330
  C      -0.270935     -1.625963     -1.001442
  H      -0.827108      1.974184     -0.787515
  H      -2.358377     -1.916002     -0.415972
  H      -0.076926     -2.698267     -1.067126
  H      -3.729957      0.206758      0.070411
  H      -2.912839      1.759550      0.108958
31
Coordinates from ORCA-job phenylurea_cytosine_opt_freq E -850.817872152535
  N       0.183158      4.009519      0.992990
  C      -0.893486      3.255310      1.351649
  O      -2.016488      3.423327      0.844595
  N      -0.713562      2.296199      2.340781
  C       0.530581      1.639273      2.604301
  C       0.693966      0.294412      2.255812
  C       1.929820     -0.324930      2.437561
  C       2.997458      0.378713      3.000913
  C       2.815625      1.707252      3.402878
  C       1.582888      2.338281      3.214238
  H       0.046231      4.585700      0.175193
  H       1.121684      3.672296      1.160143
  H      -1.534172      1.702470      2.383412
  H      -0.143807     -0.264211      1.850722
  H       2.064187     -1.347070      2.095751
  H       3.962433     -0.103111      3.126043
  H       3.631481      2.253817      3.867495
  H       1.425173      3.362679      3.539139
  O       1.431737      1.369018     -1.403299
  N      -0.750689      0.969922     -0.907428
  N      -2.913583      0.749151     -0.086398
  N       0.753779     -0.843657     -1.276594
  C      -1.788191      0.160952     -0.567300
  C      -1.589626     -1.213385     -0.695461
  C       0.571315      0.516881     -1.209367
  C      -0.289637     -1.623316     -1.047433
  H      -0.854167      1.976064     -0.837958
  H      -2.371149     -1.919631     -0.444484
  H      -0.094749     -2.694677     -1.122589
  H      -3.743200      0.196270      0.055396
  H      -2.935092      1.749350      0.105803
31
Coordinates from ORCA-job phenylurea_cytosine_opt_freq E -850.818529818629
  N       0.193121      3.963351      0.959771
  C      -0.889639      3.237510      1.361146
  O      -2.019158      3.403091      0.869119
  N      -0.695556      2.304343      2.372002
  C       0.549806      1.649011      2.636976
  C       0.716569      0.305103      2.280047
  C       1.951958     -0.314010      2.476126
  C       3.015445      0.391960      3.045368
  C       2.832113      1.722120      3.440045
  C       1.599369      2.352140      3.245461
  H       0.052227      4.521479      0.130271
  H       1.128984      3.615002      1.118895
  H      -1.523259      1.726173      2.461919
  H      -0.119091     -0.261539      1.878679
  H       2.085039     -1.342177      2.152675
  H       3.979145     -0.089238      3.182096
  H       3.647547      2.268385      3.905792
  H       1.435776      3.377779      3.562941
  O       1.402324      1.381279     -1.459012
  N      -0.770908      0.974583     -0.932918
  N      -2.931866      0.748839     -0.109474
  N       0.732723     -0.834043     -1.324587
  C      -1.806628      0.163576     -0.590523
  C      -1.604618     -1.210307     -0.722924
  C       0.547155      0.526173     -1.253742
  C      -0.308839     -1.616989     -1.092507
  H      -0.880276      1.981284     -0.884293
  H      -2.382824     -1.920507     -0.472708
  H      -0.114020     -2.687333     -1.178381
  H      -3.757420      0.192041      0.041160
  H      -2.955283      1.743790      0.107087
31
Coordinates from ORCA-job phenylurea_cytosine_opt_freq E -850.819127230097
  N       0.194768      3.917299      0.927307
  C      -0.887915      3.211100      1.366346
  O      -2.025922      3.379838      0.895707
  N      -0.677564      2.305727      2.397278
  C       0.570735      1.658274      2.670377
  C       0.742134      0.314658      2.308083
  C       1.975695     -0.305567      2.518929
  C       3.035263      0.404553      3.092234
  C       2.850977      1.736770      3.475353
  C       1.618398      2.366124      3.273595
  H       0.046879      4.460150      0.089138
  H       1.129928      3.563625      1.078198
  H      -1.509987      1.746556      2.542473
  H      -0.091619     -0.256687      1.906454
  H       2.107021     -1.340474      2.217715
  H       3.997394     -0.075955      3.242199
  H       3.666168      2.284726      3.939559
  H       1.452529      3.393615      3.583665
  O       1.375576      1.391541     -1.509280
  N      -0.789396      0.979438     -0.957021
  N      -2.951493      0.754575     -0.141130
  N       0.710617     -0.825848     -1.374117
  C      -1.825436      0.167913     -0.614223
  C      -1.619982     -1.205615     -0.749231
  C       0.523783      0.533773     -1.298800
  C      -0.329838     -1.610865     -1.137963
  H      -0.905647      1.986199     -0.931548
  H      -2.395714     -1.919913     -0.502705
  H      -0.136684     -2.680378     -1.234373
  H      -3.772365      0.195394      0.025654
  H      -2.968388      1.742323      0.106635
31
Coordinates from ORCA-job phenylurea_cytosine_opt_freq E -850.819629673577
  N       0.196672      3.865045      0.893788
  C      -0.885956      3.183951      1.373084
  O      -2.029517      3.351630      0.914930
  N      -0.663388      2.303340      2.419611
  C       0.589025      1.666198      2.702730
  C       0.767862      0.322551      2.338584
  C       1.999277     -0.298547      2.561777
  C       3.054695      0.417816      3.137145
  C       2.868254      1.751914      3.507927
  C       1.635003      2.379153      3.299352
  H       0.042668      4.385324      0.042670
  H       1.130371      3.505677      1.039582
  H      -1.498059      1.764678      2.617420
  H      -0.063833     -0.249600      1.931738
  H       2.131136     -1.339108      2.281738
  H       4.015822     -0.061071      3.298888
  H       3.682190      2.304462      3.968855
  H       1.469938      3.408834      3.602647
  O       1.350743      1.404791     -1.550528
  N      -0.807041      0.987556     -0.976560
  N      -2.974125      0.763683     -0.177354
  N       0.688335     -0.814192     -1.423060
  C      -1.844464      0.174999     -0.636410
  C      -1.634646     -1.197854     -0.773661
  C       0.501166      0.544248     -1.340088
  C      -0.350165     -1.601253     -1.180964
  H      -0.932010      1.993518     -0.970545
  H      -2.408581     -1.916391     -0.533431
  H      -0.158458     -2.669919     -1.287175
  H      -3.786721      0.200204      0.013798
  H      -2.976274      1.741234      0.110018
31
Coordinates from ORCA-job phenylurea_cytosine_opt_freq E -850.820069202734
  N       0.196467      3.821639      0.869304
  C      -0.882599      3.155692      1.377421
  O      -2.031863      3.325681      0.932091
  N      -0.651606      2.296083      2.435978
  C       0.604856      1.671258      2.729142
  C       0.791959      0.327213      2.369545
  C       2.020750     -0.294358      2.603333
  C       3.072433      0.429740      3.177996
  C       2.883519      1.766443      3.534785
  C       1.649130      2.390230      3.318973
  H       0.034928      4.324024      0.009085
  H       1.130780      3.461954      1.010291
  H      -1.485279      1.775288      2.677940
  H      -0.038082     -0.241259      1.953170
  H       2.155309     -1.339175      2.341785
  H       4.032957     -0.047163      3.349603
  H       3.695147      2.326211      3.990954
  H       1.487322      3.422844      3.614330
  O       1.330505      1.413583     -1.585155
  N      -0.822009      0.994849     -0.993595
  N      -2.997936      0.775281     -0.219756
  N       0.666401     -0.805484     -1.468716
  C      -1.862195      0.182128     -0.658802
  C      -1.649439     -1.190037     -0.795315
  C       0.481137      0.551801     -1.376914
  C      -0.369883     -1.593214     -1.217268
  H      -0.955377      1.999611     -1.001227
  H      -2.423549     -1.910688     -0.561632
  H      -0.180098     -2.661504     -1.329679
  H      -3.796911      0.205195      0.006235
  H      -2.976857      1.739004      0.112606
31
Coordinates from ORCA-job phenylurea_cytosine_opt_freq E -850.820460402172
  N       0.198422      3.785777      0.852717
  C      -0.876808      3.131562      1.382480
  O      -2.029850      3.298940      0.943203
  N      -0.641325      2.287837      2.449706
  C       0.618596      1.673946      2.750131
  C       0.814195      0.328844      2.401011
  C       2.040731     -0.291607      2.644035
  C       3.088704      0.441212      3.215752
  C       2.896450      1.781003      3.558360
  C       1.660621      2.399853      3.334894
  H       0.029762      4.270898     -0.015966
  H       1.133930      3.427948      0.990478
  H      -1.472779      1.780499      2.724318
  H      -0.014019     -0.232264      1.971454
  H       2.180679     -1.338935      2.396137
  H       4.049148     -0.033171      3.395170
  H       3.704465      2.349573      4.009875
  H       1.502171      3.435510      3.621706
  O       1.311808      1.419544     -1.617735
  N      -0.836448      1.001785     -1.009484
  N      -3.024363      0.787477     -0.267514
  N       0.643386     -0.798374     -1.512943
  C      -1.879871      0.188961     -0.682625
  C      -1.665554     -1.182472     -0.815873
  C       0.461592      0.558049     -1.410595
  C      -0.389513     -1.586089     -1.248541
  H      -0.977134      2.005342     -1.023144
  H      -2.441275     -1.903121     -0.587310
  H      -0.201231     -2.654352     -1.363841
  H      -3.800770      0.206239      0.005370
  H      -2.973808      1.732455      0.115283
31
Coordinates from ORCA-job phenylurea_cytosine_opt_freq E -850.820725862371
  N       0.203298      3.766064      0.847247
  C      -0.868911      3.115311      1.385558
  O      -2.024120      3.278911      0.949298
  N      -0.631605      2.282995      2.460447
  C       0.629730      1.674396      2.762741
  C       0.830585      0.327910      2.426251
  C       2.056247     -0.289267      2.676896
  C       3.101123      0.450284      3.245443
  C       2.905587      1.792929      3.577096
  C       1.668839      2.406822      3.346233
  H       0.029877      4.241776     -0.025746
  H       1.140421      3.411911      0.983701
  H      -1.461243      1.781661      2.750609
  H       0.004368     -0.226228      1.985193
  H       2.202264     -1.337034      2.434203
  H       4.061765     -0.021798      3.429991
  H       3.709934      2.368489      4.026199
  H       1.510319      3.444649      3.625244
  O       1.295110      1.421015     -1.648317
  N      -0.849497      1.005116     -1.024335
  N      -3.047792      0.795280     -0.308216
  N       0.622887     -0.795396     -1.548567
  C      -1.894719      0.192098     -0.704452
  C      -1.680842     -1.178594     -0.833456
  C       0.444394      0.560937     -1.437558
  C      -0.405953     -1.582829     -1.271128
  H      -0.993736      2.008141     -1.035569
  H      -2.458488     -1.897332     -0.605502
  H      -0.217994     -2.651315     -1.385783
  H      -3.798844      0.202460      0.009817
  H      -2.973089      1.723508      0.112973
31
Coordinates from ORCA-job phenylurea_cytosine_opt_freq E -850.820912755456
  N       0.211556      3.758850      0.847456
  C      -0.860432      3.109120      1.386236
  O      -2.015132      3.265915      0.947290
  N      -0.623519      2.284943      2.468974
  C       0.637114      1.674043      2.767991
  C       0.838884      0.326187      2.440831
  C       2.065641     -0.286249      2.695893
  C       3.108372      0.456046      3.263172
  C       2.910107      1.800198      3.590636
  C       1.673175      2.410538      3.354479
  H       0.037849      4.229314     -0.028469
  H       1.149357      3.407791      0.987039
  H      -1.452610      1.781152      2.756438
  H       0.014746     -0.224990      1.993961
  H       2.216468     -1.332483      2.448624
  H       4.069441     -0.014398      3.449463
  H       3.711967      2.378613      4.040536
  H       1.510331      3.448907      3.628810
  O       1.281122      1.422033     -1.671637
  N      -0.860350      1.005643     -1.035389
  N      -3.063316      0.795486     -0.328877
  N       0.609016     -0.793909     -1.569642
  C      -1.904511      0.191310     -0.718623
  C      -1.691744     -1.178682     -0.845583
  C       0.431466      0.562995     -1.453757
  C      -0.415718     -1.581998     -1.283509
  H      -1.004036      2.008885     -1.037061
  H      -2.469837     -1.895551     -0.613698
  H      -0.226155     -2.650574     -1.395893
  H      -3.798230      0.195741      0.015465
  H      -2.981104      1.717991      0.105353
31
Coordinates from ORCA-job phenylurea_cytosine_opt_freq E -850.821087347094
  N       0.224586      3.756994      0.849185
  C      -0.849290      3.108258      1.385255
  O      -2.002197      3.258876      0.942332
  N      -0.613134      2.292115      2.477163
  C       0.645299      1.674554      2.772074
  C       0.844991      0.324677      2.452986
  C       2.074162     -0.281634      2.712133
  C       3.114776      0.461235      3.280050
  C       2.913941      1.806176      3.606128
  C       1.677694      2.413960      3.363988
  H       0.054046      4.224472     -0.029083
  H       1.162024      3.407682      0.994862
  H      -1.442444      1.781913      2.752532
  H       0.023805     -0.227007      2.003137
  H       2.228403     -1.325205      2.454513
  H       4.076260     -0.007657      3.467603
  H       3.714161      2.384646      4.058969
  H       1.507006      3.451935      3.634522
  O       1.263243      1.424749     -1.695614
  N      -0.874255      1.004146     -1.047585
  N      -3.077086      0.788158     -0.340141
  N       0.595533     -0.792138     -1.587896
  C      -1.914843      0.186926     -0.730845
  C      -1.702325     -1.182428     -0.857803
  C       0.416354      0.565652     -1.468994
  C      -0.424391     -1.582482     -1.295731
  H      -1.014775      2.007871     -1.034604
  H      -2.478838     -1.898615     -0.619201
  H      -0.231552     -2.650818     -1.406171
  H      -3.801664      0.184428      0.019964
  H      -2.999574      1.711429      0.092781
31
Coordinates from ORCA-job phenylurea_cytosine_opt_freq E -850.821200868042
  N       0.238324      3.746854      0.844359
  C      -0.837971      3.103619      1.383038
  O      -1.989207      3.249238      0.936296
  N      -0.601939      2.298544      2.484921
  C       0.655013      1.677648      2.781302
  C       0.853313      0.326055      2.467131
  C       2.084187     -0.275807      2.730848
  C       3.122420      0.467657      3.301035
  C       2.919532      1.812971      3.624949
  C       1.684250      2.419305      3.376379
  H       0.072484      4.206849     -0.038745
  H       1.174683      3.398332      0.998084
  H      -1.431736      1.786216      2.755403
  H       0.035381     -0.228281      2.014924
  H       2.239766     -1.317812      2.466903
  H       4.083977      0.000275      3.491656
  H       3.718821      2.390962      4.080144
  H       1.507420      3.457177      3.643002
  O       1.242030      1.432440     -1.717842
  N      -0.891026      1.004470     -1.060158
  N      -3.091071      0.779801     -0.348650
  N       0.581041     -0.786538     -1.608755
  C      -1.927692      0.183677     -0.741670
  C      -1.712748     -1.184963     -0.871074
  C       0.398417      0.571314     -1.487150
  C      -0.434725     -1.580288     -1.313636
  H      -1.029877      2.008347     -1.036437
  H      -2.486128     -1.903122     -0.628584
  H      -0.238817     -2.647964     -1.425562
  H      -3.808815      0.173411      0.020333
  H      -3.019392      1.702480      0.084063
31
Coordinates from ORCA-job phenylurea_cytosine_opt_freq E -850.821338266681
  N       0.258982      3.731438      0.836005
  C      -0.820470      3.094806      1.377216
  O      -1.969025      3.233798      0.923476
  N      -0.586712      2.305201      2.492012
  C       0.668629      1.683301      2.796277
  C       0.866135      0.329691      2.487807
  C       2.098703     -0.267555      2.757339
  C       3.133329      0.476982      3.331739
  C       2.927716      1.822526      3.652259
  C       1.693931      2.427495      3.394302
  H       0.102025      4.178566     -0.055200
  H       1.193872      3.385920      1.004068
  H      -1.417409      1.792022      2.758489
  H       0.053451     -0.229707      2.032262
  H       2.255152     -1.308003      2.487159
  H       4.094823      0.011677      3.527510
  H       3.725704      2.400038      4.110427
  H       1.511033      3.465663      3.655437
  O       1.210328      1.446255     -1.744650
  N      -0.916931      1.005137     -1.077318
  N      -3.111296      0.766940     -0.355857
  N       0.560880     -0.776675     -1.638299
  C      -1.947475      0.178744     -0.754406
  C      -1.726513     -1.188719     -0.889120
  C       0.371636      0.580438     -1.513167
  C      -0.449459     -1.576237     -1.341221
  H      -1.054949      2.008838     -1.039119
  H      -2.494411     -1.911771     -0.643848
  H      -0.249200     -2.642657     -1.457639
  H      -3.824368      0.158422      0.018663
  H      -3.048192      1.690294      0.073904
31
Coordinates from ORCA-job phenylurea_cytosine_opt_freq E -850.821503375650
  N       0.289367      3.707519      0.823233
  C      -0.794627      3.080609      1.366966
  O      -1.939168      3.211078      0.901518
  N      -0.567963      2.310558      2.497298
  C       0.685510      1.691334      2.817882
  C       0.884885      0.335853      2.516847
  C       2.118935     -0.256672      2.793285
  C       3.148138      0.490462      3.373639
  C       2.938004      1.836124      3.689260
  C       1.705784      2.438850      3.418929
  H       0.146185      4.132905     -0.080738
  H       1.221952      3.367199      1.012662
  H      -1.400441      1.798978      2.761578
  H       0.079985     -0.230410      2.055403
  H       2.277320     -1.295696      2.518482
  H       4.109641      0.028268      3.576648
  H       3.733174      2.414645      4.151041
  H       1.518021      3.477926      3.672919
  O       1.165745      1.467885     -1.776330
  N      -0.953998      1.006892     -1.099285
  N      -3.139847      0.749998     -0.362344
  N       0.533253     -0.760809     -1.679105
  C      -1.975681      0.172334     -0.769883
  C      -1.744513     -1.193052     -0.913082
  C       0.334004      0.594297     -1.547919
  C      -0.469711     -1.569057     -1.380045
  H      -1.093480      2.009697     -1.041152
  H      -2.504708     -1.924142     -0.667438
  H      -0.263567     -2.633410     -1.504539
  H      -3.848252      0.138840      0.016348
  H      -3.084031      1.673867      0.064429
31
Coordinates from ORCA-job phenylurea_cytosine_opt_freq E -850.821753591191
  N       0.336363      3.668560      0.803631
  C      -0.755513      3.057963      1.348868
  O      -1.893788      3.178644      0.864882
  N      -0.544991      2.314513      2.499828
  C       0.705301      1.702109      2.847689
  C       0.911193      0.345461      2.556190
  C       2.146584     -0.241503      2.840823
  C       3.167494      0.510449      3.429708
  C       2.949354      1.855877      3.739573
  C       1.718436      2.454360      3.453278
  H       0.214629      4.057449     -0.119688
  H       1.264591      3.335630      1.024455
  H      -1.380907      1.807555      2.762347
  H       0.117873     -0.229766      2.085097
  H       2.309880     -1.279020      2.563403
  H       4.129333      0.053093      3.642116
  H       3.738740      2.438077      4.206549
  H       1.526883      3.494935      3.698483
  O       1.102525      1.501882     -1.814705
  N      -1.006912      1.011201     -1.127282
  N      -3.179448      0.727077     -0.364757
  N       0.495094     -0.734926     -1.734934
  C      -2.015152      0.164206     -0.789031
  C      -1.768532     -1.197632     -0.945587
  C       0.281148      0.616351     -1.592962
  C      -0.497149     -1.556286     -1.433479
  H      -1.151203      2.011628     -1.039108
  H      -2.517999     -1.940718     -0.702494
  H      -0.282325     -2.617283     -1.570677
  H      -3.882421      0.111255      0.015996
  H      -3.129164      1.651728      0.058294
31
Coordinates from ORCA-job phenylurea_cytosine_opt_freq E -850.822069751576
  N       0.393004      3.610582      0.776050
  C      -0.709693      3.028765      1.328222
  O      -1.842567      3.145089      0.828223
  N      -0.520370      2.316970      2.501991
  C       0.725709      1.714088      2.882504
  C       0.943692      0.357745      2.600567
  C       2.179526     -0.223211      2.895759
  C       3.189632      0.535919      3.494741
  C       2.960150      1.880885      3.798139
  C       1.729722      2.472635      3.494504
  H       0.293799      3.949176     -0.169734
  H       1.314474      3.281254      1.028211
  H      -1.361884      1.821479      2.768481
  H       0.164235     -0.226440      2.116936
  H       2.351488     -1.260195      2.622216
  H       4.151928      0.084783      3.718430
  H       3.740519      2.470055      4.271363
  H       1.535481      3.515013      3.730249
  O       1.028385      1.543922     -1.859563
  N      -1.068090      1.018782     -1.159452
  N      -3.223438      0.703447     -0.364550
  N       0.449956     -0.701463     -1.801853
  C      -2.060035      0.156897     -0.812417
  C      -1.796455     -1.200200     -0.985388
  C       0.219675      0.644518     -1.644251
  C      -0.529362     -1.538272     -1.496989
  H      -1.220438      2.015120     -1.036402
  H      -2.534331     -1.956657     -0.747538
  H      -0.304502     -2.594941     -1.649796
  H      -3.917907      0.080171      0.018923
  H      -3.172388      1.626951      0.058932
31
Coordinates from ORCA-job phenylurea_cytosine_opt_freq E -850.822528938224
  N       0.459178      3.517867      0.733375
  C      -0.658533      2.989170      1.304749
  O      -1.788128      3.110866      0.794752
  N      -0.494665      2.320461      2.506638
  C       0.745576      1.727744      2.922407
  C       0.982279      0.373825      2.647643
  C       2.217442     -0.200148      2.956694
  C       3.213570      0.568577      3.568192
  C       2.968711      1.912481      3.865416
  C       1.737657      2.494415      3.543687
  H       0.380494      3.781930     -0.238426
  H       1.370378      3.184228      1.015634
  H      -1.344861      1.846770      2.785116
  H       0.219083     -0.219420      2.149249
  H       2.402869     -1.237653      2.695151
  H       4.176423      0.125236      3.805054
  H       3.736189      2.512104      4.346398
  H       1.540610      3.538435      3.770179
  O       0.943967      1.598518     -1.910786
  N      -1.136211      1.033314     -1.195253
  N      -3.267879      0.680882     -0.355844
  N       0.398930     -0.655888     -1.879366
  C      -2.108298      0.153389     -0.839641
  C      -1.827605     -1.197534     -1.034298
  C       0.150931      0.683083     -1.699943
  C      -0.565095     -1.510902     -1.571374
  H      -1.299534      2.023224     -1.031845
  H      -2.552910     -1.968438     -0.803746
  H      -0.328318     -2.561918     -1.743119
  H      -3.951265      0.046329      0.028323
  H      -3.211068      1.601919      0.071494
31
Coordinates from ORCA-job phenylurea_cytosine_opt_freq E -850.823105920342
  N       0.529153      3.390058      0.678338
  C      -0.606441      2.939682      1.277797
  O      -1.733747      3.077023      0.762699
  N      -0.470147      2.328458      2.513397
  C       0.761849      1.742102      2.961431
  C       1.021531      0.392207      2.690128
  C       2.255143     -0.173384      3.015887
  C       3.235238      0.606379      3.641058
  C       2.972348      1.948324      3.933618
  C       1.739701      2.518026      3.594787
  H       0.466121      3.554233     -0.317891
  H       1.426320      3.045276      0.990875
  H      -1.331498      1.887147      2.810272
  H       0.275153     -0.208951      2.176444
  H       2.457661     -1.211928      2.772754
  H       4.198605      0.171709      3.891753
  H       3.724322      2.560338      4.423328
  H       1.538002      3.562778      3.813720
  O       0.857759      1.663822     -1.962001
  N      -1.203907      1.056190     -1.230196
  N      -3.305381      0.660788     -0.335506
  N       0.347311     -0.598988     -1.958350
  C      -2.153779      0.156046     -0.867289
  C      -1.859014     -1.187605     -1.088816
  C       0.082169      0.731748     -1.752035
  C      -0.600059     -1.473545     -1.648934
  H      -1.378474      2.037462     -1.023282
  H      -2.571401     -1.972310     -0.864634
  H      -0.349762     -2.517814     -1.840779
  H      -3.973514      0.010164      0.047794
  H      -3.241345      1.577433      0.100142
31
Coordinates from ORCA-job phenylurea_cytosine_opt_freq E -850.823679490649
  N       0.580099      3.227352      0.611249
  C      -0.567341      2.884944      1.256978
  O      -1.698055      3.057845      0.756858
  N      -0.445302      2.342370      2.525943
  C       0.778252      1.756255      2.996189
  C       1.062282      0.411213      2.724532
  C       2.291935     -0.146037      3.073576
  C       3.255015      0.645802      3.712299
  C       2.974750      1.985943      3.998045
  C       1.740434      2.542386      3.642296
  H       0.512608      3.273369     -0.400316
  H       1.461178      2.859873      0.943700
  H      -1.319449      1.954018      2.858079
  H       0.331018     -0.195102      2.196457
  H       2.511513     -1.187501      2.860309
  H       4.217485      0.219228      3.979973
  H       3.710706      2.610881      4.495720
  H       1.531770      3.587199      3.853850
  O       0.781911      1.730764     -2.015072
  N      -1.260376      1.085807     -1.265651
  N      -3.327139      0.649959     -0.312272
  N       0.300225     -0.537999     -2.037132
  C      -2.189235      0.167015     -0.897509
  C      -1.887912     -1.169557     -1.148525
  C       0.022280      0.784027     -1.801366
  C      -0.632032     -1.430107     -1.728111
  H      -1.444618      2.058729     -1.022377
  H      -2.589225     -1.964959     -0.927755
  H      -0.369704     -2.467481     -1.939757
  H      -3.973771     -0.019916      0.074172
  H      -3.249387      1.556551      0.142124
31
Coordinates from ORCA-job phenylurea_cytosine_opt_freq E -850.824149905926
  N       0.635151      3.155632      0.593790
  C      -0.520730      2.842352      1.238749
  O      -1.646675      3.002635      0.722712
  N      -0.413727      2.348917      2.529601
  C       0.804191      1.770418      3.025764
  C       1.100338      0.425564      2.765311
  C       2.328274     -0.122948      3.134305
  C       3.278482      0.675737      3.782983
  C       2.987077      2.015393      4.058191
  C       1.755010      2.563333      3.681336
  H       0.589938      3.138036     -0.421656
  H       1.509850      2.807194      0.961605
  H      -1.292729      1.981807      2.871160
  H       0.381339     -0.184871      2.224242
  H       2.556789     -1.164465      2.930485
  H       4.239058      0.255004      4.066372
  H       3.712537      2.647283      4.562462
  H       1.539617      3.608924      3.881865
  O       0.701920      1.768042     -2.072145
  N      -1.323615      1.094622     -1.305452
  N      -3.367642      0.629176     -0.320661
  N       0.243276     -0.504409     -2.111345
  C      -2.235613      0.162374     -0.930757
  C      -1.925037     -1.168122     -1.199074
  C      -0.046599      0.810942     -1.859342
  C      -0.674596     -1.409559     -1.797722
  H      -1.508312      2.059653     -1.028399
  H      -2.614824     -1.973219     -0.977256
  H      -0.403285     -2.442028     -2.021562
  H      -3.995651     -0.051095      0.078391
  H      -3.283896      1.530547      0.142555
31
Coordinates from ORCA-job phenylurea_cytosine_opt_freq E -850.821080312545
  N       0.558174      3.393749      0.652690
  C      -0.554014      2.852080      1.244099
  O      -1.687261      2.885985      0.734081
  N      -0.368816      2.359787      2.539297
  C       0.843992      1.744825      2.968328
  C       1.101754      0.381301      2.733311
  C       2.312087     -0.154398      3.161657
  C       3.265770      0.640780      3.801689
  C       2.999360      1.987943      4.047615
  C       1.783150      2.540076      3.641744
  H       0.579230      3.480826     -0.378070
  H       1.459589      3.183260      1.058470
  H      -1.233132      2.007934      2.908300
  H       0.365710     -0.211549      2.201649
  H       2.511251     -1.206973      2.969827
  H       4.210996      0.209127      4.117105
  H       3.739495      2.601642      4.554248
  H       1.527756      3.578526      3.824686
  O       0.739204      1.671498     -2.132948
  N      -1.296807      1.061056     -1.346324
  N      -3.335636      0.624846     -0.346399
  N       0.216582     -0.582088     -2.125954
  C      -2.218975      0.145137     -0.962675
  C      -1.970765     -1.192468     -1.236582
  C      -0.043562      0.742917     -1.888671
  C      -0.710580     -1.464370     -1.804252
  H      -1.427087      2.036349     -1.095172
  H      -2.663345     -1.968055     -0.938415
  H      -0.448165     -2.505992     -1.998460
  H      -3.894960     -0.069277      0.131777
  H      -3.251079      1.498393      0.169855
31
Coordinates from ORCA-job phenylurea_cytosine_opt_freq E -850.824930864501
  N       0.591550      3.234566      0.598036
  C      -0.543185      2.853409      1.251500
  O      -1.681082      2.969235      0.759047
  N      -0.384973      2.361339      2.540849
  C       0.833835      1.763157      3.005982
  C       1.112630      0.408508      2.758348
  C       2.330883     -0.135031      3.164110
  C       3.279962      0.662187      3.813099
  C       3.000864      2.006903      4.068668
  C       1.777856      2.556975      3.670914
  H       0.555914      3.245125     -0.420070
  H       1.483523      2.935227      0.968192
  H      -1.262088      2.022860      2.915775
  H       0.387799     -0.194440      2.219663
  H       2.544952     -1.182816      2.972344
  H       4.230868      0.235396      4.118830
  H       3.731658      2.630316      4.576118
  H       1.543075      3.599766      3.862999
  O       0.713596      1.730710     -2.109959
  N      -1.316889      1.082517     -1.334460
  N      -3.358537      0.626727     -0.339223
  N       0.226642     -0.534584     -2.138170
  C      -2.232546      0.156189     -0.953080
  C      -1.947709     -1.177789     -1.230397
  C      -0.050359      0.785495     -1.889023
  C      -0.694938     -1.431164     -1.822292
  H      -1.480166      2.053305     -1.070588
  H      -2.636275     -1.972901     -0.973464
  H      -0.427857     -2.467205     -2.036565
  H      -3.950400     -0.061176      0.103021
  H      -3.268684      1.510062      0.156302
31
Coordinates from ORCA-job phenylurea_cytosine_opt_freq E -850.825343534824
  N       0.609588      3.098468      0.544094
  C      -0.527751      2.812685      1.238037
  O      -1.668201      2.959155      0.756182
  N      -0.373899      2.370519      2.544175
  C       0.841304      1.778106      3.029283
  C       1.130252      0.427302      2.778091
  C       2.348034     -0.115774      3.188149
  C       3.288793      0.684118      3.848033
  C       3.002359      2.028450      4.102214
  C       1.780000      2.575628      3.695160
  H       0.549760      3.040424     -0.471230
  H       1.493669      2.778188      0.916099
  H      -1.253454      2.059272      2.936830
  H       0.413707     -0.181821      2.233409
  H       2.568688     -1.162628      3.001322
  H       4.239115      0.260239      4.159562
  H       3.726197      2.656402      4.613794
  H       1.547720      3.620116      3.882134
  O       0.681064      1.782714     -2.109538
  N      -1.342691      1.106526     -1.340911
  N      -3.367784      0.623465     -0.321298
  N       0.213628     -0.487628     -2.168475
  C      -2.246537      0.168798     -0.956472
  C      -1.949785     -1.159461     -1.252406
  C      -0.073219      0.826767     -1.903531
  C      -0.701552     -1.395922     -1.859439
  H      -1.514291      2.072020     -1.060246
  H      -2.630730     -1.964467     -1.005593
  H      -0.429128     -2.426785     -2.089878
  H      -3.964321     -0.069672      0.105333
  H      -3.280618      1.507666      0.173624
31
Coordinates from ORCA-job phenylurea_cytosine_opt_freq E -850.825759932754
  N       0.634695      3.096658      0.542397
  C      -0.503035      2.809992      1.235751
  O      -1.644493      2.960470      0.758344
  N      -0.347833      2.370290      2.541470
  C       0.865069      1.784974      3.043429
  C       1.155139      0.431531      2.803998
  C       2.370303     -0.107791      3.230428
  C       3.303420      0.694063      3.897146
  C       3.014467      2.039478      4.140414
  C       1.797774      2.584890      3.714735
  H       0.583222      3.044355     -0.475074
  H       1.517905      2.782014      0.920812
  H      -1.229096      2.076322      2.942299
  H       0.445389     -0.180451      2.252781
  H       2.590309     -1.155580      3.047234
  H       4.249952      0.272049      4.222435
  H       3.733876      2.668069      4.657432
  H       1.562395      3.630385      3.891250
  O       0.635908      1.787901     -2.142895
  N      -1.379909      1.098233     -1.368546
  N      -3.392450      0.603263     -0.335143
  N       0.177576     -0.483101     -2.216038
  C      -2.274292      0.155036     -0.977688
  C      -1.972476     -1.170080     -1.282554
  C      -0.115366      0.827634     -1.943758
  C      -0.730750     -1.397371     -1.905169
  H      -1.547032      2.060582     -1.072099
  H      -2.646282     -1.980443     -1.033442
  H      -0.456450     -2.425583     -2.144760
  H      -3.982088     -0.090804      0.099482
  H      -3.305932      1.485884      0.161835
31
Coordinates from ORCA-job phenylurea_cytosine_opt_freq E -850.826235703178
  N       0.658117      3.037763      0.519752
  C      -0.475684      2.777436      1.229595
  O      -1.620955      2.920337      0.758751
  N      -0.310916      2.376472      2.546415
  C       0.898928      1.797784      3.063189
  C       1.192421      0.442410      2.837861
  C       2.401032     -0.091694      3.290719
  C       3.321273      0.714598      3.968732
  C       3.028815      2.062157      4.195347
  C       1.820597      2.603550      3.742625
  H       0.606144      2.962956     -0.498036
  H       1.542724      2.740055      0.908331
  H      -1.192668      2.118262      2.971557
  H       0.491561     -0.171856      2.277814
  H       2.622911     -1.140834      3.116584
  H       4.261339      0.294994      4.315180
  H       3.740181      2.693557      4.720035
  H       1.579818      3.650246      3.904143
  O       0.579904      1.808883     -2.188745
  N      -1.426735      1.103085     -1.405278
  N      -3.419036      0.584835     -0.345048
  N       0.128556     -0.461346     -2.286653
  C      -2.307218      0.150139     -1.006900
  C      -2.003503     -1.169896     -1.330643
  C      -0.168895      0.843939     -1.997450
  C      -0.770212     -1.384035     -1.973708
  H      -1.585979      2.060443     -1.087487
  H      -2.667295     -1.986504     -1.075050
  H      -0.493406     -2.408209     -2.227303
  H      -3.992159     -0.117087      0.099257
  H      -3.329741      1.460429      0.162923
31
Coordinates from ORCA-job phenylurea_cytosine_opt_freq E -850.826735074186
  N       0.662283      2.986399      0.493333
  C      -0.459774      2.743770      1.226446
  O      -1.612626      2.873091      0.769742
  N      -0.271416      2.382683      2.551023
  C       0.937352      1.811164      3.074540
  C       1.226814      0.452284      2.867123
  C       2.425541     -0.080450      3.348501
  C       3.332732      0.728869      4.039391
  C       3.042484      2.080475      4.246468
  C       1.847795      2.622040      3.762214
  H       0.596292      2.928375     -0.525076
  H       1.555075      2.710187      0.878208
  H      -1.146932      2.166650      3.010242
  H       0.532485     -0.164611      2.302543
  H       2.645356     -1.130837      3.178055
  H       4.263281      0.308995      4.410311
  H       3.747241      2.711441      4.780539
  H       1.603883      3.670483      3.906706
  O       0.542667      1.819284     -2.221947
  N      -1.462118      1.106364     -1.436995
  N      -3.434924      0.567074     -0.349955
  N       0.085141     -0.446844     -2.355391
  C      -2.329697      0.145576     -1.029461
  C      -2.029502     -1.169728     -1.374885
  C      -0.210076      0.854165     -2.045894
  C      -0.807442     -1.374960     -2.040940
  H      -1.607300      2.060008     -1.103942
  H      -2.684268     -1.990021     -1.107971
  H      -0.533569     -2.395678     -2.311155
  H      -3.998180     -0.140749      0.097981
  H      -3.348679      1.437369      0.166750
31
Coordinates from ORCA-job phenylurea_cytosine_opt_freq E -850.827184320435
  N       0.672314      2.885069      0.462856
  C      -0.440149      2.701146      1.224442
  O      -1.599799      2.841527      0.785890
  N      -0.234812      2.393164      2.558703
  C       0.972329      1.827448      3.090462
  C       1.268222      0.467241      2.898275
  C       2.456251     -0.062455      3.408570
  C       3.346880      0.753771      4.112674
  C       3.052880      2.106850      4.303240
  C       1.868880      2.643953      3.790808
  H       0.586694      2.802983     -0.553960
  H       1.568907      2.619250      0.844967
  H      -1.103266      2.238458      3.054162
  H       0.583471     -0.151635      2.325983
  H       2.682065     -1.113964      3.253685
  H       4.268652      0.336423      4.507824
  H       3.745715      2.742794      4.846942
  H       1.623023      3.693402      3.923250
  O       0.492580      1.843423     -2.268325
  N      -1.503872      1.117105     -1.474026
  N      -3.447805      0.552233     -0.349086
  N       0.034560     -0.418622     -2.436738
  C      -2.355246      0.145698     -1.059454
  C      -2.058470     -1.163534     -1.428629
  C      -0.258980      0.875021     -2.100119
  C      -0.848085     -1.355087     -2.118652
  H      -1.640441      2.063984     -1.116720
  H      -2.703655     -1.989172     -1.155110
  H      -0.574825     -2.370689     -2.408007
  H      -3.993188     -0.166878      0.102944
  H      -3.350912      1.413961      0.179656
31
Coordinates from ORCA-job phenylurea_cytosine_opt_freq E -850.827576682866
  N       0.685891      2.804780      0.441011
  C      -0.418845      2.664940      1.219243
  O      -1.582160      2.805681      0.787770
  N      -0.202054      2.399610      2.559658
  C       1.004018      1.844202      3.101906
  C       1.302659      0.482754      2.927133
  C       2.480025     -0.047141      3.459757
  C       3.355780      0.773602      4.177596
  C       3.059814      2.128278      4.354529
  C       1.887693      2.664431      3.814920
  H       0.584154      2.734042     -0.574777
  H       1.588276      2.553123      0.817437
  H      -1.060408      2.298535      3.084696
  H       0.626057     -0.139638      2.349590
  H       2.711109     -1.098319      3.311738
  H       4.269044      0.357670      4.593835
  H       3.741501      2.767436      4.908447
  H       1.643769      3.715528      3.938018
  O       0.451155      1.858818     -2.300804
  N      -1.540568      1.123295     -1.502318
  N      -3.457862      0.533656     -0.343346
  N      -0.014397     -0.397441     -2.512747
  C      -2.377633      0.142220     -1.081357
  C      -2.083755     -1.161473     -1.472138
  C      -0.301475      0.889279     -2.145689
  C      -0.888094     -1.340821     -2.189851
  H      -1.666078      2.062461     -1.120368
  H      -2.720236     -1.992432     -1.194218
  H      -0.619089     -2.351293     -2.500406
  H      -3.993654     -0.194090      0.106001
  H      -3.354718      1.391175      0.191244
31
Coordinates from ORCA-job phenylurea_cytosine_opt_freq E -850.827880311091
  N       0.701574      2.750939      0.427951
  C      -0.399534      2.644199      1.213977
  O      -1.563627      2.789698      0.785225
  N      -0.177887      2.403289      2.557607
  C       1.026399      1.856585      3.110441
  C       1.328509      0.495022      2.947596
  C       2.496868     -0.035421      3.496915
  C       3.361023      0.788516      4.226172
  C       3.061799      2.143587      4.395023
  C       1.898154      2.679161      3.835626
  H       0.591424      2.700275     -0.587755
  H       1.608499      2.510390      0.799550
  H      -1.027435      2.349672      3.103757
  H       0.658322     -0.131544      2.366899
  H       2.732777     -1.086485      3.356644
  H       4.268025      0.374385      4.657850
  H       3.733547      2.785400      4.957947
  H       1.655651      3.731221      3.953909
  O       0.418911      1.865102     -2.327905
  N      -1.567936      1.123973     -1.522961
  N      -3.459649      0.515692     -0.331806
  N      -0.057625     -0.384879     -2.577380
  C      -2.394608      0.135917     -1.097817
  C      -2.105450     -1.163365     -1.506004
  C      -0.334975      0.895415     -2.180644
  C      -0.924167     -1.332933     -2.249692
  H      -1.683319      2.055903     -1.119205
  H      -2.736049     -1.998275     -1.226563
  H      -0.661288     -2.338804     -2.579974
  H      -3.988857     -0.219080      0.113534
  H      -3.349160      1.369314      0.207591
31
Coordinates from ORCA-job phenylurea_cytosine_opt_freq E -850.828198931851
  N       0.723758      2.674463      0.409553
  C      -0.372655      2.618485      1.205020
  O      -1.536062      2.774204      0.777903
  N      -0.146886      2.408831      2.552937
  C       1.053534      1.873407      3.124836
  C       1.362133      0.512286      2.973724
  C       2.519591     -0.017061      3.544645
  C       3.368924      0.810069      4.288823
  C       3.062664      2.164469      4.449953
  C       1.908754      2.698398      3.866657
  H       0.606556      2.637134     -0.605733
  H       1.635836      2.451781      0.778460
  H      -0.984445      2.418510      3.120256
  H       0.700830     -0.120242      2.388439
  H       2.761022     -1.068150      3.415072
  H       4.268511      0.399282      4.738867
  H       3.720954      2.809501      5.024996
  H       1.666170      3.751112      3.979587
  O       0.375640      1.874434     -2.362340
  N      -1.603129      1.124316     -1.547749
  N      -3.458573      0.491150     -0.313203
  N      -0.117173     -0.365924     -2.663363
  C      -2.417278      0.127228     -1.118184
  C      -2.134915     -1.165269     -1.551452
  C      -0.379876      0.904414     -2.225610
  C      -0.974594     -1.320134     -2.331342
  H      -1.703938      2.045527     -1.113789
  H      -2.757838     -2.006136     -1.272727
  H      -0.721612     -2.318950     -2.689694
  H      -3.979270     -0.252184      0.127486
  H      -3.336718      1.337918      0.234480
31
Coordinates from ORCA-job phenylurea_cytosine_opt_freq E -850.828472043841
  N       0.735699      2.610089      0.395259
  C      -0.353794      2.596070      1.200254
  O      -1.517259      2.758501      0.776566
  N      -0.120221      2.414119      2.550652
  C       1.076933      1.887741      3.136841
  C       1.391112      0.527482      2.992587
  C       2.537882     -0.000103      3.583840
  C       3.374552      0.829547      4.340636
  C       3.060920      2.182775      4.497131
  C       1.915296      2.714760      3.894588
  H       0.612481      2.588737     -0.619359
  H       1.655076      2.414162      0.760351
  H      -0.943150      2.483168      3.135036
  H       0.736257     -0.110239      2.405188
  H       2.782425     -1.051663      3.464084
  H       4.267518      0.421903      4.806272
  H       3.707069      2.829757      5.083695
  H       1.669686      3.767173      4.004401
  O       0.347774      1.872641     -2.393093
  N      -1.625073      1.121488     -1.566097
  N      -3.448356      0.471961     -0.293775
  N      -0.172483     -0.354514     -2.743448
  C      -2.432058      0.119071     -1.134117
  C      -2.162383     -1.166814     -1.592514
  C      -0.413595      0.906016     -2.265259
  C      -1.024620     -1.310994     -2.407626
  H      -1.709144      2.033054     -1.108080
  H      -2.780823     -2.011096     -1.314150
  H      -0.787041     -2.303342     -2.793595
  H      -3.961222     -0.277624      0.145267
  H      -3.309541      1.309041      0.264971
31
Coordinates from ORCA-job phenylurea_cytosine_opt_freq E -850.828813660009
  N       0.747788      2.541203      0.381067
  C      -0.335008      2.571855      1.193690
  O      -1.497900      2.739347      0.771029
  N      -0.095762      2.420569      2.546945
  C       1.096880      1.903640      3.150460
  C       1.418226      0.545073      3.008359
  C       2.555306      0.020412      3.618416
  C       3.379862      0.851289      4.387794
  C       3.055474      2.202079      4.544803
  C       1.916525      2.731593      3.926255
  H       0.622233      2.528857     -0.633424
  H       1.675067      2.386003      0.745317
  H      -0.905319      2.544066      3.140699
  H       0.769270     -0.098068      2.420032
  H       2.801901     -1.031347      3.504023
  H       4.267560      0.447130      4.866033
  H       3.689117      2.849896      5.144034
  H       1.664588      3.782602      4.035817
  O       0.328322      1.865024     -2.418322
  N      -1.639227      1.116197     -1.577453
  N      -3.431029      0.453941     -0.268416
  N      -0.230985     -0.343866     -2.825626
  C      -2.442971      0.110398     -1.144758
  C      -2.191164     -1.167359     -1.633488
  C      -0.442758      0.904733     -2.302626
  C      -1.080664     -1.300612     -2.487936
  H      -1.702867      2.016820     -1.094264
  H      -2.807089     -2.014423     -1.357856
  H      -0.865270     -2.285110     -2.905863
  H      -3.938989     -0.299298      0.170180
  H      -3.271199      1.280226      0.301585
31
Coordinates from ORCA-job phenylurea_cytosine_opt_freq E -850.829318954500
  N       0.753693      2.470562      0.370545
  C      -0.321106      2.546691      1.190401
  O      -1.484695      2.715115      0.770414
  N      -0.074966      2.430511      2.545525
  C       1.112160      1.920629      3.164500
  C       1.443419      0.565462      3.016312
  C       2.571321      0.045152      3.644689
  C       3.384180      0.876335      4.426338
  C       3.044034      2.222689      4.591690
  C       1.908888      2.748369      3.962592
  H       0.627913      2.466719     -0.644562
  H       1.689908      2.379331      0.733613
  H      -0.872497      2.605242      3.142258
  H       0.797796     -0.082898      2.430322
  H       2.818795     -1.006719      3.531391
  H       4.268390      0.475971      4.913676
  H       3.664278      2.869648      5.205774
  H       1.644203      3.795755      4.076973
  O       0.329914      1.837871     -2.440835
  N      -1.633569      1.103910     -1.577849
  N      -3.397633      0.440665     -0.234837
  N      -0.295545     -0.340742     -2.915593
  C      -2.443208      0.100549     -1.148390
  C      -2.224106     -1.166597     -1.676651
  C      -0.460282      0.891723     -2.338911
  C      -1.149501     -1.291791     -2.577462
  H      -1.670860      1.993172     -1.071076
  H      -2.843616     -2.012693     -1.405836
  H      -0.970894     -2.266114     -3.034831
  H      -3.902374     -0.312793      0.207375
  H      -3.204125      1.251147      0.348952
31
Coordinates from ORCA-job phenylurea_cytosine_opt_freq E -850.829839059135
  N       0.769622      2.394721      0.367784
  C      -0.301329      2.517731      1.187158
  O      -1.464858      2.688119      0.765710
  N      -0.056185      2.443039      2.544433
  C       1.123480      1.939127      3.182213
  C       1.468479      0.588495      3.024823
  C       2.592002      0.075772      3.668765
  C       3.392457      0.906240      4.462063
  C       3.032544      2.246599      4.639235
  C       1.898598      2.765936      4.002515
  H       0.650807      2.385975     -0.649807
  H       1.708634      2.367727      0.734720
  H      -0.852910      2.650492      3.131710
  H       0.826103     -0.063696      2.439542
  H       2.842569     -0.974789      3.548657
  H       4.275474      0.510223      4.954747
  H       3.639121      2.892785      5.267665
  H       1.618285      3.808565      4.122699
  O       0.332843      1.808132     -2.460050
  N      -1.624004      1.088584     -1.573012
  N      -3.369137      0.427060     -0.205733
  N      -0.361841     -0.334855     -3.001744
  C      -2.443153      0.089673     -1.149435
  C      -2.260875     -1.164115     -1.721715
  C      -0.478747      0.878017     -2.375073
  C      -1.223227     -1.279558     -2.666291
  H      -1.634507      1.965961     -1.041616
  H      -2.886924     -2.008060     -1.458863
  H      -1.084742     -2.240826     -3.163381
  H      -3.872372     -0.324575      0.241738
  H      -3.146288      1.224371      0.387050
31
Coordinates from ORCA-job phenylurea_cytosine_opt_freq E -850.830265159931
  N       0.780272      2.339986      0.372145
  C      -0.287757      2.496260      1.189902
  O      -1.452688      2.666455      0.768868
  N      -0.045257      2.455637      2.547767
  C       1.127870      1.951439      3.195228
  C       1.485765      0.605880      3.028510
  C       2.608890      0.099699      3.680637
  C       3.398401      0.931226      4.482107
  C       3.021568      2.266677      4.670068
  C       1.886790      2.779390      4.030316
  H       0.666720      2.335802     -0.646966
  H       1.718981      2.353449      0.741051
  H      -0.848207      2.674004      3.121927
  H       0.843270     -0.046762      2.443521
  H       2.865809     -0.948304      3.550771
  H       4.282248      0.539161      4.976345
  H       3.617477      2.913204      5.308252
  H       1.593274      3.817727      4.155813
  O       0.350871      1.772523     -2.469933
  N      -1.601606      1.071986     -1.559321
  N      -3.345384      0.419144     -0.186131
  N      -0.410506     -0.333764     -3.063578
  C      -2.435284      0.081284     -1.145823
  C      -2.291670     -1.160022     -1.756017
  C      -0.483546      0.860661     -2.398469
  C      -1.283275     -1.269949     -2.731468
  H      -1.592388      1.941026     -1.012756
  H      -2.929873     -1.997600     -1.501819
  H      -1.182000     -2.218359     -3.260900
  H      -3.847980     -0.331236      0.264257
  H      -3.100870      1.206244      0.412202
31
Coordinates from ORCA-job phenylurea_cytosine_opt_freq E -850.830660256554
  N       0.802573      2.279815      0.379403
  C      -0.264219      2.473312      1.190798
  O      -1.428022      2.650703      0.765599
  N      -0.029632      2.468483      2.549932
  C       1.135513      1.964542      3.210700
  C       1.507156      0.622851      3.041619
  C       2.632375      0.124669      3.701139
  C       3.407074      0.958789      4.512261
  C       3.015782      2.290012      4.703886
  C       1.882951      2.795327      4.055804
  H       0.695964      2.275026     -0.641520
  H       1.739056      2.299429      0.754068
  H      -0.844003      2.691405      3.106734
  H       0.868005     -0.029340      2.451435
  H       2.901364     -0.919233      3.563412
  H       4.290620      0.571451      5.010881
  H       3.600271      2.939497      5.349535
  H       1.581727      3.831361      4.181416
  O       0.349043      1.753902     -2.481844
  N      -1.595637      1.059011     -1.552066
  N      -3.337238      0.401684     -0.175312
  N      -0.458200     -0.321505     -3.119590
  C      -2.437117      0.071875     -1.148397
  C      -2.324777     -1.156120     -1.793930
  C      -0.501768      0.854862     -2.423762
  C      -1.338662     -1.254980     -2.792352
  H      -1.571314      1.918602     -0.987628
  H      -2.972955     -1.988924     -1.549456
  H      -1.263446     -2.189520     -3.349780
  H      -3.840921     -0.350805      0.270144
  H      -3.091643      1.186686      0.423376
31
Coordinates from ORCA-job phenylurea_cytosine_opt_freq E -850.831016700038
  N       0.813555      2.243624      0.382611
  C      -0.248975      2.461954      1.192663
  O      -1.412443      2.644081      0.765675
  N      -0.019296      2.480033      2.552970
  C       1.138151      1.971673      3.220053
  C       1.520466      0.633388      3.050842
  C       2.648509      0.139695      3.710925
  C       3.408313      0.979083      4.531132
  C       3.008234      2.308044      4.722884
  C       1.878176      2.808160      4.067382
  H       0.705805      2.255400     -0.637508
  H       1.749915      2.242789      0.757849
  H      -0.844748      2.699027      3.093752
  H       0.881983     -0.015338      2.454596
  H       2.932717     -0.899465      3.569524
  H       4.291601      0.596129      5.033867
  H       3.583816      2.961395      5.372553
  H       1.574496      3.843581      4.191838
  O       0.364866      1.728745     -2.479690
  N      -1.576024      1.044711     -1.532072
  N      -3.324423      0.385246     -0.163402
  N      -0.490808     -0.313097     -3.156443
  C      -2.429909      0.063872     -1.144396
  C      -2.352096     -1.151226     -1.822101
  C      -0.504062      0.845438     -2.432204
  C      -1.382410     -1.241550     -2.835754
  H      -1.543095      1.897151     -0.958025
  H      -3.016098     -1.974949     -1.590202
  H      -1.331053     -2.161539     -3.419197
  H      -3.833147     -0.371103      0.268741
  H      -3.082098      1.167918      0.437644
31
Coordinates from ORCA-job phenylurea_cytosine_opt_freq E -850.831326462705
  N       0.829624      2.191326      0.382426
  C      -0.224430      2.445201      1.191597
  O      -1.385682      2.638374      0.763494
  N       0.007481      2.489948      2.551894
  C       1.157328      1.984784      3.233600
  C       1.547538      0.646182      3.074775
  C       2.672684      0.159371      3.747494
  C       3.413072      1.002829      4.581271
  C       3.009235      2.330845      4.760456
  C       1.890004      2.826516      4.083673
  H       0.716075      2.205921     -0.637370
  H       1.766634      2.162340      0.754438
  H      -0.817758      2.735270      3.083581
  H       0.917608     -0.001996      2.467889
  H       2.970220     -0.877025      3.615628
  H       4.289445      0.623761      5.099110
  H       3.573118      2.989009      5.415503
  H       1.588208      3.863577      4.198491
  O       0.341298      1.727097     -2.495954
  N      -1.589341      1.035937     -1.536588
  N      -3.316996      0.351866     -0.154556
  N      -0.539682     -0.290323     -3.211929
  C      -2.441030      0.051436     -1.158038
  C      -2.386168     -1.149212     -1.866069
  C      -0.534891      0.849808     -2.458557
  C      -1.433128     -1.221836     -2.897453
  H      -1.544252      1.877630     -0.944750
  H      -3.055279     -1.971005     -1.642821
  H      -1.395666     -2.127020     -3.504637
  H      -3.830663     -0.410467      0.260050
  H      -3.084690      1.132724      0.449861
31
Coordinates from ORCA-job phenylurea_cytosine_opt_freq E -850.831550979903
  N       0.851435      2.189398      0.375555
  C      -0.204401      2.444595      1.182105
  O      -1.361739      2.636539      0.745168
  N       0.021005      2.492033      2.545953
  C       1.162529      1.990277      3.239002
  C       1.552915      0.650552      3.087584
  C       2.677595      0.165343      3.759231
  C       3.404733      1.012697      4.603719
  C       3.005286      2.342292      4.771813
  C       1.895003      2.837966      4.081216
  H       0.732603      2.205346     -0.642821
  H       1.787445      2.125845      0.746234
  H      -0.811181      2.734249      3.065505
  H       0.928730      0.004545      2.471206
  H       2.984999     -0.869043      3.636561
  H       4.276385      0.635600      5.130976
  H       3.565156      3.002896      5.427817
  H       1.598570      3.877635      4.186932
  O       0.340712      1.723365     -2.483440
  N      -1.587821      1.027394     -1.518467
  N      -3.307397      0.320267     -0.137488
  N      -0.560820     -0.274688     -3.225836
  C      -2.444351      0.041491     -1.155436
  C      -2.407460     -1.147075     -1.886121
  C      -0.541488      0.852462     -2.452096
  C      -1.460580     -1.205592     -2.923591
  H      -1.539813      1.861271     -0.920549
  H      -3.085635     -1.965014     -1.676999
  H      -1.431098     -2.098063     -3.549698
  H      -3.838919     -0.443118      0.250657
  H      -3.092484      1.101405      0.471814
31
Coordinates from ORCA-job phenylurea_cytosine_opt_freq E -850.831757114258
  N       0.851644      2.156466      0.370829
  C      -0.192636      2.431607      1.185479
  O      -1.352564      2.623715      0.758537
  N       0.048707      2.498505      2.545520
  C       1.186827      2.002244      3.247516
  C       1.577929      0.660023      3.106991
  C       2.693322      0.180362      3.797863
  C       3.405331      1.029861      4.653570
  C       3.007375      2.360374      4.805990
  C       1.909824      2.853464      4.093365
  H       0.717527      2.168410     -0.645779
  H       1.793089      2.100064      0.727932
  H      -0.769082      2.785552      3.066692
  H       0.962889      0.012884      2.483782
  H       3.002182     -0.855545      3.692223
  H       4.266410      0.654250      5.198943
  H       3.558029      3.023130      5.467614
  H       1.612839      3.894187      4.187298
  O       0.324535      1.711632     -2.502724
  N      -1.595501      1.015495     -1.527763
  N      -3.285236      0.288350     -0.126731
  N      -0.609804     -0.259177     -3.282671
  C      -2.452072      0.027136     -1.172430
  C      -2.438592     -1.145155     -1.929062
  C      -0.564467      0.848038     -2.478085
  C      -1.512144     -1.188218     -2.986628
  H      -1.532041      1.840269     -0.917080
  H      -3.118658     -1.962629     -1.724600
  H      -1.502520     -2.065875     -3.634051
  H      -3.825136     -0.474200      0.250821
  H      -3.058089      1.057646      0.493145
31
Coordinates from ORCA-job phenylurea_cytosine_opt_freq E -850.831932844957
  N       0.867993      2.153818      0.369572
  C      -0.179105      2.424245      1.183584
  O      -1.339889      2.607022      0.756499
  N       0.063063      2.499361      2.542375
  C       1.198946      2.010620      3.252264
  C       1.587104      0.666055      3.118387
  C       2.698060      0.189454      3.817594
  C       3.403108      1.039229      4.678986
  C       3.008230      2.371377      4.821987
  C       1.918187      2.863622      4.097754
  H       0.730520      2.146560     -0.647017
  H       1.810925      2.113851      0.725112
  H      -0.752273      2.797762      3.060653
  H       0.979857      0.017532      2.490267
  H       3.002987     -0.848408      3.718333
  H       4.258068      0.663563      5.233726
  H       3.555963      3.033996      5.486133
  H       1.619993      3.904853      4.182847
  O       0.317714      1.704541     -2.505671
  N      -1.599600      1.005135     -1.526824
  N      -3.276557      0.263538     -0.118680
  N      -0.636972     -0.249428     -3.306972
  C      -2.459783      0.015587     -1.179243
  C      -2.458718     -1.143843     -1.952470
  C      -0.574919      0.845522     -2.485531
  C      -1.543258     -1.175200     -3.020104
  H      -1.528386      1.823230     -0.908621
  H      -3.139843     -1.962147     -1.754712
  H      -1.546928     -2.042450     -3.681534
  H      -3.831002     -0.492562      0.250298
  H      -3.043567      1.026435      0.507515
31
Coordinates from ORCA-job phenylurea_cytosine_opt_freq E -850.832107297059
  N       0.883291      2.160729      0.369916
  C      -0.167652      2.418607      1.184338
  O      -1.331631      2.585628      0.759098
  N       0.074276      2.502601      2.541431
  C       1.209572      2.019060      3.255140
  C       1.594295      0.672676      3.128768
  C       2.701862      0.198568      3.834508
  C       3.400063      1.049392      4.700214
  C       3.008183      2.383717      4.834254
  C       1.924888      2.874787      4.100018
  H       0.743731      2.132891     -0.646280
  H       1.827045      2.141848      0.725130
  H      -0.741958      2.804307      3.056636
  H       0.995443      0.023267      2.495798
  H       3.000590     -0.841464      3.737932
  H       4.249488      0.673436      5.263150
  H       3.553618      3.046354      5.500215
  H       1.624591      3.916148      4.176266
  O       0.327126      1.682965     -2.501711
  N      -1.590127      0.985819     -1.516558
  N      -3.265279      0.238196     -0.109901
  N      -0.663697     -0.243021     -3.330131
  C      -2.462102      0.000591     -1.182717
  C      -2.482685     -1.140954     -1.978285
  C      -0.574531      0.834169     -2.487578
  C      -1.579882     -1.160353     -3.056663
  H      -1.512678      1.797264     -0.890824
  H      -3.170040     -1.956587     -1.790931
  H      -1.605683     -2.012259     -3.737433
  H      -3.840221     -0.507069      0.248974
  H      -3.019979      0.991558      0.523733
31
Coordinates from ORCA-job phenylurea_cytosine_opt_freq E -850.832241004456
  N       0.899145      2.152099      0.374376
  C      -0.154088      2.408174      1.185954
  O      -1.320151      2.563262      0.759227
  N       0.085035      2.507267      2.541829
  C       1.220319      2.029034      3.259903
  C       1.605406      0.682845      3.141789
  C       2.710905      0.212005      3.853968
  C       3.401249      1.064397      4.723449
  C       3.008473      2.399818      4.849858
  C       1.930518      2.888277      4.106291
  H       0.761493      2.109156     -0.641779
  H       1.841895      2.145745      0.732652
  H      -0.732341      2.811559      3.053387
  H       1.015448      0.031814      2.503134
  H       3.006431     -0.828930      3.757411
  H       4.246579      0.689551      5.293327
  H       3.549379      3.064394      5.517534
  H       1.628700      3.929678      4.176002
  O       0.334576      1.660253     -2.498630
  N      -1.580680      0.964702     -1.507043
  N      -3.257480      0.213911     -0.104949
  N      -0.694502     -0.233175     -3.359114
  C      -2.464989     -0.014548     -1.187882
  C      -2.509808     -1.136817     -2.008132
  C      -0.577215      0.822481     -2.493341
  C      -1.620964     -1.142803     -3.098069
  H      -1.497395      1.768191     -0.870379
  H      -3.205383     -1.948080     -1.832334
  H      -1.670572     -1.976481     -3.799837
  H      -3.849840     -0.522597      0.242714
  H      -3.000224      0.957689      0.535192
31
Coordinates from ORCA-job phenylurea_cytosine_opt_freq E -850.832373652810
  N       0.906365      2.163341      0.379724
  C      -0.148722      2.406195      1.191996
  O      -1.318263      2.546644      0.766794
  N       0.089807      2.513482      2.547302
  C       1.228193      2.034935      3.260862
  C       1.611475      0.688385      3.151059
  C       2.716482      0.219327      3.866520
  C       3.403243      1.074644      4.734918
  C       3.012845      2.411822      4.853177
  C       1.937770      2.897947      4.105355
  H       0.770132      2.100690     -0.635961
  H       1.847543      2.155576      0.742290
  H      -0.729905      2.809402      3.060006
  H       1.030761      0.034466      2.507313
  H       3.007034     -0.823064      3.770892
  H       4.246280      0.700810      5.308960
  H       3.552920      3.078987      5.518932
  H       1.636643      3.939845      4.169505
  O       0.352187      1.637137     -2.489750
  N      -1.566004      0.941897     -1.495057
  N      -3.257525      0.196374     -0.106246
  N      -0.706259     -0.230294     -3.369497
  C      -2.466078     -0.027383     -1.191754
  C      -2.531876     -1.132919     -2.031660
  C      -0.568536      0.808787     -2.489383
  C      -1.645799     -1.130690     -3.123293
  H      -1.485024      1.741838     -0.852724
  H      -3.238617     -1.936873     -1.867279
  H      -1.711833     -1.948756     -3.841907
  H      -3.870645     -0.530781      0.224310
  H      -2.994675      0.931097      0.541104
31
Coordinates from ORCA-job phenylurea_cytosine_opt_freq E -850.832495686418
  N       0.919324      2.141391      0.385104
  C      -0.135444      2.392655      1.192889
  O      -1.305578      2.524913      0.763587
  N       0.099706      2.518681      2.547670
  C       1.238447      2.046095      3.267596
  C       1.626514      0.702065      3.166716
  C       2.730043      0.236972      3.889195
  C       3.410209      1.095077      4.758766
  C       3.013336      2.431655      4.871051
  C       1.940578      2.913423      4.115980
  H       0.786886      2.073033     -0.630714
  H       1.858784      2.135226      0.751900
  H      -0.720040      2.817888      3.058637
  H       1.057202      0.043452      2.516595
  H       3.020862     -0.805135      3.792522
  H       4.251765      0.725408      5.337735
  H       3.546529      3.103482      5.537699
  H       1.638604      3.955153      4.177823
  O       0.362384      1.606725     -2.479652
  N      -1.551811      0.914925     -1.482730
  N      -3.250472      0.172849     -0.103817
  N      -0.739224     -0.218048     -3.403307
  C      -2.468431     -0.042951     -1.198067
  C      -2.564232     -1.125923     -2.067096
  C      -0.570701      0.792055     -2.494682
  C      -1.692262     -1.109074     -3.169990
  H      -1.463186      1.704585     -0.824864
  H      -3.284999     -1.920270     -1.917796
  H      -1.783997     -1.903195     -3.912180
  H      -3.881598     -0.546786      0.208143
  H      -2.979280      0.896543      0.551793
31
Coordinates from ORCA-job phenylurea_cytosine_opt_freq E -850.832654009999
  N       0.919959      2.153447      0.391472
  C      -0.135796      2.393692      1.199632
  O      -1.306944      2.517505      0.769771
  N       0.099348      2.520069      2.555157
  C       1.241697      2.047209      3.270376
  C       1.630932      0.704054      3.173498
  C       2.735249      0.240693      3.896290
  C       3.419718      1.102682      4.758262
  C       3.021243      2.439134      4.867380
  C       1.944533      2.917468      4.116108
  H       0.789549      2.073230     -0.624050
  H       1.857610      2.132229      0.762432
  H      -0.720959      2.804907      3.072348
  H       1.069451      0.040329      2.519052
  H       3.025804     -0.801604      3.801470
  H       4.264182      0.736623      5.335295
  H       3.555470      3.115163      5.529008
  H       1.643701      3.959399      4.178755
  O       0.374570      1.592530     -2.468113
  N      -1.542964      0.899584     -1.474856
  N      -3.266397      0.171434     -0.116990
  N      -0.734170     -0.221803     -3.399765
  C      -2.474299     -0.046467     -1.203581
  C      -2.577111     -1.122643     -2.081155
  C      -0.562542      0.781657     -2.487243
  C      -1.696510     -1.106549     -3.175883
  H      -1.458385      1.687943     -0.814474
  H      -3.309580     -1.908038     -1.942241
  H      -1.788801     -1.894504     -3.924431
  H      -3.909218     -0.545718      0.176428
  H      -2.999421      0.889213      0.546552
31
Coordinates from ORCA-job phenylurea_cytosine_opt_freq E -850.832867624891
  N       0.920112      2.160994      0.396267
  C      -0.136063      2.391307      1.206377
  O      -1.307915      2.505582      0.777647
  N       0.102178      2.520420      2.562105
  C       1.246129      2.048987      3.276761
  C       1.639687      0.706958      3.182592
  C       2.743297      0.248080      3.908692
  C       3.434270      1.114974      4.760510
  C       3.029991      2.449575      4.867927
  C       1.946622      2.921861      4.121753
  H       0.788268      2.067678     -0.618470
  H       1.857634      2.128295      0.766956
  H      -0.719208      2.790247      3.086262
  H       1.089933      0.036477      2.523353
  H       3.038146     -0.793470      3.818344
  H       4.283155      0.754973      5.334650
  H       3.564026      3.131029      5.524247
  H       1.643961      3.963023      4.186957
  O       0.386895      1.571465     -2.453983
  N      -1.532684      0.880799     -1.465415
  N      -3.282623      0.170654     -0.131586
  N      -0.731738     -0.226858     -3.401488
  C      -2.483996     -0.048601     -1.212506
  C      -2.597144     -1.116095     -2.102639
  C      -0.556049      0.766461     -2.479853
  C      -1.706104     -1.102922     -3.188635
  H      -1.443415      1.664374     -0.799200
  H      -3.345784     -1.888411     -1.977661
  H      -1.798552     -1.884172     -3.944197
  H      -3.939237     -0.542877      0.139780
  H      -3.023877      0.882059      0.540959
31
Coordinates from ORCA-job phenylurea_cytosine_opt_freq E -850.833058783315
  N       0.927441      2.172595      0.402978
  C      -0.132153      2.386020      1.214094
  O      -1.304065      2.488091      0.785518
  N       0.107097      2.515164      2.569324
  C       1.250977      2.048939      3.287116
  C       1.650233      0.707942      3.194195
  C       2.753290      0.255718      3.923472
  C       3.451834      1.129090      4.763269
  C       3.040166      2.461458      4.869492
  C       1.948352      2.925464      4.129152
  H       0.793468      2.064606     -0.610316
  H       1.865014      2.133802      0.772673
  H      -0.717857      2.761553      3.099058
  H       1.112909      0.032871      2.528659
  H       3.056837     -0.783897      3.838048
  H       4.306302      0.776133      5.333216
  H       3.574729      3.148727      5.519332
  H       1.640729      3.965127      4.195267
  O       0.392510      1.552598     -2.439853
  N      -1.528685      0.864074     -1.456911
  N      -3.310243      0.173549     -0.154672
  N      -0.728589     -0.235110     -3.401382
  C      -2.501401     -0.047997     -1.225892
  C      -2.618206     -1.109061     -2.125071
  C      -0.554541      0.752130     -2.472796
  C      -1.713342     -1.102747     -3.199197
  H      -1.430912      1.641507     -0.784850
  H      -3.382187     -1.868731     -2.016409
  H      -1.802263     -1.881933     -3.957286
  H      -3.978947     -0.534928      0.100129
  H      -3.058582      0.880116      0.526147
31
Coordinates from ORCA-job phenylurea_cytosine_opt_freq E -850.833185113036
  N       0.936551      2.178076      0.407268
  C      -0.126085      2.377584      1.219354
  O      -1.298860      2.466521      0.791929
  N       0.113749      2.512344      2.573185
  C       1.256394      2.050578      3.295152
  C       1.660894      0.709849      3.203591
  C       2.762770      0.264261      3.937348
  C       3.463546      1.142758      4.770352
  C       3.046122      2.473164      4.875270
  C       1.949798      2.929864      4.136369
  H       0.799247      2.056386     -0.604144
  H       1.875043      2.144511      0.774831
  H      -0.717261      2.738587      3.104025
  H       1.135326      0.032884      2.533310
  H       3.075122     -0.773148      3.855005
  H       4.320854      0.794376      5.338686
  H       3.580026      3.164098      5.521735
  H       1.635575      3.967704      4.200293
  O       0.397478      1.533513     -2.428160
  N      -1.525423      0.848197     -1.449179
  N      -3.326121      0.170572     -0.167990
  N      -0.731455     -0.239999     -3.406055
  C      -2.515770     -0.049653     -1.237708
  C      -2.640103     -1.101043     -2.147823
  C      -0.554171      0.738834     -2.467721
  C      -1.726297     -1.099101     -3.215419
  H      -1.415770      1.617360     -0.769265
  H      -3.415673     -1.850738     -2.052535
  H      -1.817648     -1.874104     -3.977593
  H      -4.010183     -0.526354      0.077207
  H      -3.077757      0.874988      0.515188
31
Coordinates from ORCA-job phenylurea_cytosine_opt_freq E -850.833283624836
  N       0.946721      2.178504      0.412820
  C      -0.118175      2.367579      1.225331
  O      -1.292049      2.445127      0.798618
  N       0.120560      2.508014      2.577448
  C       1.262507      2.051055      3.302690
  C       1.672395      0.711120      3.212159
  C       2.773666      0.271639      3.949630
  C       3.472713      1.155484      4.779061
  C       3.050816      2.484785      4.881530
  C       1.952143      2.934660      4.141514
  H       0.806398      2.048772     -0.597040
  H       1.885790      2.151882      0.779095
  H      -0.715889      2.715398      3.107527
  H       1.155037      0.034776      2.536998
  H       3.095149     -0.763201      3.869228
  H       4.331486      0.810352      5.347202
  H       3.583618      3.178732      5.525577
  H       1.630932      3.970708      4.200692
  O       0.398145      1.519739     -2.419257
  N      -1.527364      0.836251     -1.445120
  N      -3.343468      0.168797     -0.182293
  N      -0.734866     -0.243757     -3.409997
  C      -2.530976     -0.050923     -1.250148
  C      -2.658445     -1.094079     -2.168065
  C      -0.556548      0.729434     -2.464837
  C      -1.736937     -1.096064     -3.229549
  H      -1.409030      1.598029     -0.758555
  H      -3.441297     -1.837567     -2.084077
  H      -1.830771     -1.868572     -3.993883
  H      -4.040269     -0.515918      0.060605
  H      -3.092073      0.872113      0.501605
31
Coordinates from ORCA-job phenylurea_cytosine_opt_freq E -850.833385138689
  N       0.955230      2.170457      0.417418
  C      -0.110546      2.355551      1.229901
  O      -1.285864      2.422290      0.803734
  N       0.126845      2.506141      2.580473
  C       1.268788      2.052775      3.307809
  C       1.685191      0.714193      3.217763
  C       2.785875      0.280227      3.959229
  C       3.479231      1.168437      4.788775
  C       3.053093      2.496372      4.889347
  C       1.954121      2.940216      4.146446
  H       0.812427      2.037633     -0.591620
  H       1.894838      2.155440      0.782693
  H      -0.715891      2.696268      3.108142
  H       1.174888      0.038304      2.539110
  H       3.116175     -0.751839      3.878993
  H       4.338074      0.825302      5.358137
  H       3.583385      3.192257      5.533287
  H       1.625568      3.974233      4.200728
  O       0.401479      1.504692     -2.408102
  N      -1.528970      0.824032     -1.441690
  N      -3.354406      0.165084     -0.190666
  N      -0.738708     -0.245836     -3.413940
  C      -2.544124     -0.053281     -1.260842
  C      -2.677330     -1.085912     -2.188538
  C      -0.557168      0.719946     -2.460859
  C      -1.749291     -1.090375     -3.245453
  H      -1.402487      1.577333     -0.747055
  H      -3.466323     -1.823973     -2.114386
  H      -1.848241     -1.858284     -4.013749
  H      -4.066816     -0.503649      0.050418
  H      -3.099129      0.868837      0.491005
31
Coordinates from ORCA-job phenylurea_cytosine_opt_freq E -850.833525370098
  N       0.964057      2.147490      0.424675
  C      -0.100338      2.336758      1.237303
  O      -1.277793      2.392281      0.812743
  N       0.136538      2.503577      2.585602
  C       1.279647      2.055416      3.314523
  C       1.706658      0.720253      3.224570
  C       2.806426      0.293541      3.972103
  C       3.487902      1.187504      4.805292
  C       3.055479      2.513659      4.901868
  C       1.957922      2.949455      4.152784
  H       0.818307      2.016190     -0.584256
  H       1.904461      2.148757      0.788162
  H      -0.711376      2.677277      3.110598
  H       1.203158      0.044758      2.541225
  H       3.147576     -0.734998      3.893270
  H       4.345337      0.847412      5.378822
  H       3.580091      3.212570      5.547094
  H       1.620081      3.980814      4.200721
  O       0.405410      1.484118     -2.394051
  N      -1.532631      0.808192     -1.439624
  N      -3.368849      0.160012     -0.203013
  N      -0.746404     -0.246733     -3.421350
  C      -2.561414     -0.056914     -1.275865
  C      -2.703290     -1.074407     -2.217483
  C      -0.559321      0.707689     -2.457322
  C      -1.768358     -1.080150     -3.268892
  H      -1.399367      1.551121     -0.734962
  H      -3.499953     -1.805427     -2.156271
  H      -1.874910     -1.839726     -4.044299
  H      -4.100207     -0.489172      0.033780
  H      -3.104921      0.861552      0.478760
31
Coordinates from ORCA-job phenylurea_cytosine_opt_freq E -850.833724897274
  N       0.971358      2.111986      0.433440
  C      -0.090318      2.311693      1.245450
  O      -1.270280      2.353890      0.823301
  N       0.147363      2.500819      2.591226
  C       1.293748      2.059579      3.320535
  C       1.736115      0.729864      3.228807
  C       2.834747      0.311320      3.983148
  C       3.499439      1.210705      4.823615
  C       3.057864      2.533786      4.916998
  C       1.962482      2.960556      4.160715
  H       0.824066      1.987908     -0.576554
  H       1.912446      2.141537      0.793950
  H      -0.705871      2.655607      3.114447
  H       1.239664      0.052523      2.541893
  H       3.187595     -0.713153      3.904900
  H       4.354721      0.874684      5.402963
  H       3.573731      3.235841      5.565816
  H       1.613614      3.988407      4.204218
  O       0.414479      1.455858     -2.370808
  N      -1.537783      0.788630     -1.437850
  N      -3.388210      0.156312     -0.217773
  N      -0.750589     -0.250005     -3.424606
  C      -2.583001     -0.060129     -1.292823
  C      -2.734810     -1.058753     -2.251843
  C      -0.558596      0.690851     -2.448418
  C      -1.788614     -1.067189     -3.293915
  H      -1.398926      1.518789     -0.720573
  H      -3.541840     -1.779507     -2.206805
  H      -1.902279     -1.815804     -4.078855
  H      -4.144334     -0.468135      0.006635
  H      -3.118063      0.854399      0.465270
31
Coordinates from ORCA-job phenylurea_cytosine_opt_freq E -850.833994310368
  N       0.979014      2.054416      0.445425
  C      -0.076836      2.276110      1.257375
  O      -1.260217      2.303098      0.841717
  N       0.166153      2.498020      2.598395
  C       1.316869      2.067986      3.329602
  C       1.780691      0.746484      3.236748
  C       2.876729      0.339499      4.002290
  C       3.516379      1.245019      4.855080
  C       3.061105      2.563477      4.941850
  C       1.970387      2.978126      4.173428
  H       0.829186      1.935832     -0.565803
  H       1.921362      2.123633      0.797879
  H      -0.688385      2.642624      3.121718
  H       1.293788      0.065992      2.544894
  H       3.241561     -0.680964      3.928841
  H       4.367021      0.916762      5.445762
  H       3.561817      3.271003      5.596595
  H       1.609282      4.001885      4.213331
  O       0.427214      1.410111     -2.343412
  N      -1.540830      0.758718     -1.433951
  N      -3.411617      0.145522     -0.239731
  N      -0.766682     -0.251291     -3.437809
  C      -2.608440     -0.067073     -1.316581
  C      -2.782223     -1.036089     -2.302423
  C      -0.559632      0.664201     -2.440247
  C      -1.826943     -1.043644     -3.335736
  H      -1.397037      1.472772     -0.700504
  H      -3.606207     -1.738513     -2.280650
  H      -1.953045     -1.769889     -4.139518
  H      -4.197383     -0.450921     -0.042812
  H      -3.133163      0.829962      0.454755
31
Coordinates from ORCA-job phenylurea_cytosine_opt_freq E -850.834273285130
  N       0.978406      2.002306      0.458430
  C      -0.072379      2.242557      1.270338
  O      -1.258412      2.257128      0.863071
  N       0.180360      2.488542      2.607330
  C       1.339474      2.072839      3.335577
  C       1.826763      0.761035      3.234711
  C       2.921362      0.362763      4.004763
  C       3.538641      1.270736      4.871776
  C       3.067242      2.583514      4.958732
  C       1.977936      2.989112      4.183970
  H       0.828439      1.897166     -0.555266
  H       1.920257      2.126714      0.797727
  H      -0.672006      2.624129      3.137371
  H       1.343460      0.072786      2.543805
  H       3.294669     -0.654619      3.932505
  H       4.386782      0.951306      5.470802
  H       3.552842      3.294697      5.620971
  H       1.605586      4.008626      4.229679
  O       0.440307      1.371963     -2.308488
  N      -1.554813      0.739922     -1.435715
  N      -3.457426      0.155123     -0.272922
  N      -0.756204     -0.266816     -3.424377
  C      -2.640293     -0.063286     -1.337820
  C      -2.813483     -1.016231     -2.338544
  C      -0.556088      0.640151     -2.420812
  C      -1.835684     -1.035056     -3.349467
  H      -1.413664      1.442818     -0.691704
  H      -3.652813     -1.700386     -2.339033
  H      -1.956350     -1.752432     -4.162137
  H      -4.267338     -0.420698     -0.115168
  H      -3.185657      0.826461      0.436405
31
Coordinates from ORCA-job phenylurea_cytosine_opt_freq E -850.834523913804
  N       0.993923      1.945231      0.471227
  C      -0.053375      2.203254      1.282807
  O      -1.241757      2.198669      0.884938
  N       0.208158      2.486518      2.611777
  C       1.369585      2.087816      3.348425
  C       1.878051      0.783388      3.252373
  C       2.968376      0.399948      4.037305
  C       3.561079      1.312433      4.915883
  C       3.072634      2.618801      4.993120
  C       1.989006      3.010881      4.203586
  H       0.841032      1.825425     -0.541614
  H       1.935608      2.109334      0.795109
  H      -0.640737      2.628666      3.145112
  H       1.413954      0.091904      2.554766
  H       3.349673     -0.615043      3.972223
  H       4.403529      1.005535      5.529116
  H       3.538765      3.337660      5.661132
  H       1.607284      4.026968      4.248703
  O       0.451213      1.307967     -2.284003
  N      -1.552292      0.696865     -1.424297
  N      -3.482727      0.128588     -0.301607
  N      -0.792694     -0.264744     -3.452937
  C      -2.664608     -0.076812     -1.366762
  C      -2.876758     -0.989064     -2.401004
  C      -0.561914      0.602225     -2.417309
  C      -1.896808     -1.001624     -3.409131
  H      -1.401101      1.379563     -0.659448
  H      -3.739986     -1.642174     -2.429354
  H      -2.034040     -1.682194     -4.250453
  H      -4.320373     -0.418090     -0.192787
  H      -3.212784      0.774975      0.429615
31
Coordinates from ORCA-job phenylurea_cytosine_opt_freq E -850.834731014126
  N       0.998072      1.929133      0.477801
  C      -0.048514      2.189016      1.292366
  O      -1.237247      2.180923      0.900249
  N       0.221807      2.478888      2.617640
  C       1.384885      2.091130      3.356328
  C       1.901475      0.789016      3.259799
  C       2.990292      0.410686      4.047277
  C       3.576254      1.324608      4.930034
  C       3.078749      2.627900      5.006813
  C       1.994824      3.015497      4.214087
  H       0.841528      1.802226     -0.533558
  H       1.941240      2.107878      0.790075
  H      -0.619498      2.637876      3.157086
  H       1.441351      0.095067      2.561275
  H       3.374450     -0.603547      3.984083
  H       4.418115      1.024663      5.547242
  H       3.536903      3.349557      5.677338
  H       1.609585      4.030167      4.263576
  O       0.442836      1.296280     -2.285734
  N      -1.565995      0.692668     -1.429625
  N      -3.514136      0.131374     -0.327538
  N      -0.797036     -0.271251     -3.457565
  C      -2.683165     -0.073545     -1.382367
  C      -2.889843     -0.983650     -2.418783
  C      -0.571993      0.593969     -2.420520
  C      -1.904007     -1.002252     -3.419544
  H      -1.411019      1.370400     -0.662092
  H      -3.759983     -1.627031     -2.455540
  H      -2.035868     -1.682219     -4.262261
  H      -4.351511     -0.419429     -0.237270
  H      -3.252633      0.766873      0.415834
31
Coordinates from ORCA-job phenylurea_cytosine_opt_freq E -850.834933859460
  N       1.013125      1.912447      0.486515
  C      -0.036077      2.165292      1.302649
  O      -1.224458      2.142576      0.914093
  N       0.239241      2.467191      2.623609
  C       1.403810      2.095695      3.366479
  C       1.935027      0.798196      3.269053
  C       3.023027      0.428605      4.058836
  C       3.597896      1.346328      4.946111
  C       3.083941      2.643414      5.025643
  C       1.997843      3.022523      4.229964
  H       0.852068      1.776746     -0.522508
  H       1.954848      2.117685      0.785670
  H      -0.598862      2.633221      3.167898
  H       1.487257      0.100650      2.569163
  H       3.416504     -0.581933      3.991410
  H       4.441225      1.056407      5.565915
  H       3.530803      3.368270      5.700312
  H       1.602092      4.032962      4.284078
  O       0.440904      1.265083     -2.265304
  N      -1.582245      0.676150     -1.427413
  N      -3.560360      0.132265     -0.361539
  N      -0.798910     -0.284871     -3.454934
  C      -2.713270     -0.070216     -1.404626
  C      -2.917161     -0.969195     -2.450539
  C      -0.578638      0.573074     -2.411486
  C      -1.916907     -0.999965     -3.436879
  H      -1.415474      1.339388     -0.648812
  H      -3.800691     -1.592779     -2.505145
  H      -2.044836     -1.674752     -4.284406
  H      -4.408457     -0.405657     -0.298864
  H      -3.313345      0.758069      0.391563
31
Coordinates from ORCA-job phenylurea_cytosine_opt_freq E -850.835120166935
  N       1.026395      1.878982      0.498422
  C      -0.022044      2.139082      1.315029
  O      -1.211022      2.107198      0.930527
  N       0.258288      2.458158      2.630182
  C       1.423059      2.100476      3.376555
  C       1.972128      0.809544      3.275967
  C       3.060070      0.449731      4.069021
  C       3.618282      1.370996      4.963949
  C       3.084824      2.659828      5.049346
  C       1.997474      3.029516      4.249893
  H       0.856937      1.735380     -0.507832
  H       1.967301      2.107564      0.782680
  H      -0.574546      2.646778      3.174280
  H       1.532856      0.108920      2.575231
  H       3.466179     -0.555530      3.997514
  H       4.462419      1.089965      5.586757
  H       3.517563      3.386513      5.731176
  H       1.587786      4.034183      4.308373
  O       0.436744      1.233804     -2.252018
  N      -1.599836      0.662984     -1.429949
  N      -3.599857      0.133287     -0.393832
  N      -0.806890     -0.296166     -3.458398
  C      -2.741765     -0.065912     -1.429172
  C      -2.945165     -0.952943     -2.484802
  C      -0.588411      0.553325     -2.408536
  C      -1.934435     -0.995311     -3.459134
  H      -1.420560      1.310996     -0.642442
  H      -3.839767     -1.559086     -2.554583
  H      -2.062434     -1.664223     -4.311155
  H      -4.455944     -0.393437     -0.345716
  H      -3.355711      0.748266      0.369174
31
Coordinates from ORCA-job phenylurea_cytosine_opt_freq E -850.835381524048
  N       1.045068      1.848162      0.507932
  C      -0.003738      2.114965      1.323424
  O      -1.192562      2.076781      0.938807
  N       0.276140      2.448369      2.635208
  C       1.438966      2.103212      3.386239
  C       2.010254      0.822835      3.279566
  C       3.102143      0.473595      4.071234
  C       3.639989      1.398221      4.975642
  C       3.079755      2.675080      5.074132
  C       1.988638      3.033822      4.274052
  H       0.868959      1.692607     -0.495469
  H       1.985946      2.087756      0.783531
  H      -0.554736      2.665442      3.171596
  H       1.580638      0.117378      2.578817
  H       3.525301     -0.523656      3.988892
  H       4.488100      1.127443      5.597740
  H       3.495792      3.401870      5.766169
  H       1.559753      4.029998      4.339745
  O       0.438561      1.192286     -2.222153
  N      -1.616599      0.645636     -1.424932
  N      -3.642228      0.133986     -0.425851
  N      -0.810701     -0.312264     -3.450901
  C      -2.771288     -0.060868     -1.451623
  C      -2.976618     -0.931899     -2.520968
  C      -0.593988      0.527660     -2.395034
  C      -1.951416     -0.989378     -3.478404
  H      -1.423882      1.276180     -0.626035
  H      -3.884314     -1.515774     -2.610065
  H      -2.079713     -1.650090     -4.336565
  H      -4.508485     -0.376838     -0.393477
  H      -3.403817      0.740350      0.345260
31
Coordinates from ORCA-job phenylurea_cytosine_opt_freq E -850.835617796595
  N       1.058782      1.810928      0.518535
  C       0.013106      2.095030      1.330415
  O      -1.176169      2.059915      0.944207
  N       0.292451      2.443122      2.639149
  C       1.452685      2.106138      3.394100
  C       2.047264      0.838162      3.278714
  C       3.144493      0.500447      4.069724
  C       3.660618      1.425143      4.985733
  C       3.071347      2.687206      5.101531
  C       1.976909      3.034869      4.302094
  H       0.877123      1.646487     -0.482891
  H       2.001485      2.043777      0.793358
  H      -0.533499      2.704664      3.161941
  H       1.625547      0.125738      2.578991
  H       3.585955     -0.487661      3.976707
  H       4.512927      1.162880      5.605921
  H       3.469072      3.411687      5.806678
  H       1.527573      4.021293      4.377122
  O       0.440042      1.151870     -2.196838
  N      -1.631959      0.630236     -1.424550
  N      -3.674617      0.134035     -0.452473
  N      -0.817087     -0.327329     -3.447287
  C      -2.796795     -0.057132     -1.472644
  C      -3.007311     -0.911654     -2.555434
  C      -0.599967      0.503096     -2.386093
  C      -1.970496     -0.982613     -3.498727
  H      -1.430020      1.245845     -0.616696
  H      -3.925259     -1.476703     -2.659816
  H      -2.100744     -1.634994     -4.362831
  H      -4.548593     -0.363760     -0.427547
  H      -3.434945      0.732148      0.325416
31
Coordinates from ORCA-job phenylurea_cytosine_opt_freq E -850.835782203391
  N       1.067421      1.788159      0.522860
  C       0.025095      2.082705      1.332598
  O      -1.164497      2.053991      0.944253
  N       0.302920      2.436422      2.641816
  C       1.461138      2.105019      3.400284
  C       2.075431      0.849222      3.276788
  C       3.178948      0.522677      4.065561
  C       3.678536      1.447415      4.990017
  C       3.063434      2.696265      5.120341
  C       1.964678      3.032626      4.323358
  H       0.884660      1.612414     -0.477133
  H       2.013087      1.998537      0.805519
  H      -0.519695      2.730006      3.152432
  H       1.661624      0.131668      2.576672
  H       3.636921     -0.457016      3.964708
  H       4.535874      1.193760      5.606845
  H       3.446008      3.419504      5.835160
  H       1.497501      4.010061      4.407331
  O       0.445386      1.115781     -2.168185
  N      -1.640661      0.614235     -1.418154
  N      -3.701512      0.138179     -0.474129
  N      -0.819180     -0.341237     -3.438298
  C      -2.816014     -0.054419     -1.486617
  C      -3.031756     -0.893802     -2.581657
  C      -0.600955      0.480804     -2.371846
  C      -1.983533     -0.975855     -3.510327
  H      -1.437950      1.221062     -0.603050
  H      -3.957613     -1.442363     -2.702216
  H      -2.112955     -1.620394     -4.380339
  H      -4.581132     -0.350066     -0.459238
  H      -3.461290      0.727509      0.311153
31
Coordinates from ORCA-job phenylurea_cytosine_opt_freq E -850.835884833167
  N       1.065676      1.776134      0.524487
  C       0.027594      2.079721      1.332660
  O      -1.162522      2.062898      0.943020
  N       0.306686      2.432282      2.643463
  C       1.463489      2.102374      3.402361
  C       2.090061      0.854498      3.270123
  C       3.198706      0.536207      4.057216
  C       3.689724      1.458513      4.987596
  C       3.056028      2.697111      5.131537
  C       1.953279      3.025991      4.338712
  H       0.883328      1.593836     -0.474743
  H       2.013738      1.956311      0.818974
  H      -0.509706      2.757711      3.144049
  H       1.678838      0.130829      2.572139
  H       3.667998     -0.437558      3.950765
  H       4.551404      1.209849      5.600219
  H       3.428587      3.417748      5.854310
  H       1.473297      3.996409      4.431822
  O       0.448228      1.097797     -2.157614
  N      -1.645504      0.610140     -1.419863
  N      -3.713103      0.149322     -0.483622
  N      -0.816094     -0.352083     -3.433460
  C      -2.825042     -0.050294     -1.491866
  C      -3.039340     -0.885392     -2.590600
  C      -0.601278      0.469338     -2.366476
  C      -1.985552     -0.976146     -3.512030
  H      -1.447393      1.218198     -0.605749
  H      -3.967239     -1.429168     -2.716552
  H      -2.113882     -1.620636     -4.382364
  H      -4.591026     -0.342007     -0.467072
  H      -3.469066      0.732936      0.305065
31
Coordinates from ORCA-job phenylurea_cytosine_opt_freq E -850.835965829932
  N       1.069446      1.751529      0.529080
  C       0.035833      2.058809      1.338050
  O      -1.156341      2.041203      0.954147
  N       0.319510      2.420739      2.646647
  C       1.477634      2.102511      3.409480
  C       2.124402      0.865309      3.272829
  C       3.235105      0.564430      4.065518
  C       3.710460      1.487201      5.002170
  C       3.053083      2.713200      5.151269
  C       1.948307      3.026414      4.356426
  H       0.886332      1.553942     -0.467752
  H       2.018181      1.917894      0.828754
  H      -0.493191      2.760432      3.143855
  H       1.728878      0.139828      2.571392
  H       3.720798     -0.401279      3.957427
  H       4.574289      1.249553      5.615797
  H       3.409231      3.436063      5.880138
  H       1.451478      3.987812      4.455600
  O       0.455412      1.051613     -2.132788
  N      -1.648353      0.583516     -1.412240
  N      -3.738568      0.157993     -0.509478
  N      -0.828109     -0.364151     -3.436359
  C      -2.844420     -0.051424     -1.509797
  C      -3.071415     -0.864755     -2.622676
  C      -0.601633      0.440138     -2.354515
  C      -2.009348     -0.963390     -3.533896
  H      -1.454390      1.183678     -0.589081
  H      -4.007158     -1.389978     -2.767275
  H      -2.139628     -1.592605     -4.415217
  H      -4.625350     -0.317652     -0.511696
  H      -3.490557      0.724297      0.290698
31
Coordinates from ORCA-job phenylurea_cytosine_opt_freq E -850.836149505562
  N       1.066203      1.738660      0.529741
  C       0.032556      2.039239      1.341334
  O      -1.160899      2.010759      0.962463
  N       0.318019      2.405804      2.648382
  C       1.479241      2.098884      3.408898
  C       2.135419      0.866331      3.271183
  C       3.248000      0.574617      4.064247
  C       3.714094      1.498740      5.004020
  C       3.046506      2.719277      5.154392
  C       1.941326      3.024906      4.357646
  H       0.881801      1.529874     -0.464408
  H       2.014953      1.905576      0.828920
  H      -0.494624      2.744340      3.145883
  H       1.745985      0.135878      2.569777
  H       3.743254     -0.386112      3.953445
  H       4.579048      1.267063      5.618272
  H       3.395126      3.443662      5.885380
  H       1.435876      3.981663      4.458592
  O       0.460321      1.038312     -2.134448
  N      -1.646196      0.583148     -1.414971
  N      -3.740086      0.177942     -0.512940
  N      -0.829290     -0.366274     -3.440202
  C      -2.845170     -0.044164     -1.510394
  C      -3.072625     -0.856704     -2.622098
  C      -0.600336      0.433842     -2.355934
  C      -2.012134     -0.959949     -3.535275
  H      -1.453098      1.187903     -0.595665
  H      -4.008816     -1.381600     -2.764834
  H      -2.146580     -1.587954     -4.416847
  H      -4.628852     -0.294012     -0.514396
  H      -3.489104      0.743216      0.286344
31
Coordinates from ORCA-job phenylurea_cytosine_opt_freq E -850.836259056874
  N       1.081916      1.777874      0.518016
  C       0.036182      2.007866      1.338770
  O      -1.155240      1.972548      0.955612
  N       0.311778      2.348452      2.654441
  C       1.481041      2.073515      3.409959
  C       2.167351      0.854712      3.271811
  C       3.283684      0.592497      4.067865
  C       3.719447      1.522269      5.016511
  C       3.022622      2.726623      5.165795
  C       1.916933      3.007432      4.361247
  H       0.909282      1.592834     -0.482834
  H       2.025415      1.945121      0.832466
  H      -0.507238      2.663731      3.155886
  H       1.801560      0.109707      2.569754
  H       3.807309     -0.352956      3.951980
  H       4.585614      1.309857      5.635845
  H       3.347697      3.457393      5.901178
  H       1.387229      3.950957      4.463782
  O       0.477077      0.962899     -2.136502
  N      -1.640500      0.563155     -1.420767
  N      -3.746596      0.235157     -0.521683
  N      -0.842871     -0.396124     -3.450739
  C      -2.852328     -0.032767     -1.510529
  C      -3.086889     -0.845000     -2.615856
  C      -0.599546      0.389524     -2.358577
  C      -2.033690     -0.967484     -3.536921
  H      -1.445196      1.178742     -0.611452
  H      -4.028522     -1.361751     -2.753045
  H      -2.185967     -1.590571     -4.419199
  H      -4.645152     -0.217935     -0.521777
  H      -3.482484      0.794593      0.275467
31
Coordinates from ORCA-job phenylurea_cytosine_opt_freq E -850.836609608480
  N       1.073401      1.706053      0.532144
  C       0.031495      1.970292      1.348715
  O      -1.161684      1.930279      0.972977
  N       0.311691      2.325051      2.658395
  C       1.486103      2.071081      3.412801
  C       2.198875      0.866931      3.271049
  C       3.318631      0.624350      4.067374
  C       3.730118      1.557632      5.023922
  C       3.011016      2.748414      5.173988
  C       1.903432      3.011552      4.365058
  H       0.895704      1.469843     -0.456540
  H       2.020685      1.867474      0.837988
  H      -0.508312      2.636486      3.161401
  H       1.853781      0.117985      2.564466
  H       3.863120     -0.308363      3.945205
  H       4.597593      1.359692      5.646324
  H       3.319199      3.483073      5.912688
  H       1.356572      3.945194      4.468203
  O       0.485966      0.940529     -2.129888
  N      -1.637688      0.560270     -1.420281
  N      -3.752717      0.259623     -0.533853
  N      -0.850883     -0.387337     -3.460080
  C      -2.858001     -0.016843     -1.520651
  C      -3.099885     -0.819805     -2.630597
  C      -0.598079      0.383825     -2.358833
  C      -2.047688     -0.945633     -3.552838
  H      -1.435870      1.167592     -0.605513
  H      -4.048113     -1.322682     -2.775062
  H      -2.207823     -1.557881     -4.441321
  H      -4.658050     -0.179732     -0.540095
  H      -3.482672      0.807922      0.269362
31
Coordinates from ORCA-job phenylurea_cytosine_opt_freq E -850.836833818655
  N       1.079223      1.684586      0.535545
  C       0.038719      1.950664      1.352164
  O      -1.154563      1.909533      0.976179
  N       0.315657      2.301797      2.663296
  C       1.492633      2.063359      3.418548
  C       2.230224      0.875396      3.271687
  C       3.352964      0.649786      4.069388
  C       3.743459      1.585143      5.032741
  C       3.000191      2.759962      5.188329
  C       1.888826      3.005830      4.378711
  H       0.899790      1.437517     -0.450415
  H       2.027482      1.839802      0.841132
  H      -0.504654      2.618159      3.162812
  H       1.902346      0.123148      2.561988
  H       3.914912     -0.271759      3.943209
  H       4.613111      1.400321      5.656230
  H       3.291645      3.495930      5.932501
  H       1.323987      3.928247      4.485515
  O       0.495557      0.893391     -2.113073
  N      -1.639814      0.547212     -1.418792
  N      -3.767563      0.277867     -0.551471
  N      -0.859979     -0.402922     -3.459093
  C      -2.871415     -0.006556     -1.534145
  C      -3.123840     -0.799583     -2.650494
  C      -0.597412      0.358177     -2.352868
  C      -2.067183     -0.939160     -3.565452
  H      -1.429976      1.144274     -0.598051
  H      -4.082040     -1.279432     -2.807001
  H      -2.232365     -1.543321     -4.458430
  H      -4.679605     -0.147355     -0.563419
  H      -3.490398      0.812857      0.259235
31
Coordinates from ORCA-job phenylurea_cytosine_opt_freq E -850.837115886520
  N       1.101534      1.660544      0.539026
  C       0.054670      1.922070      1.347789
  O      -1.134267      1.893233      0.955628
  N       0.313543      2.252018      2.666892
  C       1.493498      2.041682      3.426096
  C       2.272173      0.882315      3.272275
  C       3.400211      0.685955      4.071260
  C       3.755320      1.626946      5.043450
  C       2.974066      2.775217      5.204695
  C       1.856087      2.990133      4.394314
  H       0.930794      1.405515     -0.446619
  H       2.048835      1.802020      0.853699
  H      -0.512913      2.562578      3.160036
  H       1.974190      0.123152      2.556643
  H       3.991079     -0.216219      3.940363
  H       4.628285      1.466012      5.669115
  H       3.239329      3.515127      5.954728
  H       1.262482      3.893842      4.504217
  O       0.507578      0.824132     -2.098144
  N      -1.642494      0.536043     -1.421563
  N      -3.779852      0.314185     -0.565664
  N      -0.876497     -0.426148     -3.459552
  C      -2.887856      0.015370     -1.546729
  C      -3.156416     -0.769794     -2.667214
  C      -0.599588      0.322679     -2.349692
  C      -2.098267     -0.931140     -3.576800
  H      -1.417390      1.117014     -0.593233
  H      -4.128718     -1.216521     -2.834468
  H      -2.275063     -1.526720     -4.473109
  H      -4.699286     -0.094927     -0.575579
  H      -3.485150      0.826558      0.254647
31
Coordinates from ORCA-job phenylurea_cytosine_opt_freq E -850.837266254808
  N       1.087763      1.638149      0.531163
  C       0.049848      1.887332      1.354006
  O      -1.142572      1.866765      0.970047
  N       0.311767      2.199387      2.675820
  C       1.500413      2.019748      3.429781
  C       2.317917      0.887959      3.271364
  C       3.448663      0.721660      4.074225
  C       3.769167      1.667119      5.053899
  C       2.951091      2.788370      5.219331
  C       1.829238      2.972429      4.406755
  H       0.904672      1.380528     -0.451608
  H       2.039593      1.767851      0.836760
  H      -0.515030      2.506700      3.170326
  H       2.049670      0.120514      2.551855
  H       4.067616     -0.160863      3.940355
  H       4.644246      1.529755      5.682307
  H       3.189332      3.531042      5.975676
  H       1.205557      3.855010      4.521641
  O       0.527737      0.747653     -2.087225
  N      -1.635913      0.526871     -1.429316
  N      -3.779881      0.365790     -0.581534
  N      -0.884493     -0.458407     -3.460566
  C      -2.893622      0.041636     -1.559640
  C      -3.178248     -0.737978     -2.681022
  C      -0.592952      0.281390     -2.349163
  C      -2.120136     -0.928503     -3.584952
  H      -1.396102      1.097279     -0.597013
  H      -4.162839     -1.154582     -2.853942
  H      -2.309727     -1.518851     -4.482050
  H      -4.706543     -0.026789     -0.585374
  H      -3.466316      0.857904      0.244601
31
Coordinates from ORCA-job phenylurea_cytosine_opt_freq E -850.837442911397
  N       1.119643      1.601933      0.535975
  C       0.073004      1.833891      1.351319
  O      -1.117150      1.802539      0.959086
  N       0.319101      2.137991      2.677074
  C       1.508985      1.998457      3.435836
  C       2.374019      0.902889      3.268943
  C       3.505568      0.776840      4.077947
  C       3.782915      1.722154      5.069924
  C       2.915968      2.805383      5.244364
  C       1.792091      2.951322      4.427549
  H       0.949089      1.326412     -0.444776
  H       2.067840      1.725031      0.854953
  H      -0.513069      2.443869      3.163904
  H       2.144216      0.129980      2.542532
  H       4.161201     -0.077947      3.937683
  H       4.659924      1.614020      5.701198
  H       3.118007      3.548346      6.010916
  H       1.130687      3.804981      4.550595
  O       0.530592      0.666172     -2.072266
  N      -1.644105      0.510836     -1.434512
  N      -3.795167      0.423083     -0.603297
  N      -0.912114     -0.488705     -3.465258
  C      -2.915835      0.066931     -1.577039
  C      -3.219060     -0.698901     -2.702665
  C      -0.601525      0.235824     -2.346778
  C      -2.160936     -0.918616     -3.599783
  H      -1.395523      1.071547     -0.596948
  H      -4.214459     -1.084883     -2.884054
  H      -2.362181     -1.498134     -4.501489
  H      -4.729836      0.049779     -0.605011
  H      -3.461974      0.889847      0.230582
31
Coordinates from ORCA-job phenylurea_cytosine_opt_freq E -850.837537146092
  N       1.127310      1.575088      0.537035
  C       0.079101      1.806043      1.350573
  O      -1.110344      1.781326      0.954367
  N       0.319788      2.104352      2.678217
  C       1.509986      1.984317      3.438128
  C       2.397780      0.908766      3.267693
  C       3.530338      0.802315      4.078934
  C       3.786776      1.749187      5.074615
  C       2.896267      2.812708      5.252690
  C       1.771212      2.937935      4.435311
  H       0.958805      1.295556     -0.442873
  H       2.075279      1.690489      0.859595
  H      -0.513350      2.413292      3.160124
  H       2.186030      0.132509      2.538949
  H       4.204061     -0.038151      3.937031
  H       4.665189      1.657119      5.706358
  H       3.081623      3.556499      6.022676
  H       1.090990      3.776184      4.562067
  O       0.532295      0.634241     -2.078322
  N      -1.644631      0.514302     -1.444305
  N      -3.794998      0.455441     -0.607319
  N      -0.920366     -0.504392     -3.467868
  C      -2.920922      0.086202     -1.581694
  C      -3.232244     -0.676452     -2.707239
  C      -0.605731      0.219850     -2.352316
  C      -2.175701     -0.914386     -3.601861
  H      -1.389019      1.067645     -0.604534
  H      -4.232704     -1.049887     -2.886835
  H      -2.383680     -1.493801     -4.502180
  H      -4.729410      0.081257     -0.600040
  H      -3.449816      0.907315      0.229533
31
Coordinates from ORCA-job phenylurea_cytosine_opt_freq E -850.837633938753
  N       1.130186      1.527173      0.539064
  C       0.085931      1.760943      1.357339
  O      -1.105460      1.736817      0.966914
  N       0.329460      2.066039      2.683144
  C       1.520665      1.971725      3.443331
  C       2.438260      0.922208      3.269410
  C       3.570003      0.842349      4.085593
  C       3.797861      1.789260      5.087362
  C       2.876638      2.826057      5.269169
  C       1.752293      2.924739      4.448839
  H       0.955903      1.240551     -0.437601
  H       2.079856      1.642950      0.856370
  H      -0.502101      2.386094      3.160138
  H       2.251493      0.144870      2.536213
  H       4.267660      0.021897      3.941104
  H       4.676715      1.717831      5.720990
  H       3.038415      3.569720      6.044600
  H       1.047679      3.741962      4.580692
  O       0.533444      0.584691     -2.076324
  N      -1.647516      0.509616     -1.452451
  N      -3.803576      0.493196     -0.624220
  N      -0.935743     -0.525129     -3.471990
  C      -2.932236      0.107523     -1.596165
  C      -3.256208     -0.641525     -2.727136
  C      -0.611137      0.192384     -2.354681
  C      -2.199325     -0.903907     -3.614267
  H      -1.384108      1.048249     -0.605739
  H      -4.263262     -0.994271     -2.911098
  H      -2.413340     -1.477909     -4.516733
  H      -4.739965      0.123713     -0.615075
  H      -3.448566      0.923053      0.219716
31
Coordinates from ORCA-job phenylurea_cytosine_opt_freq E -850.837705847687
  N       1.133808      1.483216      0.543173
  C       0.092271      1.722333      1.364687
  O      -1.100384      1.687820      0.980906
  N       0.338800      2.038041      2.687888
  C       1.529461      1.962943      3.448932
  C       2.466021      0.930804      3.276439
  C       3.596987      0.869439      4.095863
  C       3.804918      1.819125      5.099190
  C       2.865393      2.839829      5.278821
  C       1.742113      2.918870      4.455928
  H       0.954692      1.199082     -0.433161
  H       2.084546      1.616159      0.850199
  H      -0.492845      2.364068      3.160602
  H       2.295508      0.153822      2.539389
  H       4.310617      0.062752      3.951937
  H       4.683111      1.762892      5.735239
  H       3.012061      3.585682      6.055145
  H       1.022709      3.723229      4.588009
  O       0.531985      0.553063     -2.081554
  N      -1.650263      0.509878     -1.461367
  N      -3.811601      0.517789     -0.636564
  N      -0.948552     -0.537276     -3.478577
  C      -2.940553      0.124750     -1.607061
  C      -3.273205     -0.612360     -2.742811
  C      -0.617700      0.176529     -2.360808
  C      -2.217733     -0.892954     -3.625942
  H      -1.379713      1.031669     -0.607154
  H      -4.285173     -0.949605     -2.928745
  H      -2.437022     -1.463494     -4.529435
  H      -4.746976      0.145382     -0.627191
  H      -3.453364      0.929393      0.214531
31
Coordinates from ORCA-job phenylurea_cytosine_opt_freq E -850.837762868450
  N       1.142662      1.426676      0.551670
  C       0.103355      1.675720      1.373450
  O      -1.089767      1.637138      0.993274
  N       0.352350      2.007300      2.692767
  C       1.542403      1.954947      3.455620
  C       2.502764      0.944232      3.284119
  C       3.632052      0.905555      4.107231
  C       3.814716      1.855942      5.114801
  C       2.852438      2.855653      5.293404
  C       1.730764      2.912585      4.466266
  H       0.959331      1.145067     -0.424491
  H       2.093700      1.579169      0.848541
  H      -0.479350      2.342601      3.159605
  H       2.353099      0.167820      2.541703
  H       4.364694      0.116384      3.962420
  H       4.691332      1.817009      5.754380
  H       2.979607      3.602161      6.072504
  H       0.993978      3.701110      4.598633
  O       0.527237      0.512324     -2.077814
  N      -1.658673      0.504937     -1.468331
  N      -3.825048      0.544440     -0.655202
  N      -0.967326     -0.549266     -3.486026
  C      -2.955051      0.142420     -1.623385
  C      -3.296624     -0.579694     -2.765671
  C      -0.627442      0.156687     -2.364677
  C      -2.242130     -0.878837     -3.643518
  H      -1.380691      1.005646     -0.603633
  H      -4.314102     -0.895718     -2.959068
  H      -2.466788     -1.442412     -4.550054
  H      -4.760794      0.172469     -0.647763
  H      -3.462777      0.932801      0.205752
