23
Coordinates from ORCA-job semicarbazide_cytosine_opt_freq E -675.225903489944
  N           1.32354818560127      3.74365451980088      2.89419913360930
  N           0.45090094188302      2.96563938262320      2.10686225312765
  C          -0.64790615322412      3.53366200652238      1.54072453098331
  O          -1.40550503814584      2.87379894162257      0.78939842660139
  N          -0.89927264350051      4.83542831104226      1.84861314124110
  H           1.37862058386264      3.34491494344466      3.82920886884349
  H           2.25523200276925      3.72179579480835      2.48441496576728
  H           0.68041796916786      1.98204105915265      1.88398112016861
  H          -0.20839183708882      5.36032376053832      2.36507720586366
  H          -1.63450333988576      5.29968600893716      1.34173876714047
  O           1.08684175661194      0.27965376444043      1.44147816078111
  N          -0.78722541867852      0.25844087874855      0.15888392381352
  N          -2.73461258631213      0.41613155411736     -1.07700006615799
  N           0.63181493282043     -1.64843001857373      0.25546842632767
  C          -1.65333758153966     -0.32122303778823     -0.70546631063750
  C          -1.38091550600148     -1.62452701458757     -1.12084516580484
  C           0.36987253912098     -0.36971900149405      0.66037499257480
  C          -0.22130904320091     -2.21189348892679     -0.59112518323136
  H          -0.96782708165257      1.23628473078781      0.46366069152187
  H          -2.03207948299581     -2.15286474050506     -1.80614707747062
  H           0.02474997294251     -3.23146858628847     -0.89023167894270
  H          -3.32979120269674      0.08878224743565     -1.82010335940419
  H          -2.79241896985703      1.39033298414160     -0.81119376671606
