23
Coordinates from ORCA-job semicarbazide_cytosine_opt_freq E -674.955980216615
  N       0.426327      1.825543      1.497314
  N      -0.926368      2.236199      1.502382
  C      -1.293653      3.562303      1.498610
  O      -2.458578      3.934681      1.502578
  N      -0.247749      4.428063      1.502381
  H       0.832935      2.124881      2.389665
  H       0.455210      0.803404      1.519302
  H      -1.690955      1.565410      1.465036
  H       0.580809      4.055165      1.057384
  H      -0.488475      5.388796      1.305920
  O       2.213400      1.118800      0.000100
  N      -0.059500      0.981600      0.000100
  N      -2.442200      0.921400      0.000100
  N       1.293500     -0.974400      0.000000
  C      -1.240600      0.267600     -0.000100
  C      -1.164300     -1.072600     -0.000200
  C       1.208800      0.405600     -0.000300
  C       0.190800     -1.647800      0.000300
  H      -0.133100      1.994600      0.000300
  H      -2.022300     -1.731700     -0.000300
  H       0.235100     -2.748700      0.000500
  H      -3.308900      0.398400      0.000300
  H      -2.453300      1.933200      0.000600
23
Coordinates from ORCA-job semicarbazide_cytosine_opt_freq E -675.035701557662
  N       0.413541      1.876465      1.596997
  N      -0.937176      2.282168      1.536222
  C      -1.297034      3.609443      1.482665
  O      -2.467280      3.976082      1.423942
  N      -0.241964      4.477006      1.511125
  H       0.788792      2.205272      2.499677
  H       0.457222      0.867998      1.659271
  H      -1.702414      1.609588      1.482686
  H       0.611434      4.096591      1.118954
  H      -0.471508      5.432662      1.279129
  O       2.220997      1.070760     -0.074638
  N      -0.060978      0.954891     -0.019629
  N      -2.432796      0.892023      0.019506
  N       1.291969     -1.018083     -0.080704
  C      -1.232985      0.230134     -0.011122
  C      -1.155732     -1.124068     -0.025593
  C       1.215456      0.363370     -0.062367
  C       0.184521     -1.695465     -0.061607
  H      -0.148680      1.963602      0.001695
  H      -2.015350     -1.781231     -0.015229
  H       0.232252     -2.793347     -0.075487
  H      -3.298649      0.371566      0.027145
  H      -2.446735      1.903016      0.029332
23
Coordinates from ORCA-job semicarbazide_cytosine_opt_freq E -675.086181977740
  N       0.411565      1.926929      1.681420
  N      -0.942734      2.321021      1.573760
  C      -1.301107      3.644545      1.477856
  O      -2.479163      3.990032      1.370207
  N      -0.242474      4.520491      1.520505
  H       0.763913      2.280341      2.583073
  H       0.470713      0.923989      1.770252
  H      -1.701184      1.639369      1.514258
  H       0.634246      4.143048      1.175612
  H      -0.469485      5.468702      1.256723
  O       2.214005      1.038110     -0.136143
  N      -0.064994      0.923012     -0.045215
  N      -2.417018      0.876538      0.025551
  N       1.283818     -1.057293     -0.140334
  C      -1.226777      0.193094     -0.028783
  C      -1.150513     -1.175526     -0.048501
  C       1.216621      0.325964     -0.115798
  C       0.169623     -1.738295     -0.106675
  H      -0.160927      1.929639     -0.004088
  H      -2.014640     -1.826957     -0.027610
  H       0.227194     -2.831599     -0.126342
  H      -3.287397      0.367567      0.038554
  H      -2.426382      1.887724      0.033691
23
Coordinates from ORCA-job semicarbazide_cytosine_opt_freq E -675.126757118956
  N       0.416603      1.987285      1.781245
  N      -0.945479      2.370116      1.634643
  C      -1.305560      3.685250      1.482134
  O      -2.489299      3.999745      1.324397
  N      -0.252124      4.573613      1.523213
  H       0.744269      2.365522      2.676700
  H       0.484514      0.982093      1.891319
  H      -1.691427      1.677051      1.585453
  H       0.648121      4.204781      1.234446
  H      -0.482699      5.507444      1.213747
  O       2.212634      0.996003     -0.209410
  N      -0.064202      0.876780     -0.073459
  N      -2.400326      0.856972      0.027680
  N       1.275039     -1.106007     -0.203813
  C      -1.222717      0.152509     -0.052418
  C      -1.150525     -1.227532     -0.078672
  C       1.224717      0.275998     -0.173614
  C       0.148774     -1.782753     -0.156743
  H      -0.152737      1.883501     -0.010063
  H      -2.025672     -1.864236     -0.049201
  H       0.222241     -2.871915     -0.184184
  H      -3.277159      0.359605      0.034230
  H      -2.410083      1.868621      0.024341
23
Coordinates from ORCA-job semicarbazide_cytosine_opt_freq E -675.153282728753
  N       0.436305      2.047332      1.891195
  N      -0.934446      2.408907      1.718019
  C      -1.311488      3.706244      1.484391
  O      -2.499813      3.979327      1.282786
  N      -0.278740      4.617962      1.500003
  H       0.743414      2.445105      2.782969
  H       0.506881      1.041634      2.008257
  H      -1.660597      1.699341      1.700262
  H       0.644776      4.267257      1.270264
  H      -0.523985      5.526303      1.131211
  O       2.218881      0.948878     -0.270197
  N      -0.055352      0.832357     -0.092043
  N      -2.389068      0.846609      0.032755
  N       1.266352     -1.154767     -0.259445
  C      -1.223466      0.129934     -0.072338
  C      -1.162184     -1.257130     -0.115971
  C       1.237564      0.222820     -0.219804
  C       0.124680     -1.817437     -0.209034
  H      -0.111811      1.839007     -0.009224
  H      -2.053952     -1.870635     -0.087491
  H       0.209810     -2.904658     -0.249003
  H      -3.270390      0.357647      0.010228
  H      -2.406468      1.858409      0.014183
23
Coordinates from ORCA-job semicarbazide_cytosine_opt_freq E -675.170283659108
  N       0.447555      2.106990      2.024362
  N      -0.925210      2.451252      1.820542
  C      -1.309229      3.718653      1.468022
  O      -2.494055      3.954348      1.203481
  N      -0.295259      4.647454      1.442108
  H       0.736169      2.514896      2.916700
  H       0.518507      1.099492      2.132803
  H      -1.639489      1.734126      1.840064
  H       0.648942      4.310547      1.291979
  H      -0.543413      5.517079      0.991222
  O       2.218778      0.917807     -0.308847
  N      -0.050149      0.797477     -0.093176
  N      -2.387036      0.825221      0.064826
  N       1.260162     -1.189118     -0.322506
  C      -1.227931      0.114983     -0.082138
  C      -1.172437     -1.274725     -0.169829
  C       1.244596      0.182867     -0.254869
  C       0.107927     -1.840556     -0.283142
  H      -0.065233      1.802779      0.012889
  H      -2.076909     -1.869828     -0.152672
  H       0.200315     -2.925440     -0.350606
  H      -3.266438      0.336500     -0.003173
  H      -2.423260      1.837640      0.053934
23
Coordinates from ORCA-job semicarbazide_cytosine_opt_freq E -675.179995608262
  N       0.464096      2.165076      2.153454
  N      -0.909061      2.469467      1.917002
  C      -1.313604      3.689607      1.443261
  O      -2.494654      3.866422      1.117578
  N      -0.330625      4.646414      1.371566
  H       0.736388      2.578254      3.048110
  H       0.554201      1.158641      2.247385
  H      -1.606342      1.736975      1.967373
  H       0.632494      4.339065      1.300075
  H      -0.587348      5.466389      0.840109
  O       2.226525      0.884909     -0.334109
  N      -0.038799      0.781010     -0.090109
  N      -2.373351      0.836695      0.094510
  N       1.246850     -1.215043     -0.379678
  C      -1.225998      0.120607     -0.086005
  C      -1.186330     -1.269076     -0.212492
  C       1.248893      0.153461     -0.284964
  C       0.083994     -1.850469     -0.347381
  H      -0.017238      1.784176      0.041730
  H      -2.101692     -1.847744     -0.204014
  H       0.163725     -2.934302     -0.440056
  H      -3.255640      0.358768     -0.007737
  H      -2.409579      1.851146      0.086365
23
Coordinates from ORCA-job semicarbazide_cytosine_opt_freq E -675.185063959058
  N       0.460107      2.208742      2.254102
  N      -0.905447      2.493946      1.981247
  C      -1.301051      3.676731      1.413783
  O      -2.469377      3.818593      1.026319
  N      -0.329767      4.641169      1.317219
  H       0.720298      2.625135      3.149931
  H       0.566832      1.202397      2.337650
  H      -1.600596      1.760263      2.041083
  H       0.640353      4.348877      1.316911
  H      -0.572948      5.421797      0.724039
  O       2.219946      0.881355     -0.347698
  N      -0.040843      0.773830     -0.080634
  N      -2.378030      0.821054      0.130677
  N       1.240237     -1.217285     -0.431263
  C      -1.230616      0.115591     -0.082529
  C      -1.190950     -1.269927     -0.247070
  C       1.242513      0.147947     -0.302848
  C       0.077035     -1.851252     -0.406531
  H      -0.003314      1.774501      0.070309
  H      -2.105860     -1.849490     -0.246699
  H       0.149041     -2.933051     -0.526193
  H      -3.257549      0.342021      0.008626
  H      -2.423111      1.837500      0.141542
23
Coordinates from ORCA-job semicarbazide_cytosine_opt_freq E -675.190694361730
  N       0.460503      2.273042      2.397936
  N      -0.897748      2.510749      2.083580
  C      -1.292136      3.615557      1.374233
  O      -2.445065      3.680413      0.919220
  N      -0.348433      4.596021      1.219436
  H       0.701496      2.693542      3.296369
  H       0.611945      1.271933      2.462229
  H      -1.580778      1.766729      2.167419
  H       0.628462      4.344275      1.312546
  H      -0.581575      5.303708      0.537879
  O       2.222464      0.871631     -0.355197
  N      -0.034509      0.776088     -0.067577
  N      -2.369918      0.837991      0.171248
  N       1.224976     -1.214756     -0.496625
  C      -1.231433      0.130013     -0.077805
  C      -1.203887     -1.248641     -0.288864
  C       1.237042      0.146158     -0.326484
  C       0.057015     -1.838381     -0.479931
  H       0.023702      1.770481      0.112231
  H      -2.120899     -1.824873     -0.299860
  H       0.107672     -2.917140     -0.633191
  H      -3.250728      0.367948      0.026011
  H      -2.411264      1.857961      0.187171
23
Coordinates from ORCA-job semicarbazide_cytosine_opt_freq E -675.195541289796
  N       0.388617      2.349473      2.580378
  N      -0.939099      2.616047      2.198864
  C      -1.217805      3.622173      1.304921
  O      -2.334510      3.683742      0.760203
  N      -0.223649      4.529955      1.086312
  H       0.610307      2.768107      3.481473
  H       0.561211      1.348963      2.614220
  H      -1.664072      1.916477      2.307627
  H       0.727784      4.271908      1.317956
  H      -0.368865      5.146951      0.300699
  O       2.159660      0.958546     -0.368377
  N      -0.080202      0.775401     -0.034479
  N      -2.417410      0.724887      0.285177
  N       1.227879     -1.145212     -0.619689
  C      -1.261956      0.090000     -0.049877
  C      -1.191173     -1.266389     -0.356111
  C       1.196081      0.200304     -0.356138
  C       0.082301     -1.803743     -0.619047
  H      -0.025448      1.764248      0.176587
  H      -2.083310     -1.879928     -0.383179
  H       0.148135     -2.869535     -0.843779
  H      -3.275308      0.221232      0.113368
  H      -2.512265      1.746837      0.344862
23
Coordinates from ORCA-job semicarbazide_cytosine_opt_freq E -675.198940999612
  N       0.365862      2.439618      2.739198
  N      -0.956852      2.664138      2.333592
  C      -1.215972      3.528912      1.291056
  O      -2.323812      3.506453      0.722198
  N      -0.217666      4.387029      0.948084
  H       0.565912      2.854245      3.645785
  H       0.609196      1.454625      2.732967
  H      -1.677804      1.969139      2.494044
  H       0.725330      4.183145      1.255394
  H      -0.345556      4.881408      0.077636
  O       2.164503      0.972054     -0.353930
  N      -0.073937      0.791531     -0.021608
  N      -2.401948      0.755139      0.318585
  N       1.216703     -1.112466     -0.692330
  C      -1.260782      0.115306     -0.047720
  C      -1.199988     -1.229689     -0.400963
  C       1.192586      0.222564     -0.375061
  C       0.067507     -1.764364     -0.699997
  H      -0.007354      1.771855      0.220878
  H      -2.092252     -1.842326     -0.442897
  H       0.116984     -2.821463     -0.965999
  H      -3.262151      0.262238      0.126242
  H      -2.481605      1.781354      0.336816
23
Coordinates from ORCA-job semicarbazide_cytosine_opt_freq E -675.201039544370
  N       0.330167      2.490527      2.816608
  N      -0.978434      2.738577      2.388071
  C      -1.204172      3.565541      1.301963
  O      -2.326878      3.601866      0.765325
  N      -0.163796      4.341732      0.902187
  H       0.523470      2.893010      3.728380
  H       0.590603      1.511112      2.777141
  H      -1.727311      2.083419      2.582054
  H       0.768719      4.110013      1.221559
  H      -0.277478      4.815136      0.018481
  O       2.144820      0.985873     -0.360979
  N      -0.089381      0.770149     -0.031914
  N      -2.402599      0.704944      0.347422
  N       1.220154     -1.100125     -0.754595
  C      -1.265863      0.077930     -0.051456
  C      -1.191183     -1.258756     -0.429765
  C       1.179484      0.227530     -0.406483
  C       0.080219     -1.768401     -0.758950
  H      -0.030097      1.749486      0.225030
  H      -2.073139     -1.886352     -0.469854
  H       0.139190     -2.818821     -1.048691
  H      -3.260117      0.204762      0.159938
  H      -2.479473      1.731293      0.320500
23
Coordinates from ORCA-job semicarbazide_cytosine_opt_freq E -675.202626389477
  N       0.291151      2.575247      2.908740
  N      -1.000338      2.826156      2.450462
  C      -1.188003      3.572277      1.299294
  O      -2.291576      3.575593      0.727889
  N      -0.108341      4.264684      0.853464
  H       0.471340      2.968342      3.825442
  H       0.573917      1.603585      2.839555
  H      -1.767821      2.203603      2.680802
  H       0.803690      4.058181      1.242565
  H      -0.181525      4.670720     -0.066769
  O       2.126259      1.003763     -0.376572
  N      -0.102227      0.753291     -0.037014
  N      -2.408291      0.660865      0.388761
  N       1.216157     -1.077628     -0.832841
  C      -1.271502      0.049250     -0.050743
  C      -1.188222     -1.275779     -0.466634
  C       1.170178      0.234210     -0.428984
  C       0.082573     -1.757763     -0.837172
  H      -0.053101      1.730177      0.231132
  H      -2.063714     -1.912168     -0.509404
  H       0.150784     -2.795467     -1.166977
  H      -3.265818      0.156963      0.210086
  H      -2.488666      1.682343      0.356892
23
Coordinates from ORCA-job semicarbazide_cytosine_opt_freq E -675.203700629842
  N       0.276225      2.655021      2.975894
  N      -1.005989      2.897868      2.497494
  C      -1.180426      3.572882      1.301300
  O      -2.276357      3.545454      0.721056
  N      -0.089755      4.238833      0.839963
  H       0.442255      3.033603      3.900515
  H       0.578976      1.691250      2.878776
  H      -1.781450      2.300031      2.763684
  H       0.808821      4.078828      1.277148
  H      -0.146135      4.627558     -0.088479
  O       2.128021      0.974907     -0.375729
  N      -0.104723      0.723774     -0.060400
  N      -2.405652      0.628332      0.393949
  N       1.210666     -1.092760     -0.884706
  C      -1.272281      0.018669     -0.069928
  C      -1.192537     -1.300354     -0.505300
  C       1.169109      0.213068     -0.461568
  C       0.076523     -1.773361     -0.891279
  H      -0.063591      1.697036      0.217490
  H      -2.069292     -1.934811     -0.548103
  H       0.151249     -2.804863     -1.238194
  H      -3.269266      0.131497      0.226220
  H      -2.477486      1.647982      0.372168
23
Coordinates from ORCA-job semicarbazide_cytosine_opt_freq E -675.204519472936
  N       0.282327      2.728796      3.025806
  N      -1.000326      2.954474      2.537354
  C      -1.185808      3.591752      1.321942
  O      -2.278317      3.524814      0.741723
  N      -0.101155      4.256561      0.842256
  H       0.426755      3.088251      3.961517
  H       0.601331      1.772114      2.909080
  H      -1.772474      2.365055      2.829094
  H       0.793266      4.140646      1.298759
  H      -0.165243      4.656012     -0.080751
  O       2.143334      0.915070     -0.377167
  N      -0.095562      0.682339     -0.078397
  N      -2.396447      0.604271      0.368780
  N       1.204491     -1.135966     -0.917365
  C      -1.267012     -0.014070     -0.093793
  C      -1.200237     -1.330954     -0.538202
  C       1.179807      0.161478     -0.468718
  C       0.064207     -1.807223     -0.932365
  H      -0.059922      1.654395      0.199609
  H      -2.085226     -1.953231     -0.586237
  H       0.138260     -2.833076     -1.295959
  H      -3.268539      0.123554      0.201746
  H      -2.450607      1.625382      0.373260
23
Coordinates from ORCA-job semicarbazide_cytosine_opt_freq E -675.205385290965
  N       0.309170      2.807724      3.068296
  N      -0.982215      2.999645      2.580421
  C      -1.187540      3.604808      1.352739
  O      -2.274186      3.483146      0.770273
  N      -0.123850      4.289836      0.856028
  H       0.419969      3.139333      4.018918
  H       0.647917      1.859668      2.934920
  H      -1.739046      2.398341      2.888279
  H       0.767572      4.237350      1.328871
  H      -0.207422      4.704293     -0.058242
  O       2.158593      0.844888     -0.365331
  N      -0.090294      0.645347     -0.107337
  N      -2.394038      0.585460      0.314023
  N       1.197244     -1.189462     -0.927877
  C      -1.267131     -0.040817     -0.132878
  C      -1.212491     -1.359724     -0.574933
  C       1.185418      0.109097     -0.483938
  C       0.049977     -1.849154     -0.955397
  H      -0.059609      1.616783      0.170857
  H      -2.106191     -1.968885     -0.627150
  H       0.122861     -2.875650     -1.317703
  H      -3.272801      0.120948      0.140139
  H      -2.435005      1.607468      0.368995
23
Coordinates from ORCA-job semicarbazide_cytosine_opt_freq E -675.206259553018
  N       0.356487      2.897536      3.106607
  N      -0.950249      3.030021      2.623585
  C      -1.181527      3.602025      1.386626
  O      -2.265797      3.427545      0.808850
  N      -0.158983      4.334917      0.876919
  H       0.410269      3.197486      4.073432
  H       0.722105      1.958963      2.970910
  H      -1.676307      2.394538      2.937860
  H       0.727818      4.364609      1.360291
  H      -0.280054      4.771435     -0.022443
  O       2.171666      0.768222     -0.354065
  N      -0.085555      0.607085     -0.133360
  N      -2.395652      0.575981      0.232158
  N       1.187606     -1.252984     -0.920634
  C      -1.270483     -0.063858     -0.178241
  C      -1.228432     -1.387971     -0.610940
  C       1.189864      0.045423     -0.479671
  C       0.031528     -1.897098     -0.968292
  H      -0.057643      1.580521      0.133639
  H      -2.131881     -1.981650     -0.672634
  H       0.097190     -2.925733     -1.325949
  H      -3.279415      0.129078      0.041224
  H      -2.425651      1.594354      0.356097
23
Coordinates from ORCA-job semicarbazide_cytosine_opt_freq E -675.206903866659
  N       0.404807      2.965034      3.135147
  N      -0.915627      3.035253      2.653519
  C      -1.167512      3.593902      1.416102
  O      -2.245519      3.375715      0.835799
  N      -0.179071      4.360256      0.894426
  H       0.409461      3.238509      4.112489
  H       0.797458      2.034331      3.009533
  H      -1.604575      2.354032      2.955873
  H       0.700760      4.455814      1.381826
  H      -0.332946      4.804238      0.003694
  O       2.164806      0.734103     -0.335305
  N      -0.096964      0.590595     -0.156950
  N      -2.412288      0.574640      0.150929
  N       1.180772     -1.287956     -0.893885
  C      -1.284823     -0.074070     -0.219786
  C      -1.241238     -1.404760     -0.636800
  C       1.180022      0.016298     -0.474408
  C       0.022005     -1.926662     -0.960251
  H      -0.073327      1.568899      0.096521
  H      -2.146514     -1.994914     -0.706786
  H       0.084799     -2.961224     -1.300963
  H      -3.295894      0.132730     -0.051421
  H      -2.441689      1.585680      0.332667
23
Coordinates from ORCA-job semicarbazide_cytosine_opt_freq E -675.207495202751
  N       0.435970      3.011848      3.160342
  N      -0.887838      3.026209      2.668562
  C      -1.144969      3.578611      1.430341
  O      -2.220297      3.344468      0.846765
  N      -0.177031      4.366297      0.906806
  H       0.424991      3.272207      4.142224
  H       0.855407      2.089542      3.051697
  H      -1.543748      2.304042      2.948677
  H       0.695363      4.504521      1.397572
  H      -0.351208      4.811656      0.020358
  O       2.139742      0.740652     -0.319366
  N      -0.121791      0.586751     -0.171872
  N      -2.440800      0.571418      0.087437
  N       1.177000     -1.294329     -0.865184
  C      -1.307375     -0.081356     -0.249938
  C      -1.249080     -1.416964     -0.652417
  C       1.159654      0.014701     -0.463148
  C       0.021717     -1.938272     -0.946290
  H      -0.103955      1.572472      0.067409
  H      -2.148176     -2.015704     -0.730806
  H       0.086359     -2.977345     -1.272401
  H      -3.321317      0.123389     -0.115153
  H      -2.471714      1.575631      0.300357
23
Coordinates from ORCA-job semicarbazide_cytosine_opt_freq E -675.208222462928
  N       0.469119      3.096750      3.208575
  N      -0.844341      3.025880      2.693341
  C      -1.104926      3.563212      1.449211
  O      -2.164994      3.291271      0.853274
  N      -0.158570      4.377849      0.929771
  H       0.418211      3.341254      4.194071
  H       0.942778      2.198624      3.112988
  H      -1.453218      2.256513      2.951203
  H       0.691914      4.576163      1.437161
  H      -0.354232      4.825690      0.049038
  O       2.097224      0.746718     -0.291467
  N      -0.163830      0.571252     -0.197438
  N      -2.486074      0.551409      0.007929
  N       1.167730     -1.303286     -0.839803
  C      -1.344202     -0.105059     -0.295506
  C      -1.263463     -1.443848     -0.684838
  C       1.126392      0.009396     -0.450946
  C       0.018931     -1.956315     -0.942894
  H      -0.156298      1.561681      0.019198
  H      -2.152009     -2.056354     -0.776952
  H       0.093338     -2.998463     -1.256584
  H      -3.364612      0.094770     -0.181737
  H      -2.507964      1.545339      0.254378
23
Coordinates from ORCA-job semicarbazide_cytosine_opt_freq E -675.209103267579
  N       0.503796      3.191360      3.263232
  N      -0.778216      3.011014      2.703863
  C      -1.041828      3.547793      1.459173
  O      -2.064911      3.216921      0.831567
  N      -0.134021      4.428102      0.977356
  H       0.414936      3.422217      4.249695
  H       1.057343      2.338399      3.180149
  H      -1.320806      2.182811      2.922877
  H       0.676935      4.690471      1.518619
  H      -0.355437      4.895834      0.112884
  O       2.031671      0.756901     -0.247132
  N      -0.226857      0.547277     -0.229700
  N      -2.549382      0.516385     -0.090815
  N       1.150827     -1.314610     -0.800233
  C      -1.396553     -0.143246     -0.353006
  C      -1.285241     -1.484564     -0.722860
  C       1.076502      0.003682     -0.429982
  C       0.013018     -1.981497     -0.931696
  H      -0.235471      1.543347     -0.042852
  H      -2.158302     -2.115729     -0.834669
  H       0.107208     -3.026844     -1.229186
  H      -3.425610      0.047334     -0.254375
  H      -2.552697      1.497087      0.189062
23
Coordinates from ORCA-job semicarbazide_cytosine_opt_freq E -675.210070389480
  N       0.557881      3.289103      3.312626
  N      -0.666750      2.975945      2.699753
  C      -0.947855      3.525271      1.463330
  O      -1.903941      3.106307      0.787565
  N      -0.128651      4.521570      1.050350
  H       0.380129      3.496050      4.292558
  H       1.214965      2.512195      3.242305
  H      -1.113090      2.079732      2.865521
  H       0.612500      4.863583      1.643750
  H      -0.400755      5.022405      0.219465
  O       1.956116      0.752836     -0.178876
  N      -0.298360      0.517771     -0.267265
  N      -2.619762      0.480532     -0.221857
  N       1.121061     -1.338517     -0.734487
  C      -1.456213     -0.184345     -0.423354
  C      -1.317480     -1.530350     -0.763056
  C       1.017476     -0.012832     -0.391450
  C      -0.005229     -2.016037     -0.904987
  H      -0.330979      1.513720     -0.123996
  H      -2.176546     -2.175496     -0.899858
  H       0.112599     -3.065692     -1.178410
  H      -3.491663     -0.002145     -0.360116
  H      -2.608548      1.438839      0.112460
23
Coordinates from ORCA-job semicarbazide_cytosine_opt_freq E -675.210963770881
  N       0.613330      3.348637      3.343909
  N      -0.503024      2.899126      2.637745
  C      -0.814985      3.503898      1.432616
  O      -1.639393      2.988022      0.662140
  N      -0.165292      4.665192      1.168881
  H       0.366262      3.522296      4.314015
  H       1.388460      2.691616      3.284915
  H      -0.811971      1.933955      2.700864
  H       0.467648      5.060686      1.847481
  H      -0.500331      5.209230      0.389673
  O       1.858542      0.757960     -0.081113
  N      -0.384387      0.494354     -0.306601
  N      -2.698845      0.446999     -0.374761
  N       1.076029     -1.358837     -0.625456
  C      -1.523940     -0.223359     -0.497858
  C      -1.358153     -1.576148     -0.786361
  C       0.941694     -0.020752     -0.330227
  C      -0.033520     -2.049774     -0.839698
  H      -0.449232      1.494477     -0.210227
  H      -2.200681     -2.236416     -0.950216
  H       0.115457     -3.105712     -1.071888
  H      -3.563866     -0.056236     -0.469073
  H      -2.672898      1.381234      0.003211
23
Coordinates from ORCA-job semicarbazide_cytosine_opt_freq E -675.211515670768
  N       0.628360      3.322647      3.324064
  N      -0.501029      2.893502      2.623768
  C      -0.845064      3.519295      1.438086
  O      -1.687044      3.012478      0.679644
  N      -0.209076      4.689191      1.180338
  H       0.418816      3.494387      4.302530
  H       1.400701      2.665950      3.244729
  H      -0.817815      1.931057      2.687211
  H       0.450579      5.062187      1.846780
  H      -0.550841      5.246118      0.413685
  O       1.879668      0.729482     -0.064337
  N      -0.365918      0.495615     -0.308537
  N      -2.682570      0.457971     -0.392337
  N       1.075342     -1.378259     -0.608529
  C      -1.508783     -0.218408     -0.500987
  C      -1.357540     -1.575215     -0.777548
  C       0.955190     -0.037117     -0.320186
  C      -0.037816     -2.062119     -0.823503
  H      -0.427764      1.501905     -0.199283
  H      -2.208068     -2.224977     -0.942314
  H       0.107674     -3.119841     -1.049851
  H      -3.551706     -0.040163     -0.483628
  H      -2.658391      1.404759     -0.027820
23
Coordinates from ORCA-job semicarbazide_cytosine_opt_freq E -675.212191541332
  N       0.670167      3.367599      3.356912
  N      -0.421098      2.877079      2.623350
  C      -0.807615      3.509274      1.456355
  O      -1.626740      2.967630      0.690223
  N      -0.256897      4.721713      1.213375
  H       0.417821      3.504133      4.331428
  H       1.493027      2.775686      3.265592
  H      -0.665203      1.892786      2.655376
  H       0.375786      5.125701      1.888912
  H      -0.635345      5.272106      0.460305
  O       1.858054      0.699001     -0.020640
  N      -0.381915      0.490483     -0.340411
  N      -2.684646      0.459767     -0.489771
  N       1.048492     -1.402824     -0.570664
  C      -1.516934     -0.225522     -0.544388
  C      -1.376252     -1.590692     -0.789559
  C       0.932416     -0.058528     -0.303320
  C      -0.061000     -2.088718     -0.801402
  H      -0.469496      1.501453     -0.213293
  H      -2.232498     -2.231456     -0.960348
  H       0.085560     -3.149831     -1.009979
  H      -3.551999     -0.045283     -0.567036
  H      -2.686782      1.398887     -0.089044
23
Coordinates from ORCA-job semicarbazide_cytosine_opt_freq E -675.212621833804
  N       0.709328      3.356799      3.325688
  N      -0.362537      2.847942      2.579918
  C      -0.800567      3.516265      1.455063
  O      -1.594722      2.967205      0.666895
  N      -0.329196      4.772010      1.277949
  H       0.459864      3.462930      4.303263
  H       1.554929      2.803832      3.217192
  H      -0.555721      1.851879      2.572250
  H       0.293693      5.168119      1.967801
  H      -0.725993      5.337868      0.546088
  O       1.852467      0.674260      0.032831
  N      -0.379983      0.491118     -0.357560
  N      -2.684597      0.469827     -0.563856
  N       1.031529     -1.423218     -0.510330
  C      -1.516678     -0.222316     -0.567693
  C      -1.387469     -1.593892     -0.779639
  C       0.924963     -0.074358     -0.267748
  C      -0.077374     -2.105101     -0.753884
  H      -0.473171      1.498481     -0.223291
  H      -2.249015     -2.225227     -0.958134
  H       0.067842     -3.170952     -0.937614
  H      -3.551635     -0.039962     -0.616523
  H      -2.699056      1.406934     -0.166693
23
Coordinates from ORCA-job semicarbazide_cytosine_opt_freq E -675.213160401491
  N       0.743799      3.362236      3.304637
  N      -0.315556      2.838166      2.554546
  C      -0.792821      3.524958      1.459774
  O      -1.570729      2.970656      0.657831
  N      -0.377936      4.804692      1.327377
  H       0.506580      3.422858      4.288420
  H       1.608842      2.849041      3.163464
  H      -0.458067      1.834422      2.521856
  H       0.246225      5.195453      2.018691
  H      -0.771484      5.373136      0.596079
  O       1.825234      0.662456      0.116801
  N      -0.389317      0.491716     -0.369378
  N      -2.696614      0.464615     -0.636136
  N       1.015705     -1.428926     -0.458596
  C      -1.524475     -0.225827     -0.590846
  C      -1.394186     -1.598922     -0.787236
  C       0.905103     -0.081548     -0.220378
  C      -0.086045     -2.113030     -0.726137
  H      -0.488811      1.490392     -0.207255
  H      -2.255132     -2.225429     -0.984136
  H       0.063572     -3.179786     -0.899873
  H      -3.560098     -0.054809     -0.658196
  H      -2.726886      1.393924     -0.229336
23
Coordinates from ORCA-job semicarbazide_cytosine_opt_freq E -675.213841825477
  N       0.805160      3.374241      3.271887
  N      -0.215125      2.809002      2.501555
  C      -0.763240      3.518476      1.456344
  O      -1.502167      2.950359      0.627404
  N      -0.466650      4.837071      1.409250
  H       0.580883      3.358177      4.260399
  H       1.704849      2.938214      3.091874
  H      -0.258866      1.800850      2.407092
  H       0.159044      5.230305      2.097268
  H      -0.879618      5.406546      0.689637
  O       1.752726      0.658648      0.276537
  N      -0.415605      0.493882     -0.384140
  N      -2.712969      0.466655     -0.757771
  N       0.982149     -1.431057     -0.353684
  C      -1.542511     -0.225537     -0.634578
  C      -1.406676     -1.600306     -0.804593
  C       0.857062     -0.083594     -0.128770
  C      -0.103986     -2.117126     -0.671998
  H      -0.526772      1.485116     -0.191468
  H      -2.260635     -2.224563     -1.036080
  H       0.051372     -3.185905     -0.826506
  H      -3.568914     -0.066228     -0.732786
  H      -2.762606      1.377218     -0.324901
23
Coordinates from ORCA-job semicarbazide_cytosine_opt_freq E -675.214845568280
  N       0.886925      3.377347      3.195217
  N      -0.138517      2.791204      2.447006
  C      -0.776426      3.526959      1.474157
  O      -1.524653      2.970505      0.646203
  N      -0.566421      4.863333      1.508453
  H       0.719110      3.270245      4.190357
  H       1.795889      2.989522      2.953060
  H      -0.098708      1.790833      2.288226
  H       0.107856      5.249847      2.152663
  H      -0.993313      5.433158      0.796951
  O       1.659481      0.651394      0.485270
  N      -0.433086      0.491661     -0.381056
  N      -2.715047      0.471221     -0.883292
  N       0.950181     -1.435288     -0.224651
  C      -1.551698     -0.225002     -0.676610
  C      -1.405411     -1.599577     -0.828839
  C       0.803675     -0.089545     -0.006203
  C      -0.114198     -2.119704     -0.611364
  H      -0.542986      1.474381     -0.153255
  H      -2.245339     -2.223715     -1.107772
  H       0.042063     -3.189750     -0.755017
  H      -3.566788     -0.069862     -0.837059
  H      -2.785688      1.371279     -0.430474
23
Coordinates from ORCA-job semicarbazide_cytosine_opt_freq E -675.216762553257
  N       0.995904      3.394040      3.107381
  N      -0.012955      2.762745      2.366659
  C      -0.760267      3.510754      1.483918
  O      -1.493383      2.959479      0.641252
  N      -0.683795      4.855707      1.638302
  H       0.890540      3.168401      4.093009
  H       1.915522      3.078745      2.799225
  H       0.146065      1.796097      2.103754
  H       0.029615      5.254995      2.229866
  H      -1.136612      5.416329      0.934744
  O       1.477825      0.671373      0.771542
  N      -0.478475      0.492768     -0.360973
  N      -2.721115      0.477711     -1.034045
  N       0.891767     -1.419504     -0.043317
  C      -1.573302     -0.223470     -0.729987
  C      -1.400551     -1.595270     -0.865007
  C       0.702002     -0.076495      0.164833
  C      -0.129152     -2.107027     -0.530188
  H      -0.594766      1.472368     -0.106527
  H      -2.207150     -2.230381     -1.210483
  H       0.038167     -3.176476     -0.665203
  H      -3.568293     -0.075317     -0.996634
  H      -2.820689      1.362874     -0.550149
23
Coordinates from ORCA-job semicarbazide_cytosine_opt_freq E -675.217083800812
  N       1.085154      3.438766      3.054581
  N       0.082160      2.754467      2.328106
  C      -0.718815      3.504190      1.489890
  O      -1.437815      2.962853      0.631674
  N      -0.726169      4.848314      1.714161
  H       1.016391      3.120956      4.021312
  H       2.000458      3.143538      2.702865
  H       0.330405      1.834470      1.965107
  H       0.008287      5.277385      2.257702
  H      -1.195879      5.377610      0.995198
  O       1.249295      0.684322      1.038880
  N      -0.572819      0.472147     -0.289345
  N      -2.742891      0.468871     -1.079210
  N       0.842148     -1.399420      0.089239
  C      -1.610963     -0.250416     -0.757674
  C      -1.376326     -1.608938     -0.927965
  C       0.575602     -0.069614      0.322243
  C      -0.118083     -2.090154     -0.510072
  H      -0.699828      1.466591     -0.041773
  H      -2.124699     -2.272268     -1.345199
  H       0.082752     -3.148771     -0.680257
  H      -3.583328     -0.088835     -1.184504
  H      -2.858134      1.344380     -0.552987
23
Coordinates from ORCA-job semicarbazide_cytosine_opt_freq E -675.218688540520
  N       1.036866      3.475385      3.127130
  N       0.008984      2.806683      2.413996
  C      -0.720530      3.539647      1.499899
  O      -1.433037      2.977060      0.646310
  N      -0.668006      4.893680      1.629148
  H       0.952828      3.209288      4.107259
  H       1.940874      3.140490      2.783544
  H       0.212825      1.851320      2.110766
  H       0.048458      5.321595      2.198025
  H      -1.113465      5.409631      0.886002
  O       1.357004      0.610394      0.928128
  N      -0.564263      0.448367     -0.272563
  N      -2.749401      0.443906     -0.980215
  N       0.874813     -1.440550     -0.037743
  C      -1.609765     -0.277459     -0.726411
  C      -1.387182     -1.633906     -0.939816
  C       0.624452     -0.118680      0.246682
  C      -0.112496     -2.121518     -0.601756
  H      -0.691720      1.449738     -0.025425
  H      -2.153150     -2.287396     -1.339883
  H       0.087418     -3.173388     -0.810320
  H      -3.595537     -0.091951     -1.127335
  H      -2.839065      1.338109     -0.473451
23
Coordinates from ORCA-job semicarbazide_cytosine_opt_freq E -675.219891197053
  N       1.072182      3.472863      3.092067
  N       0.075172      2.796463      2.346736
  C      -0.732776      3.516685      1.498747
  O      -1.407746      2.940659      0.616230
  N      -0.811412      4.851457      1.721327
  H       1.022468      3.185188      4.065031
  H       1.989610      3.219975      2.728593
  H       0.339124      1.871179      2.001510
  H      -0.110651      5.277111      2.310571
  H      -1.288687      5.401054      1.026745
  O       1.434910      0.551206      0.914883
  N      -0.485418      0.476501     -0.309572
  N      -2.688208      0.478378     -1.095234
  N       0.828483     -1.482043      0.013147
  C      -1.568165     -0.233760     -0.744198
  C      -1.427520     -1.610611     -0.886943
  C       0.655668     -0.146710      0.253756
  C      -0.180670     -2.149302     -0.522990
  H      -0.618450      1.466486     -0.047296
  H      -2.232865     -2.223101     -1.272559
  H      -0.012035     -3.216280     -0.674922
  H      -3.545508     -0.049858     -1.140171
  H      -2.800602      1.376902     -0.653486
23
Coordinates from ORCA-job semicarbazide_cytosine_opt_freq E -675.221667674533
  N       1.098539      3.508038      3.082103
  N       0.114588      2.799907      2.336164
  C      -0.701111      3.521658      1.495374
  O      -1.353315      2.954271      0.591256
  N      -0.818028      4.851528      1.747489
  H       1.042227      3.197892      4.048515
  H       2.019279      3.266308      2.718533
  H       0.410949      1.896539      1.951081
  H      -0.131588      5.286185      2.348268
  H      -1.309149      5.397624      1.058362
  O       1.366515      0.544227      0.985757
  N      -0.529414      0.456271     -0.269123
  N      -2.697223      0.466854     -1.085140
  N       0.808905     -1.488064      0.044096
  C      -1.584762     -0.254073     -0.746594
  C      -1.425688     -1.625920     -0.913972
  C       0.612727     -0.157286      0.296834
  C      -0.180090     -2.155424     -0.530422
  H      -0.672974      1.453343     -0.033862
  H      -2.212399     -2.246020     -1.325211
  H       0.004136     -3.217851     -0.696489
  H      -3.550849     -0.052492     -1.216504
  H      -2.804373      1.366927     -0.644545
23
Coordinates from ORCA-job semicarbazide_cytosine_opt_freq E -675.222480365328
  N       1.139224      3.544720      3.051631
  N       0.172274      2.806152      2.305025
  C      -0.683703      3.529240      1.505405
  O      -1.322024      2.980695      0.579886
  N      -0.853629      4.842985      1.818015
  H       1.119433      3.207400      4.011113
  H       2.059311      3.339351      2.663874
  H       0.512305      1.933552      1.874234
  H      -0.170028      5.277493      2.423666
  H      -1.360428      5.398352      1.146644
  O       1.291422      0.532169      1.065481
  N      -0.566355      0.436302     -0.238253
  N      -2.693070      0.452320     -1.129403
  N       0.772004     -1.503014      0.105604
  C      -1.595677     -0.273760     -0.759712
  C      -1.425576     -1.643660     -0.932796
  C       0.558901     -0.175055      0.354639
  C      -0.193870     -2.171054     -0.507375
  H      -0.715222      1.440811     -0.009850
  H      -2.192218     -2.264874     -1.378862
  H       0.002123     -3.230782     -0.674883
  H      -3.542084     -0.056552     -1.327272
  H      -2.806210      1.367655     -0.704840
23
Coordinates from ORCA-job semicarbazide_cytosine_opt_freq E -675.222927698059
  N       1.151361      3.562479      3.053225
  N       0.210411      2.805153      2.292373
  C      -0.668787      3.508387      1.500876
  O      -1.296294      2.947608      0.574839
  N      -0.868635      4.817391      1.818430
  H       1.122370      3.223089      4.011604
  H       2.081002      3.387449      2.675792
  H       0.563970      1.930268      1.868345
  H      -0.192101      5.259735      2.427310
  H      -1.402166      5.367752      1.163920
  O       1.299136      0.535926      1.056346
  N      -0.581392      0.435400     -0.212256
  N      -2.695459      0.455340     -1.126603
  N       0.757130     -1.504625      0.120504
  C      -1.601221     -0.270688     -0.754759
  C      -1.433250     -1.640259     -0.934317
  C       0.551259     -0.175389      0.363571
  C      -0.206574     -2.170983     -0.499179
  H      -0.737353      1.440876     -0.001500
  H      -2.196863     -2.257174     -1.391220
  H      -0.008093     -3.230938     -0.661933
  H      -3.539311     -0.040477     -1.370558
  H      -2.802241      1.384126     -0.732837
23
Coordinates from ORCA-job semicarbazide_cytosine_opt_freq E -675.223545972257
  N       1.172626      3.604069      3.055955
  N       0.249720      2.828790      2.292887
  C      -0.665236      3.517925      1.531655
  O      -1.318993      2.950660      0.626849
  N      -0.868742      4.824157      1.855533
  H       1.160277      3.271015      4.016432
  H       2.107171      3.481864      2.672043
  H       0.606488      1.949669      1.880699
  H      -0.187933      5.265836      2.460008
  H      -1.439362      5.375256      1.234588
  O       1.313450      0.519451      1.017312
  N      -0.598692      0.411256     -0.203084
  N      -2.694850      0.432439     -1.165670
  N       0.733548     -1.531813      0.133676
  C      -1.609070     -0.289196     -0.770700
  C      -1.445328     -1.660860     -0.944670
  C       0.540953     -0.198139      0.354784
  C      -0.229959     -2.197688     -0.488482
  H      -0.751444      1.418599      0.013363
  H      -2.204736     -2.273547     -1.414174
  H      -0.038590     -3.261238     -0.635156
  H      -3.532243     -0.052392     -1.446238
  H      -2.792152      1.384334     -0.835639
23
Coordinates from ORCA-job semicarbazide_cytosine_opt_freq E -675.223806650451
  N       1.182532      3.637831      3.073723
  N       0.283644      2.847041      2.300783
  C      -0.642235      3.513454      1.537148
  O      -1.286381      2.930806      0.634411
  N      -0.868288      4.816229      1.855391
  H       1.194723      3.287334      4.027353
  H       2.117308      3.549980      2.679841
  H       0.664583      1.969574      1.903522
  H      -0.198189      5.269993      2.462039
  H      -1.442083      5.355915      1.228333
  O       1.291802      0.510158      1.033093
  N      -0.626813      0.402763     -0.180619
  N      -2.715860      0.415994     -1.177965
  N       0.718911     -1.536112      0.138423
  C      -1.627485     -0.298482     -0.772869
  C      -1.447525     -1.667094     -0.963819
  C       0.518834     -0.205560      0.368111
  C      -0.236461     -2.201303     -0.498502
  H      -0.777949      1.404505      0.061564
  H      -2.195840     -2.277733     -1.453514
  H      -0.040427     -3.262795     -0.653232
  H      -3.541741     -0.067203     -1.492101
  H      -2.818158      1.375151     -0.869141
23
Coordinates from ORCA-job semicarbazide_cytosine_opt_freq E -675.224006710384
  N       1.189429      3.630441      3.045151
  N       0.290062      2.844695      2.279419
  C      -0.653687      3.511150      1.540636
  O      -1.314061      2.933869      0.647163
  N      -0.876920      4.811787      1.872158
  H       1.212648      3.284299      4.000893
  H       2.128795      3.533634      2.663453
  H       0.660392      1.964704      1.877166
  H      -0.196991      5.268354      2.464336
  H      -1.471438      5.348104      1.262238
  O       1.302839      0.515474      1.031628
  N      -0.635110      0.400492     -0.154036
  N      -2.713404      0.419509     -1.173778
  N       0.713981     -1.538139      0.163239
  C      -1.627526     -0.293321     -0.767434
  C      -1.442482     -1.661738     -0.963163
  C       0.521330     -0.203704      0.382904
  C      -0.240341     -2.198972     -0.481409
  H      -0.776806      1.400111      0.077237
  H      -2.184444     -2.270147     -1.465231
  H      -0.049725     -3.262113     -0.631892
  H      -3.524600     -0.055636     -1.531213
  H      -2.805039      1.387591     -0.897494
23
Coordinates from ORCA-job semicarbazide_cytosine_opt_freq E -675.224211016798
  N       1.193621      3.645586      3.053466
  N       0.302884      2.854332      2.282956
  C      -0.643692      3.515118      1.542594
  O      -1.306631      2.930530      0.656025
  N      -0.870019      4.817653      1.864084
  H       1.203262      3.293057      4.008023
  H       2.138268      3.557607      2.681292
  H       0.672558      1.977049      1.882984
  H      -0.198723      5.285819      2.456866
  H      -1.473986      5.342153      1.252733
  O       1.296554      0.502851      1.035256
  N      -0.643967      0.388600     -0.146097
  N      -2.717784      0.415955     -1.167460
  N       0.711732     -1.548281      0.156936
  C      -1.631577     -0.297881     -0.768708
  C      -1.443143     -1.665003     -0.974707
  C       0.516564     -0.215057      0.385536
  C      -0.241428     -2.204565     -0.493995
  H      -0.783300      1.389159      0.094328
  H      -2.183385     -2.270406     -1.483130
  H      -0.052227     -3.266809     -0.652924
  H      -3.525093     -0.059484     -1.534180
  H      -2.813584      1.382464     -0.889907
23
Coordinates from ORCA-job semicarbazide_cytosine_opt_freq E -675.224455509654
  N       1.193645      3.660197      3.063856
  N       0.305274      2.870920      2.290253
  C      -0.631920      3.529277      1.534764
  O      -1.288873      2.938856      0.648611
  N      -0.855780      4.836256      1.839086
  H       1.190250      3.307323      4.018676
  H       2.141603      3.565294      2.702035
  H       0.664579      1.985013      1.902568
  H      -0.198118      5.314425      2.438948
  H      -1.459699      5.349276      1.217297
  O       1.283768      0.475930      1.060972
  N      -0.655865      0.368288     -0.118988
  N      -2.732386      0.407611     -1.134852
  N       0.716720     -1.562951      0.137358
  C      -1.638358     -0.306920     -0.758245
  C      -1.439720     -1.667847     -0.996304
  C       0.512954     -0.236000      0.397573
  C      -0.232681     -2.209347     -0.528353
  H      -0.793548      1.368851      0.132325
  H      -2.176239     -2.265974     -1.518680
  H      -0.038154     -3.266889     -0.711613
  H      -3.531254     -0.062628     -1.527633
  H      -2.829293      1.371484     -0.847683
23
Coordinates from ORCA-job semicarbazide_cytosine_opt_freq E -675.224725159820
  N       1.210096      3.682321      3.058188
  N       0.327433      2.889686      2.279494
  C      -0.622802      3.533308      1.528537
  O      -1.281577      2.928375      0.653670
  N      -0.858218      4.840741      1.823141
  H       1.198240      3.328700      4.012659
  H       2.161046      3.587983      2.705007
  H       0.678516      1.995675      1.902763
  H      -0.209586      5.335183      2.419280
  H      -1.478579      5.337391      1.204057
  O       1.259275      0.438701      1.114407
  N      -0.674359      0.347777     -0.072587
  N      -2.738273      0.405552     -1.110499
  N       0.708073     -1.581255      0.136579
  C      -1.643613     -0.312036     -0.744758
  C      -1.436520     -1.664990     -1.020924
  C       0.497269     -0.263068      0.431887
  C      -0.231585     -2.213327     -0.555343
  H      -0.810233      1.349437      0.184221
  H      -2.164428     -2.249433     -1.570039
  H      -0.028898     -3.264129     -0.766576
  H      -3.518891     -0.050212     -1.553333
  H      -2.835481      1.368065     -0.817857
23
Coordinates from ORCA-job semicarbazide_cytosine_opt_freq E -675.225033465107
  N       1.221626      3.694557      3.044437
  N       0.337720      2.907048      2.263985
  C      -0.621860      3.542032      1.520788
  O      -1.289697      2.926639      0.659974
  N      -0.852876      4.853060      1.803292
  H       1.203822      3.346611      4.000626
  H       2.172584      3.591212      2.694857
  H       0.667521      1.993785      1.910665
  H      -0.205399      5.354567      2.394359
  H      -1.482687      5.343083      1.188627
  O       1.235642      0.400061      1.175481
  N      -0.691778      0.325498     -0.018450
  N      -2.747439      0.400494     -1.078037
  N       0.705659     -1.595549      0.133583
  C      -1.648069     -0.318232     -0.725868
  C      -1.428209     -1.659652     -1.045002
  C       0.483275     -0.290168      0.469900
  C      -0.222538     -2.212837     -0.586194
  H      -0.828809      1.325471      0.241313
  H      -2.146383     -2.230401     -1.620451
  H      -0.006808     -3.254029     -0.829658
  H      -3.504874     -0.035020     -1.577765
  H      -2.843519      1.362215     -0.778489
23
Coordinates from ORCA-job semicarbazide_cytosine_opt_freq E -675.225317965269
  N       1.240755      3.705191      3.018202
  N       0.361390      2.918355      2.233545
  C      -0.623302      3.539479      1.518184
  O      -1.311921      2.911389      0.681756
  N      -0.853360      4.852047      1.795012
  H       1.223766      3.359504      3.974977
  H       2.191088      3.605069      2.666919
  H       0.671155      1.986532      1.907682
  H      -0.198074      5.359686      2.371632
  H      -1.502761      5.337453      1.197836
  O       1.204154      0.371404      1.240375
  N      -0.718518      0.308899      0.039949
  N      -2.753536      0.397654     -1.059807
  N       0.694799     -1.602578      0.149460
  C      -1.653024     -0.319913     -0.710949
  C      -1.417042     -1.649453     -1.066124
  C       0.458193     -0.309301      0.515461
  C      -0.216342     -2.207276     -0.602147
  H      -0.859328      1.307128      0.302179
  H      -2.120714     -2.208710     -1.669929
  H       0.012920     -3.239564     -0.869497
  H      -3.475034     -0.013015     -1.628109
  H      -2.848360      1.360465     -0.764635
23
Coordinates from ORCA-job semicarbazide_cytosine_opt_freq E -675.225533926928
  N       1.254087      3.704704      2.988403
  N       0.372983      2.926181      2.202376
  C      -0.631651      3.542923      1.517626
  O      -1.346362      2.910169      0.704906
  N      -0.849341      4.858193      1.790823
  H       1.241719      3.358575      3.945072
  H       2.201129      3.605008      2.628267
  H       0.657130      1.975192      1.906288
  H      -0.177588      5.363353      2.350338
  H      -1.512051      5.347417      1.212211
  O       1.176405      0.346363      1.300716
  N      -0.740291      0.293637      0.088445
  N      -2.759832      0.393555     -1.042951
  N       0.689767     -1.606402      0.166315
  C      -1.655922     -0.321760     -0.698736
  C      -1.401939     -1.639194     -1.083644
  C       0.437085     -0.323964      0.556381
  C      -0.205497     -2.200574     -0.613281
  H      -0.888725      1.288510      0.354649
  H      -2.091633     -2.191167     -1.709958
  H       0.036391     -3.224305     -0.901275
  H      -3.443870      0.007351     -1.671633
  H      -2.855091      1.356680     -0.749367
23
Coordinates from ORCA-job semicarbazide_cytosine_opt_freq E -675.225647794990
  N       1.270998      3.711931      2.962415
  N       0.396941      2.931095      2.172958
  C      -0.632441      3.534384      1.518246
  O      -1.364107      2.891872      0.726779
  N      -0.855087      4.848369      1.792726
  H       1.264274      3.358251      3.916569
  H       2.216953      3.627339      2.595601
  H       0.667862      1.968709      1.902349
  H      -0.174533      5.357823      2.337670
  H      -1.537439      5.332929      1.233657
  O       1.150066      0.331028      1.345933
  N      -0.762710      0.284869      0.124412
  N      -2.762917      0.395119     -1.038647
  N       0.677207     -1.609711      0.189897
  C      -1.659328     -0.318906     -0.693254
  C      -1.391635     -1.627896     -1.097003
  C       0.414268     -0.332348      0.591095
  C      -0.203344     -2.194538     -0.613783
  H      -0.917137      1.278070      0.397991
  H      -2.068384     -2.173601     -1.742833
  H       0.044306     -3.214070     -0.911327
  H      -3.409558      0.029958     -1.717679
  H      -2.857351      1.359771     -0.751799
23
Coordinates from ORCA-job semicarbazide_cytosine_opt_freq E -675.225717463183
  N       1.282067      3.714769      2.942174
  N       0.405631      2.939486      2.152594
  C      -0.638610      3.539177      1.519743
  O      -1.382980      2.895034      0.740672
  N      -0.859367      4.852109      1.799187
  H       1.286154      3.354064      3.893762
  H       2.224360      3.638119      2.564450
  H       0.662328      1.968971      1.899382
  H      -0.169071      5.359422      2.334079
  H      -1.553084      5.337139      1.254819
  O       1.130116      0.310954      1.383240
  N      -0.772735      0.273683      0.143481
  N      -2.762014      0.395556     -1.035813
  N       0.669700     -1.619053      0.206433
  C      -1.658663     -0.320507     -0.692402
  C      -1.382434     -1.623166     -1.108995
  C       0.400637     -0.344345      0.616175
  C      -0.200370     -2.195096     -0.615371
  H      -0.934074      1.264073      0.423391
  H      -2.050314     -2.164371     -1.767855
  H       0.050022     -3.211764     -0.920298
  H      -3.385309      0.046877     -1.745170
  H      -2.855088      1.359316     -0.745707
23
Coordinates from ORCA-job semicarbazide_cytosine_opt_freq E -675.225784012753
  N       1.296015      3.724581      2.924748
  N       0.421981      2.947773      2.135574
  C      -0.640580      3.537143      1.523899
  O      -1.389891      2.887690      0.754125
  N      -0.870833      4.846476      1.812431
  H       1.311972      3.353281      3.872292
  H       2.236073      3.665242      2.538458
  H       0.672138      1.973133      1.894424
  H      -0.177775      5.356944      2.340954
  H      -1.579806      5.325604      1.282670
  O       1.114595      0.298462      1.406519
  N      -0.780527      0.266658      0.153932
  N      -2.757255      0.400301     -1.044568
  N       0.656656     -1.629737      0.225553
  C      -1.658037     -0.320007     -0.695533
  C      -1.379174     -1.620523     -1.116341
  C       0.388415     -0.353468      0.635270
  C      -0.205798     -2.198926     -0.608662
  H      -0.946705      1.254351      0.439911
  H      -2.039649     -2.156999     -1.786471
  H       0.043318     -3.215632     -0.914671
  H      -3.362470      0.062221     -1.774818
  H      -2.845761      1.365877     -0.757722
23
Coordinates from ORCA-job semicarbazide_cytosine_opt_freq E -675.225848266249
  N       1.312402      3.738367      2.907662
  N       0.439668      2.960053      2.119644
  C      -0.643335      3.537322      1.531551
  O      -1.395809      2.882285      0.770796
  N      -0.885182      4.842178      1.832201
  H       1.348625      3.354747      3.849799
  H       2.248689      3.700674      2.509963
  H       0.681103      1.981523      1.889429
  H      -0.191439      5.357261      2.355282
  H      -1.611187      5.312658      1.317923
  O       1.097646      0.285096      1.427088
  N      -0.787081      0.258101      0.159611
  N      -2.749284      0.405401     -1.059397
  N       0.640100     -1.644475      0.245457
  C      -1.656707     -0.321609     -0.702027
  C      -1.378246     -1.621660     -1.123769
  C       0.376124     -0.365195      0.652358
  C      -0.214477     -2.206642     -0.600407
  H      -0.958941      1.241590      0.453800
  H      -2.031221     -2.153068     -1.805095
  H       0.031053     -3.225085     -0.903914
  H      -3.339153      0.076631     -1.806347
  H      -2.826448      1.374292     -0.779638
23
Coordinates from ORCA-job semicarbazide_cytosine_opt_freq E -675.225877711847
  N       1.321933      3.746795      2.897859
  N       0.450592      2.966574      2.111051
  C      -0.644637      3.535540      1.537355
  O      -1.398391      2.876245      0.782307
  N      -0.894736      4.837735      1.844531
  H       1.370536      3.354989      3.836099
  H       2.255631      3.722575      2.493040
  H       0.686576      1.985527      1.885964
  H      -0.202317      5.357746      2.364225
  H      -1.629726      5.302132      1.337506
  O       1.088412      0.278359      1.438160
  N      -0.790201      0.254890      0.162210
  N      -2.742970      0.409970     -1.070027
  N       0.630538     -1.651494      0.255505
  C      -1.655789     -0.322213     -0.704989
  C      -1.379528     -1.623018     -1.125533
  C       0.369373     -0.371483      0.661000
  C      -0.220744     -2.211377     -0.594431
  H      -0.965698      1.235329      0.461121
  H      -2.028867     -2.151225     -1.812681
  H       0.024095     -3.230364     -0.896905
  H      -3.326825      0.085167     -1.823490
  H      -2.810357      1.382045     -0.797906
23
Coordinates from ORCA-job semicarbazide_cytosine_opt_freq E -675.225892211767
  N       1.325789      3.749398      2.894094
  N       0.454547      2.969093      2.107656
  C      -0.645903      3.534831      1.541029
  O      -1.401358      2.873865      0.789432
  N      -0.898643      4.836351      1.849953
  H       1.382057      3.353406      3.830152
  H       2.257695      3.730514      2.484841
  H       0.685616      1.986088      1.885165
  H      -0.207234      5.359770      2.367298
  H      -1.636233      5.298368      1.344479
  O       1.083727      0.276224      1.443163
  N      -0.791495      0.254127      0.162768
  N      -2.739379      0.412174     -1.075202
  N       0.627631     -1.652856      0.257915
  C      -1.655295     -0.323035     -0.705920
  C      -1.380622     -1.624558     -1.125113
  C       0.366589     -0.373779      0.663603
  C      -0.222563     -2.213168     -0.592703
  H      -0.969623      1.232550      0.465314
  H      -2.029048     -2.151725     -1.813848
  H       0.022774     -3.232401     -0.893908
  H      -3.323285      0.088745     -1.829107
  H      -2.798841      1.386461     -0.809089
23
Coordinates from ORCA-job semicarbazide_cytosine_opt_freq E -675.225902135351
  N       1.325539      3.748114      2.893766
  N       0.454177      2.968190      2.107347
  C      -0.646580      3.533892      1.541804
  O      -1.402945      2.872799      0.790956
  N      -0.899703      4.835408      1.850347
  H       1.382629      3.350587      3.829138
  H       2.257046      3.729010      2.483492
  H       0.683846      1.984633      1.884707
  H      -0.208916      5.360466      2.366744
  H      -1.636343      5.297667      1.343695
  O       1.084166      0.276963      1.443448
  N      -0.790278      0.255647      0.161674
  N      -2.737267      0.414011     -1.076530
  N       0.628839     -1.651100      0.256751
  C      -1.654634     -0.322607     -0.705481
  C      -1.381348     -1.624933     -1.123072
  C       0.367354     -0.372826      0.662635
  C      -0.222559     -2.213087     -0.591985
  H      -0.969708      1.233452      0.465355
  H      -2.030848     -2.152267     -1.810668
  H       0.023655     -3.232198     -0.892710
  H      -3.325074      0.089703     -1.826973
  H      -2.794143      1.388921     -0.812466
23
Coordinates from ORCA-job semicarbazide_cytosine_opt_freq E -675.225904183126
  N       1.324451      3.745816      2.894371
  N       0.452475      2.966793      2.107555
  C      -0.647123      3.533763      1.541513
  O      -1.404374      2.873311      0.790665
  N      -0.899052      4.835627      1.849152
  H       1.380668      3.347952      3.829676
  H       2.256018      3.724932      2.484278
  H       0.681569      1.983051      1.884818
  H      -0.208142      5.360918      2.365133
  H      -1.634401      5.298944      1.341581
  O       1.085192      0.278537      1.442490
  N      -0.789344      0.256982      0.160708
  N      -2.736629      0.414486     -1.076203
  N       0.630728     -1.649152      0.255350
  C      -1.654301     -0.322216     -0.705112
  C      -1.381160     -1.624871     -1.121895
  C       0.368420     -0.371175      0.661300
  C      -0.221491     -2.212245     -0.592205
  H      -0.969338      1.234795      0.465080
  H      -2.031560     -2.152828     -1.808188
  H       0.025082     -3.231412     -0.892296
  H      -3.327483      0.089114     -1.823691
  H      -2.793304      1.389324     -0.812109
23
Coordinates from ORCA-job semicarbazide_cytosine_opt_freq E -675.225904019997
  N       1.323718      3.744380      2.894487
  N       0.451339      2.965953      2.107437
  C      -0.647546      3.533669      1.541009
  O      -1.404945      2.873640      0.789714
  N      -0.899174      4.835475      1.848721
  H       1.379024      3.346100      3.829673
  H       2.255380      3.722563      2.484636
  H       0.680778      1.982354      1.884357
  H      -0.208279      5.360609      2.364909
  H      -1.634051      5.299502      1.341114
  O       1.086418      0.279294      1.441713
  N      -0.787925      0.257981      0.159473
  N      -2.735510      0.415461     -1.076489
  N       0.631675     -1.648456      0.255051
  C      -1.653721     -0.321616     -0.705192
  C      -1.381107     -1.624693     -1.121057
  C       0.369497     -0.370160      0.660491
  C      -0.221281     -2.211981     -0.591675
  H      -0.968311      1.235831      0.463972
  H      -2.032189     -2.152955     -1.806489
  H       0.025105     -3.231347     -0.891205
  H      -3.329156      0.088918     -1.821222
  H      -2.792836      1.389921     -0.811456
23
Coordinates from ORCA-job semicarbazide_cytosine_opt_freq E -675.225903489944
  N       1.323548      3.743655      2.894199
  N       0.450901      2.965639      2.106862
  C      -0.647906      3.533662      1.540725
  O      -1.405505      2.873799      0.789398
  N      -0.899273      4.835428      1.848613
  H       1.378621      3.344915      3.829209
  H       2.255232      3.721796      2.484415
  H       0.680418      1.982041      1.883981
  H      -0.208392      5.360324      2.365077
  H      -1.634503      5.299686      1.341739
  O       1.086842      0.279654      1.441478
  N      -0.787225      0.258441      0.158884
  N      -2.734613      0.416132     -1.077000
  N       0.631815     -1.648430      0.255468
  C      -1.653338     -0.321223     -0.705466
  C      -1.380916     -1.624527     -1.120845
  C       0.369873     -0.369719      0.660375
  C      -0.221309     -2.211893     -0.591125
  H      -0.967827      1.236285      0.463661
  H      -2.032079     -2.152865     -1.806147
  H       0.024750     -3.231469     -0.890232
  H      -3.329791      0.088782     -1.820103
  H      -2.792419      1.390333     -0.811194
