21
Coordinates from ORCA-job thiourea_cytosine_opt_freq E -942.439925185876
  S      -2.475240      3.933079      1.501588
  N      -0.919863      2.237594      1.501588
  N      -0.228213      4.427779      1.501588
  C      -1.303033      3.562794      1.501188
  H       0.057782      1.966755      1.501288
  H      -1.606944      1.491130      1.501588
  H      -0.362016      5.433330      1.501688
  H       0.727616      4.088010      1.501488
  O       2.213400      1.118800      0.000100
  N      -0.059500      0.981600      0.000100
  N      -2.442200      0.921400      0.000100
  N       1.293500     -0.974400      0.000000
  C      -1.240600      0.267600     -0.000100
  C      -1.164300     -1.072600     -0.000200
  C       1.208800      0.405600     -0.000300
  C       0.190800     -1.647800      0.000300
  H      -0.133100      1.994600      0.000300
  H      -2.022300     -1.731700     -0.000300
  H       0.235100     -2.748700      0.000500
  H      -3.308900      0.398400      0.000300
  H      -2.453300      1.933200      0.000600
21
Coordinates from ORCA-job thiourea_cytosine_opt_freq E -942.594156219138
  S      -2.549719      3.944299      1.506898
  N      -0.913160      2.247941      1.509514
  N      -0.232633      4.432408      1.503799
  C      -1.274344      3.555416      1.506667
  H       0.063843      1.974113      1.508779
  H      -1.597236      1.507665      1.507520
  H      -0.376998      5.433349      1.501045
  H       0.726101      4.103202      1.504095
  O       2.216170      1.111788     -0.006850
  N      -0.052374      0.974096     -0.005832
  N      -2.435195      0.931906      0.000047
  N       1.293121     -0.990111     -0.005416
  C      -1.234299      0.266649     -0.002716
  C      -1.160226     -1.086688     -0.001102
  C       1.216471      0.392675     -0.007580
  C       0.182434     -1.661925     -0.002611
  H      -0.124281      1.992490     -0.004126
  H      -2.021591     -1.741535      0.001357
  H       0.227180     -2.759822     -0.001462
  H      -3.301709      0.412793      0.000330
  H      -2.444066      1.945763      0.001049
21
Coordinates from ORCA-job thiourea_cytosine_opt_freq E -942.678225743044
  S      -2.619692      3.956800      1.513455
  N      -0.903554      2.262810      1.524456
  N      -0.238015      4.456577      1.509362
  C      -1.249860      3.561470      1.516443
  H       0.071139      1.982367      1.524159
  H      -1.587897      1.524005      1.518574
  H      -0.402327      5.451357      1.501000
  H       0.726352      4.146274      1.512238
  O       2.218628      1.096407     -0.015005
  N      -0.044526      0.957906     -0.014490
  N      -2.424871      0.938382     -0.001012
  N       1.291671     -1.014854     -0.014583
  C      -1.227592      0.259340     -0.007996
  C      -1.155609     -1.107705     -0.005702
  C       1.226529      0.368389     -0.017981
  C       0.169244     -1.681919     -0.009894
  H      -0.111682      1.981755     -0.010277
  H      -2.022539     -1.755386     -0.000896
  H       0.216387     -2.776186     -0.008799
  H      -3.291391      0.422690     -0.003026
  H      -2.432907      1.955991      0.003379
21
Coordinates from ORCA-job thiourea_cytosine_opt_freq E -942.738958794454
  S      -2.706988      3.985081      1.518712
  N      -0.888841      2.295564      1.559315
  N      -0.245013      4.513695      1.523656
  C      -1.236022      3.596110      1.537065
  H       0.082443      2.002365      1.563930
  H      -1.574876      1.552220      1.546724
  H      -0.440233      5.501006      1.500500
  H       0.727431      4.230816      1.537198
  O       2.224032      1.059495     -0.030020
  N      -0.034002      0.921999     -0.034010
  N      -2.407259      0.936718     -0.004316
  N       1.290228     -1.059675     -0.034716
  C      -1.219365      0.238140     -0.020974
  C      -1.150687     -1.141786     -0.017537
  C       1.241633      0.319949     -0.039776
  C       0.151581     -1.716045     -0.027287
  H      -0.088926      1.950688     -0.026405
  H      -2.027715     -1.776193     -0.008115
  H       0.204551     -2.806754     -0.026986
  H      -3.274280      0.423441     -0.012847
  H      -2.420202      1.959636      0.009293
21
Coordinates from ORCA-job thiourea_cytosine_opt_freq E -942.775924686793
  S      -2.789044      4.026932      1.512442
  N      -0.870890      2.348450      1.608924
  N      -0.251922      4.577829      1.545196
  C      -1.233782      3.649259      1.563236
  H       0.095381      2.043181      1.625357
  H      -1.556512      1.599073      1.590503
  H      -0.477205      5.558318      1.498557
  H       0.725835      4.318759      1.579793
  O       2.230648      1.012917     -0.049200
  N      -0.026014      0.877992     -0.062373
  N      -2.388200      0.923885     -0.010282
  N       1.289982     -1.109243     -0.063129
  C      -1.213937      0.209319     -0.039927
  C      -1.149834     -1.178798     -0.032418
  C       1.256002      0.264081     -0.067802
  C       0.137456     -1.755218     -0.051290
  H      -0.060555      1.902714     -0.054117
  H      -2.038411     -1.797408     -0.015445
  H       0.199562     -2.844368     -0.052142
  H      -3.255799      0.411049     -0.025284
  H      -2.415270      1.947747      0.012805
21
Coordinates from ORCA-job thiourea_cytosine_opt_freq E -942.795562504918
  S      -2.851285      4.067577      1.494283
  N      -0.850739      2.408205      1.659072
  N      -0.259622      4.636790      1.570164
  C      -1.236351      3.703090      1.587520
  H       0.111666      2.098423      1.691309
  H      -1.532481      1.656228      1.637541
  H      -0.510596      5.610163      1.499522
  H       0.721002      4.397278      1.631154
  O       2.236933      0.966738     -0.067577
  N      -0.021311      0.837102     -0.091734
  N      -2.372366      0.902791     -0.017440
  N       1.288497     -1.154244     -0.093853
  C      -1.211746      0.179457     -0.059353
  C      -1.153288     -1.212740     -0.046401
  C       1.265657      0.214254     -0.093459
  C       0.127637     -1.793320     -0.076375
  H      -0.032658      1.852807     -0.085604
  H      -2.051113     -1.817777     -0.021282
  H       0.196605     -2.881714     -0.079467
  H      -3.241375      0.391643     -0.034280
  H      -2.415576      1.923721      0.009665
21
Coordinates from ORCA-job thiourea_cytosine_opt_freq E -942.806272903020
  S      -2.890150      4.103792      1.468541
  N      -0.827661      2.470761      1.706446
  N      -0.270962      4.700801      1.599665
  C      -1.239101      3.757190      1.609565
  H       0.135449      2.165349      1.756005
  H      -1.504684      1.716589      1.684971
  H      -0.545430      5.666699      1.508891
  H       0.711529      4.481379      1.690289
  O       2.243167      0.916664     -0.083054
  N      -0.017355      0.797422     -0.121825
  N      -2.362183      0.873421     -0.025801
  N       1.284428     -1.199668     -0.124983
  C      -1.210527      0.146550     -0.078659
  C      -1.157989     -1.246924     -0.061125
  C       1.270518      0.166993     -0.117843
  C       0.119631     -1.833292     -0.101911
  H      -0.005214      1.809594     -0.119581
  H      -2.061749     -1.842607     -0.028328
  H       0.188776     -2.921518     -0.107970
  H      -3.233895      0.366140     -0.039850
  H      -2.419108      1.891136     -0.000041
21
Coordinates from ORCA-job thiourea_cytosine_opt_freq E -942.812710878955
  S      -2.907353      4.134392      1.436431
  N      -0.802430      2.532721      1.750295
  N      -0.286127      4.769728      1.632085
  C      -1.239567      3.809891      1.628590
  H       0.163992      2.240617      1.817417
  H      -1.475197      1.776929      1.731918
  H      -0.582051      5.727769      1.524884
  H       0.697099      4.572036      1.755369
  O       2.247607      0.865020     -0.097128
  N      -0.014644      0.758426     -0.150686
  N      -2.356758      0.839411     -0.034018
  N       1.278678     -1.245327     -0.155600
  C      -1.209640      0.111246     -0.096268
  C      -1.162469     -1.281920     -0.076674
  C       1.270821      0.121848     -0.139753
  C       0.112616     -1.874385     -0.127824
  H       0.019443      1.770359     -0.153829
  H      -2.069301     -1.872435     -0.037142
  H       0.176431     -2.962927     -0.138127
  H      -3.232238      0.338332     -0.042915
  H      -2.421423      1.854740     -0.013622
21
Coordinates from ORCA-job thiourea_cytosine_opt_freq E -942.817052488859
  S      -2.905860      4.159952      1.399101
  N      -0.775635      2.593454      1.791624
  N      -0.304095      4.841055      1.666340
  C      -1.236968      3.860726      1.644952
  H       0.195540      2.322648      1.875900
  H      -1.445201      1.836488      1.778966
  H      -0.619245      5.791070      1.543842
  H       0.678202      4.666544      1.825832
  O       2.248670      0.814939     -0.109554
  N      -0.014348      0.719610     -0.178329
  N      -2.354862      0.803211     -0.041521
  N       1.272429     -1.289921     -0.185025
  C      -1.209901      0.074084     -0.112196
  C      -1.166941     -1.318023     -0.093488
  C       1.267257      0.078915     -0.161179
  C       0.106431     -1.915583     -0.153792
  H       0.038469      1.731283     -0.187492
  H      -2.074623     -1.906712     -0.047792
  H       0.162572     -3.004614     -0.168747
  H      -3.234681      0.309892     -0.045298
  H      -2.419723      1.817452     -0.028738
21
Coordinates from ORCA-job thiourea_cytosine_opt_freq E -942.820064486965
  S      -2.889607      4.181230      1.356776
  N      -0.748440      2.653273      1.831525
  N      -0.323828      4.912860      1.701712
  C      -1.231899      3.910097      1.658912
  H       0.227946      2.410037      1.932872
  H      -1.415578      1.895485      1.826439
  H      -0.655750      5.854573      1.562088
  H       0.655075      4.762815      1.901863
  O       2.246696      0.767745     -0.124709
  N      -0.016610      0.680307     -0.203226
  N      -2.354754      0.766674     -0.048006
  N       1.266293     -1.333142     -0.213980
  C      -1.211857      0.035530     -0.126158
  C      -1.171806     -1.355513     -0.110766
  C       1.261369      0.037366     -0.181041
  C       0.100529     -1.956449     -0.179987
  H       0.050112      1.691258     -0.217900
  H      -2.078962     -1.944438     -0.059457
  H       0.149477     -3.045844     -0.200819
  H      -3.239031      0.281841     -0.048527
  H      -2.411886      1.780765     -0.044207
21
Coordinates from ORCA-job thiourea_cytosine_opt_freq E -942.821933885769
  S      -2.865049      4.197616      1.313381
  N      -0.721820      2.710450      1.869021
  N      -0.342810      4.981050      1.736318
  C      -1.225016      3.956689      1.670796
  H       0.259165      2.497370      1.986585
  H      -1.386784      1.951736      1.872309
  H      -0.688840      5.914285      1.576762
  H       0.629897      4.855817      1.979436
  O       2.242013      0.726031     -0.139929
  N      -0.021440      0.642058     -0.225389
  N      -2.355286      0.732135     -0.053345
  N       1.260521     -1.373004     -0.240699
  C      -1.215906     -0.002533     -0.139322
  C      -1.177253     -1.393132     -0.128770
  C       1.254910     -0.001528     -0.201910
  C       0.094524     -1.995082     -0.205051
  H       0.052662      1.652245     -0.242859
  H      -2.083445     -1.983019     -0.072220
  H       0.139656     -3.084623     -0.230468
  H      -3.243842      0.255672     -0.052710
  H      -2.398366      1.746240     -0.058533
21
Coordinates from ORCA-job thiourea_cytosine_opt_freq E -942.822890125132
  S      -2.840976      4.210135      1.271818
  N      -0.698916      2.762321      1.902668
  N      -0.358460      5.040857      1.766758
  C      -1.218061      3.998785      1.680125
  H       0.284989      2.576166      2.035927
  H      -1.361702      2.002300      1.913635
  H      -0.714956      5.965954      1.585041
  H       0.605520      4.938350      2.051693
  O       2.237326      0.691083     -0.159924
  N      -0.026884      0.607337     -0.240998
  N      -2.355482      0.702105     -0.056914
  N       1.255504     -1.407615     -0.264996
  C      -1.220759     -0.037115     -0.150309
  C      -1.182475     -1.428092     -0.145254
  C       1.250014     -0.036348     -0.218490
  C       0.088737     -2.029270     -0.227878
  H       0.048411      1.617193     -0.257775
  H      -2.088238     -2.018318     -0.085503
  H       0.134005     -3.118664     -0.258927
  H      -3.247890      0.233331     -0.056929
  H      -2.382218      1.715975     -0.070362
21
Coordinates from ORCA-job thiourea_cytosine_opt_freq E -942.823367733324
  S      -2.821744      4.219027      1.237485
  N      -0.679987      2.805908      1.930493
  N      -0.369034      5.089133      1.790914
  C      -1.211279      4.034175      1.687381
  H       0.305523      2.640182      2.077537
  H      -1.340197      2.043786      1.948265
  H      -0.732440      6.007145      1.588071
  H       0.585250      5.005344      2.112074
  O       2.232451      0.664579     -0.174056
  N      -0.032472      0.578915     -0.253250
  N      -2.356381      0.677172     -0.058915
  N       1.251546     -1.434780     -0.283249
  C      -1.225768     -0.066054     -0.161028
  C      -1.186936     -1.457753     -0.161873
  C       1.246615     -0.064113     -0.236325
  C       0.084116     -2.056956     -0.246754
  H       0.038821      1.589198     -0.265452
  H      -2.092753     -2.047790     -0.100653
  H       0.132689     -3.146149     -0.279039
  H      -3.251946      0.214738     -0.059421
  H      -2.368586      1.690763     -0.078802
21
Coordinates from ORCA-job thiourea_cytosine_opt_freq E -942.823674874363
  S      -2.806812      4.227356      1.204822
  N      -0.666584      2.844431      1.955924
  N      -0.375613      5.129469      1.808616
  C      -1.205460      4.065809      1.692149
  H       0.318893      2.692637      2.118101
  H      -1.323706      2.079743      1.979995
  H      -0.741940      6.041395      1.584332
  H       0.567788      5.060538      2.163351
  O       2.229644      0.642940     -0.194843
  N      -0.036588      0.554698     -0.257796
  N      -2.357427      0.655560     -0.058585
  N       1.248593     -1.457119     -0.300095
  C      -1.229686     -0.090977     -0.168670
  C      -1.190229     -1.483401     -0.176483
  C       1.244931     -0.087568     -0.246218
  C       0.080798     -2.080335     -0.264196
  H       0.027239      1.565902     -0.263236
  H      -2.096630     -2.072816     -0.117482
  H       0.133584     -3.169119     -0.301767
  H      -3.255559      0.198386     -0.060048
  H      -2.357744      1.668940     -0.084466
21
Coordinates from ORCA-job thiourea_cytosine_opt_freq E -942.823944634929
  S      -2.793552      4.234174      1.175005
  N      -0.655242      2.879613      1.980471
  N      -0.377530      5.164249      1.820229
  C      -1.198655      4.094688      1.695379
  H       0.329231      2.736647      2.159105
  H      -1.307936      2.111256      2.012212
  H      -0.743850      6.070823      1.574707
  H       0.553923      5.107532      2.206889
  O       2.225639      0.626950     -0.205828
  N      -0.041557      0.534537     -0.261064
  N      -2.360326      0.634271     -0.056394
  N       1.246320     -1.474314     -0.312678
  C      -1.233862     -0.113590     -0.177450
  C      -1.192924     -1.506339     -0.194860
  C       1.242979     -0.105317     -0.261018
  C       0.079099     -2.099940     -0.281128
  H       0.010023      1.547062     -0.255448
  H      -2.099653     -2.095725     -0.140389
  H       0.137556     -3.188391     -0.319009
  H      -3.260236      0.180830     -0.057786
  H      -2.351960      1.647457     -0.087541
21
Coordinates from ORCA-job thiourea_cytosine_opt_freq E -942.824207829623
  S      -2.781746      4.240864      1.143998
  N      -0.649987      2.910380      2.006092
  N      -0.374173      5.191652      1.821262
  C      -1.191923      4.119791      1.695046
  H       0.331271      2.769422      2.205630
  H      -1.297487      2.137965      2.047034
  H      -0.736090      6.094010      1.554219
  H       0.544300      5.143359      2.238623
  O       2.222712      0.616756     -0.221337
  N      -0.045671      0.519088     -0.254090
  N      -2.364137      0.614207     -0.050758
  N       1.245049     -1.485606     -0.325543
  C      -1.236934     -0.132713     -0.181762
  C      -1.194255     -1.525102     -0.212348
  C       1.241177     -0.117115     -0.265521
  C       0.079506     -2.114763     -0.299352
  H      -0.009506      1.532651     -0.234845
  H      -2.100950     -2.115381     -0.167748
  H       0.142935     -3.202625     -0.344903
  H      -3.264728      0.162338     -0.053033
  H      -2.351873      1.627295     -0.087261
21
Coordinates from ORCA-job thiourea_cytosine_opt_freq E -942.824466520745
  S      -2.770583      4.244136      1.117564
  N      -0.649051      2.931734      2.031119
  N      -0.363973      5.206614      1.807977
  C      -1.184107      4.135842      1.691008
  H       0.327209      2.786452      2.253606
  H      -1.290964      2.155212      2.083852
  H      -0.718629      6.106281      1.522613
  H       0.542903      5.162581      2.250337
  O       2.217835      0.617199     -0.222004
  N      -0.051078      0.512071     -0.240950
  N      -2.370363      0.596560     -0.042205
  N       1.244903     -1.486584     -0.334460
  C      -1.240137     -0.145837     -0.183495
  C      -1.194354     -1.536795     -0.231493
  C       1.237442     -0.117636     -0.267880
  C       0.082706     -2.121025     -0.317845
  H      -0.032424      1.525792     -0.204858
  H      -2.099493     -2.130258     -0.200205
  H       0.150541     -3.208317     -0.370801
  H      -3.269890      0.142723     -0.045911
  H      -2.361003      1.609726     -0.082563
21
Coordinates from ORCA-job thiourea_cytosine_opt_freq E -942.824731185221
  S      -2.758196      4.242723      1.092929
  N      -0.652037      2.943594      2.057761
  N      -0.347898      5.208417      1.778616
  C      -1.175203      4.141439      1.682656
  H       0.317073      2.790534      2.305970
  H      -1.289309      2.164186      2.125069
  H      -0.693580      6.106224      1.477057
  H       0.549417      5.166033      2.240360
  O       2.210886      0.628048     -0.211867
  N      -0.057957      0.512823     -0.217789
  N      -2.378637      0.582108     -0.030433
  N       1.245736     -1.477397     -0.342963
  C      -1.243832     -0.152944     -0.179846
  C      -1.193341     -1.541419     -0.249856
  C       1.231403     -0.107768     -0.260046
  C       0.088254     -2.118442     -0.338547
  H      -0.055821      1.525399     -0.163093
  H      -2.095100     -2.140542     -0.235623
  H       0.159381     -3.204817     -0.405721
  H      -3.275355      0.122816     -0.038405
  H      -2.378395      1.595458     -0.072824
21
Coordinates from ORCA-job thiourea_cytosine_opt_freq E -942.825037454240
  S      -2.742437      4.233264      1.068933
  N      -0.655613      2.946601      2.088037
  N      -0.326821      5.196612      1.733111
  C      -1.164219      4.135245      1.670405
  H       0.304772      2.786975      2.364186
  H      -1.290143      2.166482      2.173336
  H      -0.663696      6.092091      1.415534
  H       0.563542      5.155966      2.208615
  O       2.199952      0.649502     -0.183665
  N      -0.068086      0.520587     -0.186029
  N      -2.389907      0.570653     -0.015609
  N       1.247193     -1.457841     -0.351579
  C      -1.249623     -0.154635     -0.171683
  C      -1.191810     -1.539601     -0.269068
  C       1.222105     -0.087899     -0.244015
  C       0.095554     -2.106752     -0.362938
  H      -0.079568      1.530800     -0.110297
  H      -2.088067     -2.146903     -0.274616
  H       0.170116     -3.191598     -0.450122
  H      -3.282116      0.102744     -0.032038
  H      -2.403638      1.584178     -0.057095
21
Coordinates from ORCA-job thiourea_cytosine_opt_freq E -942.825467893446
  S      -2.720225      4.210383      1.040400
  N      -0.657831      2.941477      2.127104
  N      -0.299549      5.167728      1.666696
  C      -1.149563      4.114493      1.653060
  H       0.291922      2.781178      2.436039
  H      -1.292505      2.164170      2.235836
  H      -0.628133      6.058367      1.328074
  H       0.586328      5.131925      2.151417
  O       2.182663      0.683690     -0.132524
  N      -0.083691      0.535409     -0.141643
  N      -2.406166      0.561542      0.004121
  N       1.249149     -1.425333     -0.362420
  C      -1.259322     -0.150955     -0.157696
  C      -1.189923     -1.530957     -0.291172
  C       1.208406     -0.056978     -0.215679
  C       0.104616     -2.083799     -0.394863
  H      -0.104910      1.541977     -0.040039
  H      -2.078116     -2.149116     -0.321128
  H       0.184471     -3.165596     -0.512000
  H      -3.291760      0.081688     -0.028033
  H      -2.438373      1.575175     -0.032145
21
Coordinates from ORCA-job thiourea_cytosine_opt_freq E -942.826099288170
  S      -2.690222      4.166359      1.004302
  N      -0.655903      2.927893      2.177267
  N      -0.266408      5.116285      1.578323
  C      -1.130344      4.074906      1.630470
  H       0.282082      2.779726      2.523501
  H      -1.294964      2.158765      2.315416
  H      -0.588452      5.996576      1.208263
  H       0.618509      5.091879      2.066137
  O       2.156702      0.731489     -0.052934
  N      -0.106784      0.557546     -0.084022
  N      -2.429050      0.555542      0.029630
  N       1.251289     -1.377200     -0.375253
  C      -1.274549     -0.140652     -0.137744
  C      -1.187865     -1.513810     -0.317296
  C       1.189797     -0.014794     -0.173311
  C       0.114783     -2.046666     -0.435454
  H      -0.131523      1.559224      0.049581
  H      -2.065637     -2.144474     -0.376629
  H       0.204004     -3.122640     -0.593576
  H      -3.305650      0.061280     -0.028557
  H      -2.482327      1.569237      0.005292
21
Coordinates from ORCA-job thiourea_cytosine_opt_freq E -942.826933193699
  S      -2.655337      4.098984      0.960355
  N      -0.647314      2.910374      2.234456
  N      -0.232258      5.047068      1.482311
  C      -1.107849      4.020360      1.606004
  H       0.279916      2.792710      2.617849
  H      -1.295089      2.155043      2.404485
  H      -0.551205      5.907956      1.066777
  H       0.655124      5.043614      1.966708
  O       2.123513      0.785042      0.045224
  N      -0.135885      0.582834     -0.021350
  N      -2.457187      0.552354      0.058497
  N       1.252703     -1.319175     -0.387507
  C      -1.294560     -0.125170     -0.115540
  C      -1.186041     -1.490094     -0.346486
  C       1.168827      0.030958     -0.122064
  C       0.123711     -1.999269     -0.480439
  H      -0.156663      1.579055      0.148233
  H      -2.053404     -2.131358     -0.437229
  H       0.227811     -3.066022     -0.685318
  H      -3.323434      0.044883     -0.035324
  H      -2.527887      1.566325      0.053764
21
Coordinates from ORCA-job thiourea_cytosine_opt_freq E -942.827771723628
  S      -2.620914      4.018621      0.910822
  N      -0.633506      2.899354      2.290251
  N      -0.202531      4.980514      1.403130
  C      -1.084441      3.967098      1.584842
  H       0.284825      2.826347      2.705962
  H      -1.290850      2.159752      2.489899
  H      -0.520340      5.811273      0.929113
  H       0.687001      5.007177      1.882749
  O       2.089566      0.830843      0.136006
  N      -0.165303      0.603601      0.032746
  N      -2.486804      0.547234      0.086247
  N       1.252379     -1.265994     -0.395691
  C      -1.315593     -0.110559     -0.098005
  C      -1.184831     -1.467083     -0.377996
  C       1.150178      0.067858     -0.074983
  C       0.129244     -1.954312     -0.522717
  H      -0.179438      1.594593      0.238506
  H      -2.045143     -2.113201     -0.498278
  H       0.252430     -3.010007     -0.769477
  H      -3.343359      0.031490     -0.045740
  H      -2.565081      1.561870      0.106017
21
Coordinates from ORCA-job thiourea_cytosine_opt_freq E -942.828336446624
  S      -2.592738      3.952206      0.865373
  N      -0.621407      2.903383      2.333118
  N      -0.182030      4.943837      1.362055
  C      -1.064402      3.936926      1.571928
  H       0.289281      2.872063      2.772284
  H      -1.283440      2.174784      2.555808
  H      -0.495041      5.740574      0.829496
  H       0.705189      5.000758      1.842681
  O       2.065276      0.856903      0.189002
  N      -0.186630      0.613022      0.065331
  N      -2.511054      0.534829      0.106929
  N       1.250215     -1.234915     -0.398668
  C      -1.331396     -0.104525     -0.090761
  C      -1.184455     -1.454011     -0.408038
  C       1.138001      0.086361     -0.047123
  C       0.131248     -1.927946     -0.554043
  H      -0.199464      1.599508      0.300454
  H      -2.042512     -2.098805     -0.551036
  H       0.271084     -2.975074     -0.826380
  H      -3.360935      0.016300     -0.053671
  H      -2.587301      1.550291      0.148665
21
Coordinates from ORCA-job thiourea_cytosine_opt_freq E -942.828645783093
  S      -2.573534      3.919520      0.834234
  N      -0.614996      2.919531      2.357574
  N      -0.173852      4.945147      1.358828
  C      -1.051542      3.935943      1.568534
  H       0.290130      2.914189      2.809576
  H      -1.275748      2.194563      2.594598
  H      -0.477037      5.715674      0.783356
  H       0.707885      5.022235      1.846077
  O       2.055005      0.861080      0.199766
  N      -0.196527      0.610350      0.074466
  N      -2.524303      0.517260      0.117304
  N       1.247279     -1.230373     -0.399144
  C      -1.338866     -0.108997     -0.092885
  C      -1.184916     -1.454055     -0.430801
  C       1.132367      0.086531     -0.041055
  C       0.131004     -1.924976     -0.571391
  H      -0.214101      1.593433      0.326508
  H      -2.043800     -2.095034     -0.586446
  H       0.278909     -2.968730     -0.851850
  H      -3.371681     -0.000323     -0.057456
  H      -2.594186      1.533504      0.173611
21
Coordinates from ORCA-job thiourea_cytosine_opt_freq E -942.828848120611
  S      -2.551261      3.894200      0.803631
  N      -0.612249      2.941957      2.381442
  N      -0.166019      4.952766      1.356998
  C      -1.038954      3.941040      1.565260
  H       0.285330      2.956225      2.848714
  H      -1.268110      2.218847      2.635801
  H      -0.453733      5.699335      0.743169
  H       0.708945      5.044469      1.853601
  O       2.046129      0.862832      0.204152
  N      -0.205500      0.605278      0.083015
  N      -2.534326      0.495901      0.127071
  N       1.244001     -1.227973     -0.402068
  C      -1.344192     -0.117524     -0.095418
  C      -1.185814     -1.456598     -0.453398
  C       1.124992      0.086896     -0.037995
  C       0.131788     -1.924653     -0.589324
  H      -0.232461      1.583981      0.351253
  H      -2.043989     -2.095509     -0.621466
  H       0.283783     -2.965684     -0.877526
  H      -3.379384     -0.020828     -0.059722
  H      -2.601488      1.511515      0.196215
21
Coordinates from ORCA-job thiourea_cytosine_opt_freq E -942.828970766652
  S      -2.540650      3.891432      0.790521
  N      -0.611245      2.957591      2.389718
  N      -0.169965      4.973969      1.372900
  C      -1.034046      3.954091      1.567945
  H       0.283719      2.982623      2.858481
  H      -1.263781      2.234387      2.652585
  H      -0.444141      5.706105      0.735978
  H       0.705975      5.066388      1.867494
  O       2.044328      0.854418      0.198745
  N      -0.207601      0.596586      0.077685
  N      -2.537679      0.482360      0.129689
  N       1.243028     -1.236709     -0.402748
  C      -1.345181     -0.126296     -0.100707
  C      -1.185344     -1.463123     -0.465125
  C       1.122137      0.079005     -0.041265
  C       0.132772     -1.932894     -0.596565
  H      -0.240871      1.572265      0.350384
  H      -2.043513     -2.101348     -0.635797
  H       0.283257     -2.974196     -0.884625
  H      -3.383462     -0.029785     -0.065458
  H      -2.600246      1.499603      0.213567
21
Coordinates from ORCA-job thiourea_cytosine_opt_freq E -942.829082551967
  S      -2.513419      3.863759      0.761785
  N      -0.609608      2.981162      2.417124
  N      -0.162885      4.975477      1.360758
  C      -1.021977      3.953415      1.563196
  H       0.276436      3.024467      2.903679
  H      -1.256991      2.262178      2.701808
  H      -0.418537      5.683773      0.690254
  H       0.712189      5.072903      1.856165
  O       2.031718      0.858996      0.218003
  N      -0.218964      0.592288      0.091797
  N      -2.545563      0.462892      0.139484
  N       1.240424     -1.227060     -0.411423
  C      -1.351119     -0.135747     -0.100365
  C      -1.186692     -1.464557     -0.485972
  C       1.110638      0.085121     -0.032141
  C       0.135402     -1.926150     -0.619453
  H      -0.261850      1.562777      0.381823
  H      -2.040139     -2.105777     -0.668514
  H       0.287810     -2.963164     -0.921970
  H      -3.388372     -0.047155     -0.073058
  H      -2.611011      1.476873      0.240424
21
Coordinates from ORCA-job thiourea_cytosine_opt_freq E -942.829188316202
  S      -2.508758      3.866225      0.759572
  N      -0.608573      2.989324      2.422425
  N      -0.169680      4.987760      1.369549
  C      -1.021968      3.959035      1.566382
  H       0.277551      3.038142      2.906768
  H      -1.255738      2.272228      2.712477
  H      -0.416489      5.687389      0.686916
  H       0.715544      5.073678      1.848922
  O       2.029345      0.853011      0.227302
  N      -0.220272      0.586272      0.088666
  N      -2.546086      0.458732      0.139023
  N       1.241526     -1.229879     -0.415691
  C      -1.352376     -0.141718     -0.102453
  C      -1.186162     -1.469534     -0.489604
  C       1.108416      0.081039     -0.029981
  C       0.137243     -1.928527     -0.625678
  H      -0.266168      1.555254      0.379799
  H      -2.037154     -2.114297     -0.670739
  H       0.287999     -2.964778     -0.931875
  H      -3.390117     -0.044882     -0.084067
  H      -2.610594      1.471999      0.255691
21
Coordinates from ORCA-job thiourea_cytosine_opt_freq E -942.829305091948
  S      -2.505978      3.863861      0.760477
  N      -0.606948      2.995869      2.433039
  N      -0.175135      4.990220      1.369927
  C      -1.023187      3.957311      1.569518
  H       0.279653      3.051809      2.915542
  H      -1.255920      2.283548      2.730495
  H      -0.413116      5.675673      0.670089
  H       0.727898      5.056818      1.818456
  O       2.023631      0.852008      0.253107
  N      -0.223684      0.583310      0.091869
  N      -2.548494      0.456952      0.138842
  N       1.243633     -1.224192     -0.422577
  C      -1.355725     -0.145701     -0.101418
  C      -1.185324     -1.471626     -0.493085
  C       1.105562      0.081970     -0.020503
  C       0.140160     -1.923206     -0.636080
  H      -0.272516      1.550921      0.386745
  H      -2.032035     -2.121812     -0.674412
  H       0.292603     -2.956370     -0.951990
  H      -3.392981     -0.038318     -0.101286
  H      -2.614609      1.467428      0.276649
21
Coordinates from ORCA-job thiourea_cytosine_opt_freq E -942.829370894830
  S      -2.507894      3.860377      0.765123
  N      -0.606349      2.999562      2.442933
  N      -0.176135      4.985961      1.365750
  C      -1.024765      3.953540      1.572297
  H       0.280729      3.059628      2.924404
  H      -1.257166      2.291273      2.745738
  H      -0.408719      5.657518      0.650680
  H       0.741625      5.035506      1.785993
  O       2.018805      0.854992      0.274643
  N      -0.226893      0.584217      0.098078
  N      -2.551534      0.455728      0.138672
  N       1.245020     -1.216103     -0.426049
  C      -1.358390     -0.146271     -0.099021
  C      -1.184237     -1.470276     -0.496280
  C       1.104047      0.085473     -0.011222
  C       0.142417     -1.915946     -0.643816
  H      -0.278296      1.550863      0.397184
  H      -2.028385     -2.122986     -0.680287
  H       0.298942     -2.945952     -0.967940
  H      -3.395464     -0.034117     -0.114510
  H      -2.619868      1.463484      0.291034
21
Coordinates from ORCA-job thiourea_cytosine_opt_freq E -942.829443397995
  S      -2.514091      3.856125      0.776264
  N      -0.607058      3.003064      2.456340
  N      -0.172984      4.975006      1.356060
  C      -1.026672      3.947833      1.576367
  H       0.280496      3.065330      2.937110
  H      -1.259938      2.299549      2.765680
  H      -0.400743      5.627415      0.621672
  H       0.762460      5.000564      1.738203
  O       2.012456      0.863202      0.299366
  N      -0.231655      0.588573      0.109134
  N      -2.556672      0.453527      0.138261
  N       1.246519     -1.202825     -0.426930
  C      -1.361193     -0.144437     -0.095214
  C      -1.182026     -1.465438     -0.501311
  C       1.102182      0.093154      0.001234
  C       0.145841     -1.904489     -0.652012
  H      -0.287106      1.553669      0.414494
  H      -2.023874     -2.119381     -0.691348
  H       0.309327     -2.930321     -0.985655
  H      -3.398766     -0.031599     -0.129796
  H      -2.629014      1.457951      0.305484
21
Coordinates from ORCA-job thiourea_cytosine_opt_freq E -942.829521048741
  S      -2.524636      3.854286      0.796577
  N      -0.608980      3.005861      2.471251
  N      -0.165163      4.958609      1.341831
  C      -1.028369      3.942076      1.582278
  H       0.279481      3.066345      2.950982
  H      -1.263956      2.307077      2.786895
  H      -0.391410      5.590645      0.588946
  H       0.787873      4.954105      1.679499
  O       2.004964      0.876662      0.322198
  N      -0.237822      0.595800      0.123319
  N      -2.563210      0.450532      0.136414
  N       1.248062     -1.186239     -0.423519
  C      -1.363558     -0.140294     -0.091442
  C      -1.178607     -1.457744     -0.507612
  C       1.099632      0.104525      0.014889
  C       0.150493     -1.890774     -0.658138
  H      -0.298111      1.558863      0.435630
  H      -2.018735     -2.111404     -0.706147
  H       0.322547     -2.912368     -1.000087
  H      -3.402138     -0.031929     -0.145847
  H      -2.640868      1.451837      0.315486
21
Coordinates from ORCA-job thiourea_cytosine_opt_freq E -942.829609247473
  S      -2.537600      3.855609      0.825899
  N      -0.611333      3.007281      2.485757
  N      -0.152477      4.937282      1.323096
  C      -1.028644      3.936860      1.589268
  H       0.278561      3.061638      2.963849
  H      -1.268414      2.312810      2.806742
  H      -0.382138      5.553197      0.557503
  H       0.814535      4.900123      1.617206
  O       1.996023      0.895705      0.339623
  N      -0.245609      0.604977      0.138926
  N      -2.571027      0.447037      0.132752
  N       1.249668     -1.167717     -0.415134
  C      -1.365688     -0.134226     -0.089156
  C      -1.174157     -1.448112     -0.514728
  C       1.095698      0.119360      0.028088
  C       0.156409     -1.876233     -0.660483
  H      -0.310526      1.565643      0.457979
  H      -2.012927     -2.100477     -0.723195
  H       0.337203     -2.894488     -1.007484
  H      -3.405438     -0.036146     -0.161089
  H      -2.654629      1.446346      0.317986
21
Coordinates from ORCA-job thiourea_cytosine_opt_freq E -942.829695945647
  S      -2.548722      3.858252      0.859464
  N      -0.612565      3.008229      2.499029
  N      -0.136964      4.913973      1.301786
  C      -1.026083      3.932576      1.595926
  H       0.279029      3.055084      2.974700
  H      -1.271748      2.318041      2.825103
  H      -0.372866      5.520620      0.530482
  H       0.838657      4.846962      1.560803
  O       1.984644      0.918548      0.351558
  N      -0.255426      0.613728      0.153600
  N      -2.580119      0.442662      0.127908
  N       1.251316     -1.149094     -0.403317
  C      -1.368622     -0.128067     -0.089723
  C      -1.169298     -1.438631     -0.522877
  C       1.089338      0.136112      0.039827
  C       0.163342     -1.862364     -0.659619
  H      -0.323995      1.571636      0.478984
  H      -2.006146     -2.090180     -0.741523
  H       0.351425     -2.878682     -1.008136
  H      -3.408880     -0.044338     -0.175143
  H      -2.668827      1.441405      0.314572
21
Coordinates from ORCA-job thiourea_cytosine_opt_freq E -942.829775681264
  S      -2.554968      3.859676      0.891357
  N      -0.611541      3.010497      2.512866
  N      -0.121550      4.891402      1.280445
  C      -1.020562      3.928310      1.601750
  H       0.281859      3.052980      2.985144
  H      -1.273224      2.326101      2.846015
  H      -0.362647      5.490377      0.504820
  H       0.859626      4.798179      1.508904
  O       1.969898      0.942052      0.365367
  N      -0.267332      0.620140      0.166908
  N      -2.590688      0.437189      0.123166
  N       1.253263     -1.130365     -0.391572
  C      -1.373668     -0.123735     -0.092662
  C      -1.164576     -1.430646     -0.532757
  C       1.080216      0.153178      0.052069
  C       0.171141     -1.848383     -0.659202
  H      -0.339032      1.574778      0.499165
  H      -1.997497     -2.083722     -0.761604
  H       0.364832     -2.863260     -1.008763
  H      -3.413077     -0.053732     -0.190552
  H      -2.682986      1.435454      0.312539
21
Coordinates from ORCA-job thiourea_cytosine_opt_freq E -942.829853449589
  S      -2.559085      3.861508      0.921586
  N      -0.608642      3.012341      2.525446
  N      -0.106284      4.867710      1.258103
  C      -1.013962      3.922745      1.605810
  H       0.287443      3.052728      2.992488
  H      -1.273630      2.335323      2.866937
  H      -0.351333      5.463080      0.480935
  H       0.877943      4.752105      1.462944
  O       1.952971      0.965734      0.382198
  N      -0.280219      0.624941      0.179497
  N      -2.602202      0.431907      0.118963
  N       1.255699     -1.111071     -0.380851
  C      -1.380623     -0.120864     -0.096178
  C      -1.160076     -1.423816     -0.542429
  C       1.069649      0.170474      0.065212
  C       0.179482     -1.833571     -0.659026
  H      -0.354753      1.576435      0.518202
  H      -1.986951     -2.080857     -0.781520
  H       0.377903     -2.847054     -1.010117
  H      -3.418221     -0.062675     -0.205468
  H      -2.697620      1.429349      0.310670
21
Coordinates from ORCA-job thiourea_cytosine_opt_freq E -942.829944842776
  S      -2.562238      3.861472      0.952602
  N      -0.603506      3.015852      2.541961
  N      -0.088830      4.836624      1.229691
  C      -1.005684      3.913230      1.608741
  H       0.296232      3.058367      3.001635
  H      -1.273081      2.350514      2.897014
  H      -0.335887      5.422719      0.446255
  H       0.897761      4.695536      1.406092
  O       1.931064      0.992285      0.411965
  N      -0.296390      0.629972      0.196793
  N      -2.616540      0.425195      0.116061
  N       1.258574     -1.086000     -0.370286
  C      -1.390288     -0.118420     -0.098313
  C      -1.154941     -1.414848     -0.555248
  C       1.056263      0.190984      0.084879
  C       0.189514     -1.812863     -0.662768
  H      -0.375239      1.577541      0.544434
  H      -1.972799     -2.077815     -0.808423
  H       0.394429     -2.822994     -1.020040
  H      -3.424901     -0.071393     -0.224259
  H      -2.716023      1.420512      0.314617
21
Coordinates from ORCA-job thiourea_cytosine_opt_freq E -942.830074528973
  S      -2.569653      3.866113      0.990616
  N      -0.596321      3.016639      2.556269
  N      -0.067491      4.791745      1.190080
  C      -0.997544      3.898652      1.607935
  H       0.310398      3.061262      3.002237
  H      -1.272148      2.367896      2.929357
  H      -0.314617      5.376184      0.405347
  H       0.918385      4.625181      1.349799
  O       1.904662      1.024444      0.450568
  N      -0.315445      0.636284      0.219359
  N      -2.633837      0.418504      0.114633
  N       1.262451     -1.054278     -0.357548
  C      -1.402439     -0.115513     -0.097886
  C      -1.148417     -1.402932     -0.568503
  C       1.040540      0.216345      0.110439
  C       0.202019     -1.785780     -0.666687
  H      -0.400860      1.579816      0.575437
  H      -1.953689     -2.073960     -0.839962
  H       0.415466     -2.790968     -1.033245
  H      -3.433991     -0.080686     -0.241217
  H      -2.739980      1.411522      0.316377
21
Coordinates from ORCA-job thiourea_cytosine_opt_freq E -942.830254674969
  S      -2.576235      3.866146      1.032100
  N      -0.585601      3.025539      2.583979
  N      -0.041754      4.726628      1.135298
  C      -0.986277      3.875936      1.606990
  H       0.329207      3.079455      3.013387
  H      -1.268881      2.404720      2.989712
  H      -0.287908      5.282219      0.329829
  H       0.942150      4.517487      1.252458
  O       1.869247      1.060419      0.521202
  N      -0.341384      0.645743      0.257327
  N      -2.655371      0.407198      0.115905
  N       1.265532     -1.008288     -0.342862
  C      -1.416960     -0.110918     -0.092414
  C      -1.139838     -1.381424     -0.592241
  C       1.019535      0.248456      0.153610
  C       0.217554     -1.743520     -0.682206
  H      -0.438248      1.582288      0.630477
  H      -1.928763     -2.059376     -0.892845
  H       0.445953     -2.737058     -1.071184
  H      -3.442995     -0.089617     -0.270264
  H      -2.771475      1.394437      0.335149
21
Coordinates from ORCA-job thiourea_cytosine_opt_freq E -942.830518076552
  S      -2.593593      3.881481      1.077937
  N      -0.575783      3.024719      2.596454
  N      -0.019045      4.645185      1.069902
  C      -0.982269      3.848478      1.597611
  H       0.353077      3.080950      2.996810
  H      -1.266049      2.438160      3.038823
  H      -0.259550      5.192556      0.256970
  H       0.958870      4.405866      1.184316
  O       1.839381      1.093729      0.591651
  N      -0.363197      0.656589      0.299020
  N      -2.673915      0.400666      0.121859
  N       1.269466     -0.961771     -0.326400
  C      -1.428599     -0.104442     -0.079445
  C      -1.129729     -1.355920     -0.610366
  C       1.002899      0.279529      0.199106
  C       0.233697     -1.698926     -0.695169
  H      -0.477263      1.586713      0.682907
  H      -1.902094     -2.038780     -0.941269
  H       0.478909     -2.678255     -1.109297
  H      -3.452990     -0.093593     -0.284672
  H      -2.804735      1.383534      0.346657
21
Coordinates from ORCA-job thiourea_cytosine_opt_freq E -942.830869497619
  S      -2.607060      3.893733      1.135928
  N      -0.563128      3.032396      2.626768
  N       0.007218      4.519789      0.979398
  C      -0.974057      3.807256      1.590834
  H       0.379460      3.088894      2.998978
  H      -1.258942      2.496487      3.122183
  H      -0.238775      5.020465      0.138192
  H       0.970653      4.210920      1.046786
  O       1.800155      1.139176      0.693323
  N      -0.392404      0.678689      0.361926
  N      -2.695000      0.394831      0.126760
  N       1.272045     -0.891411     -0.302261
  C      -1.438512     -0.086160     -0.062601
  C      -1.114992     -1.309588     -0.639664
  C       0.980908      0.325196      0.264393
  C       0.254421     -1.629890     -0.716574
  H      -0.525867      1.596536      0.770945
  H      -1.870500     -1.990413     -1.011174
  H       0.525123     -2.586563     -1.165968
  H      -3.457405     -0.092977     -0.317534
  H      -2.845851      1.369103      0.372763
21
Coordinates from ORCA-job thiourea_cytosine_opt_freq E -942.831279864109
  S      -2.622115      3.928232      1.189357
  N      -0.557440      3.032080      2.640307
  N       0.016763      4.420698      0.913555
  C      -0.975346      3.782190      1.588399
  H       0.398746      3.071749      2.980539
  H      -1.253412      2.542207      3.179547
  H      -0.241959      4.888257      0.057119
  H       0.961392      4.051302      0.944862
  O       1.781355      1.166499      0.760544
  N      -0.406764      0.694622      0.407116
  N      -2.701929      0.399371      0.128485
  N       1.275453     -0.845406     -0.279868
  C      -1.438527     -0.067777     -0.048648
  C      -1.099500     -1.271758     -0.658280
  C       0.972895      0.352253      0.310673
  C       0.271411     -1.583179     -0.728364
  H      -0.562807      1.599832      0.832420
  H      -1.849384     -1.944439     -1.055191
  H       0.563687     -2.521864     -1.200658
  H      -3.457415     -0.075739     -0.340495
  H      -2.867615      1.367343      0.391985
21
Coordinates from ORCA-job thiourea_cytosine_opt_freq E -942.831834581878
  S      -2.619735      3.943296      1.205247
  N      -0.553847      3.050002      2.656655
  N       0.028403      4.339655      0.860821
  C      -0.972250      3.767226      1.581967
  H       0.409620      3.079920      2.980526
  H      -1.242549      2.606985      3.244615
  H      -0.233918      4.777153     -0.010470
  H       0.963009      3.944242      0.904896
  O       1.759730      1.192382      0.798229
  N      -0.425169      0.701684      0.443837
  N      -2.707980      0.388426      0.132837
  N       1.272395     -0.808205     -0.268998
  C      -1.440394     -0.060174     -0.043362
  C      -1.089216     -1.245864     -0.683366
  C       0.959703      0.373766      0.338510
  C       0.282464     -1.548847     -0.746318
  H      -0.599253      1.592847      0.895052
  H      -1.837975     -1.908523     -1.099097
  H       0.594473     -2.472580     -1.234247
  H      -3.458178     -0.076674     -0.354244
  H      -2.881843      1.349756      0.410314
21
Coordinates from ORCA-job thiourea_cytosine_opt_freq E -942.832642753628
  S      -2.614771      3.992571      1.252852
  N      -0.553093      3.040626      2.661625
  N       0.029358      4.243838      0.804606
  C      -0.971196      3.754007      1.584225
  H       0.417726      3.027703      2.954526
  H      -1.232838      2.651807      3.295598
  H      -0.256024      4.675177     -0.062656
  H       0.941022      3.794025      0.823514
  O       1.739259      1.235088      0.827920
  N      -0.437515      0.711082      0.471672
  N      -2.712796      0.400357      0.129626
  N       1.280643     -0.767121     -0.246272
  C      -1.439568     -0.039145     -0.043926
  C      -1.067431     -1.215864     -0.697678
  C       0.953792      0.402539      0.362693
  C       0.303608     -1.513978     -0.744686
  H      -0.633643      1.581117      0.945427
  H      -1.818175     -1.869246     -1.124965
  H       0.633354     -2.430466     -1.233529
  H      -3.462676     -0.045559     -0.375749
  H      -2.891548      1.357913      0.428584
21
Coordinates from ORCA-job thiourea_cytosine_opt_freq E -942.833505190356
  S      -2.594397      4.029339      1.299602
  N      -0.536471      3.048969      2.680874
  N       0.033803      4.104600      0.732321
  C      -0.957073      3.725983      1.581229
  H       0.444815      3.007965      2.945234
  H      -1.208008      2.732219      3.365841
  H      -0.267227      4.516175     -0.139075
  H       0.910582      3.587290      0.733172
  O       1.693299      1.297145      0.883962
  N      -0.466750      0.726602      0.514030
  N      -2.728339      0.400286      0.123442
  N       1.284882     -0.700833     -0.223108
  C      -1.448386     -0.018264     -0.046359
  C      -1.049950     -1.175027     -0.721987
  C       0.928629      0.451240      0.402881
  C       0.324729     -1.452949     -0.749443
  H      -0.664919      1.577076      1.024755
  H      -1.788053     -1.824353     -1.176870
  H       0.671331     -2.357865     -1.248004
  H      -3.462020     -0.039601     -0.410555
  H      -2.912988      1.350474      0.441461
21
Coordinates from ORCA-job thiourea_cytosine_opt_freq E -942.833198481232
  S      -2.551229      4.050234      1.289207
  N      -0.533590      3.043439      2.680058
  N       0.060567      4.130787      0.757126
  C      -0.933020      3.754899      1.593895
  H       0.440737      2.973417      2.929632
  H      -1.208860      2.758404      3.369941
  H      -0.214839      4.596276     -0.092994
  H       0.949771      3.631291      0.775802
  O       1.631806      1.370091      0.831719
  N      -0.492102      0.692172      0.486929
  N      -2.753071      0.373281      0.121073
  N       1.298489     -0.678700     -0.237368
  C      -1.476298     -0.048676     -0.073704
  C      -1.053592     -1.211733     -0.721457
  C       0.895679      0.481235      0.376436
  C       0.331975     -1.450935     -0.730716
  H      -0.687667      1.531563      1.015360
  H      -1.765942     -1.886178     -1.180590
  H       0.659608     -2.376675     -1.205976
  H      -3.480914     -0.071375     -0.417693
  H      -2.910018      1.323654      0.446722
21
Coordinates from ORCA-job thiourea_cytosine_opt_freq E -942.834505542951
  S      -2.571595      4.092446      1.322909
  N      -0.531936      3.051247      2.684186
  N       0.041987      4.060038      0.716052
  C      -0.946486      3.741351      1.587955
  H       0.456576      2.967723      2.908617
  H      -1.200196      2.800337      3.398379
  H      -0.247058      4.492464     -0.148346
  H       0.903382      3.514276      0.717304
  O       1.653247      1.344396      0.890350
  N      -0.486953      0.710098      0.525371
  N      -2.742634      0.383316      0.120933
  N       1.294957     -0.667801     -0.220989
  C      -1.461719     -0.029933     -0.054055
  C      -1.043233     -1.176765     -0.732329
  C       0.907483      0.478171      0.411288
  C       0.338588     -1.427605     -0.746786
  H      -0.694101      1.543108      1.061605
  H      -1.760404     -1.834408     -1.207578
  H       0.685846     -2.333021     -1.245237
  H      -3.469222     -0.050696     -0.427467
  H      -2.919041      1.327730      0.451243
21
Coordinates from ORCA-job thiourea_cytosine_opt_freq E -942.834927038371
  S      -2.566561      4.133700      1.337387
  N      -0.531692      3.051260      2.685688
  N       0.036611      3.992138      0.685264
  C      -0.947109      3.733298      1.582844
  H       0.460923      2.941477      2.881401
  H      -1.189400      2.852583      3.425632
  H      -0.250764      4.413800     -0.185057
  H       0.880270      3.417622      0.688706
  O       1.645400      1.358424      0.921752
  N      -0.492628      0.715516      0.552749
  N      -2.745200      0.382952      0.124156
  N       1.297745     -0.640023     -0.214249
  C      -1.460003     -0.021718     -0.045109
  C      -1.035019     -1.154864     -0.740415
  C       0.903197      0.493943      0.433313
  C       0.348513     -1.397674     -0.755106
  H      -0.709521      1.536753      1.105914
  H      -1.744820     -1.808354     -1.231828
  H       0.705315     -2.291653     -1.267212
  H      -3.467446     -0.044932     -0.434602
  H      -2.930322      1.322223      0.462175
21
Coordinates from ORCA-job thiourea_cytosine_opt_freq E -942.835252018941
  S      -2.577295      4.167144      1.311600
  N      -0.548889      3.060373      2.682194
  N       0.044288      4.020333      0.699423
  C      -0.955450      3.757705      1.581064
  H       0.441176      2.928714      2.856887
  H      -1.202141      2.903157      3.432735
  H      -0.226880      4.430289     -0.182237
  H       0.897600      3.460529      0.719783
  O       1.669027      1.323283      0.922882
  N      -0.482829      0.699958      0.568735
  N      -2.742007      0.363337      0.137193
  N       1.295320     -0.651656     -0.234597
  C      -1.452852     -0.039426     -0.029510
  C      -1.039920     -1.163376     -0.740848
  C       0.912734      0.475446      0.430607
  C       0.345383     -1.404100     -0.777400
  H      -0.725184      1.512336      1.127697
  H      -1.746210     -1.814105     -1.240039
  H       0.705758     -2.285782     -1.308022
  H      -3.468424     -0.057120     -0.421203
  H      -2.935719      1.299432      0.476461
21
Coordinates from ORCA-job thiourea_cytosine_opt_freq E -942.835664915044
  S      -2.554129      4.203559      1.330344
  N      -0.541762      3.059639      2.686135
  N       0.046087      3.964635      0.675185
  C      -0.942704      3.755856      1.580679
  H       0.446131      2.894166      2.836792
  H      -1.183695      2.957427      3.459373
  H      -0.224712      4.376229     -0.205380
  H       0.884176      3.381028      0.695328
  O       1.635519      1.360775      0.939584
  N      -0.501211      0.697560      0.585458
  N      -2.751824      0.355924      0.135398
  N       1.298468     -0.617343     -0.228176
  C      -1.461235     -0.037544     -0.033527
  C      -1.030812     -1.152176     -0.749520
  C       0.894181      0.499808      0.444031
  C       0.357553     -1.376794     -0.777424
  H      -0.746704      1.496780      1.164154
  H      -1.725287     -1.804941     -1.262510
  H       0.724728     -2.254480     -1.310185
  H      -3.470046     -0.063304     -0.434547
  H      -2.945232      1.289667      0.482214
21
Coordinates from ORCA-job thiourea_cytosine_opt_freq E -942.835896948294
  S      -2.538148      4.222509      1.334851
  N      -0.539713      3.055301      2.684701
  N       0.050600      3.942919      0.663139
  C      -0.932007      3.756413      1.577772
  H       0.443847      2.861298      2.827252
  H      -1.174151      2.992411      3.468397
  H      -0.217283      4.358640     -0.216077
  H       0.885760      3.355515      0.686889
  O       1.617808      1.378525      0.949860
  N      -0.511535      0.693310      0.598693
  N      -2.759741      0.348668      0.137578
  N       1.299239     -0.595426     -0.230699
  C      -1.466376     -0.039231     -0.032309
  C      -1.026556     -1.148667     -0.750003
  C       0.883458      0.513531      0.449650
  C       0.364040     -1.361448     -0.779917
  H      -0.764117      1.481371      1.186630
  H      -1.713807     -1.803509     -1.270247
  H       0.735469     -2.235406     -1.315873
  H      -3.472262     -0.073953     -0.437329
  H      -2.957037      1.283699      0.480446
21
Coordinates from ORCA-job thiourea_cytosine_opt_freq E -942.836151114675
  S      -2.522809      4.230916      1.329417
  N      -0.536356      3.061667      2.685807
  N       0.062784      3.947649      0.660515
  C      -0.917396      3.764215      1.574902
  H       0.442514      2.840852      2.829411
  H      -1.163461      3.045334      3.478252
  H      -0.206362      4.354557     -0.222325
  H       0.902970      3.367934      0.689707
  O       1.600982      1.380558      0.964350
  N      -0.525216      0.682050      0.613447
  N      -2.767865      0.329072      0.139847
  N       1.293899     -0.579726     -0.240002
  C      -1.472336     -0.049900     -0.030931
  C      -1.026302     -1.152406     -0.753886
  C       0.870398      0.517094      0.455166
  C       0.365869     -1.352845     -0.791084
  H      -0.787136      1.458793      1.211462
  H      -1.709496     -1.807056     -1.280112
  H       0.743955     -2.219145     -1.334528
  H      -3.472150     -0.099970     -0.440786
  H      -2.968999      1.266828      0.474777
21
Coordinates from ORCA-job thiourea_cytosine_opt_freq E -942.836296254938
  S      -2.508169      4.234705      1.326420
  N      -0.532599      3.053923      2.678748
  N       0.073796      3.941965      0.651791
  C      -0.903789      3.758432      1.566425
  H       0.436319      2.811043      2.826305
  H      -1.154707      3.070006      3.473413
  H      -0.196588      4.343342     -0.233255
  H       0.918236      3.369484      0.684715
  O       1.591038      1.384895      0.986785
  N      -0.533932      0.678798      0.627752
  N      -2.776943      0.319309      0.146645
  N       1.291971     -0.558106     -0.245087
  C      -1.476544     -0.052213     -0.022266
  C      -1.024752     -1.148236     -0.750272
  C       0.863572      0.526002      0.465804
  C       0.369120     -1.336612     -0.797398
  H      -0.813428      1.445821      1.227542
  H      -1.705148     -1.803187     -1.280002
  H       0.753486     -2.193835     -1.350569
  H      -3.474326     -0.120361     -0.434687
  H      -2.989124      1.261294      0.464597
21
Coordinates from ORCA-job thiourea_cytosine_opt_freq E -942.836386671089
  S      -2.501944      4.234251      1.324386
  N      -0.526829      3.059484      2.678610
  N       0.080612      3.941786      0.647108
  C      -0.896353      3.756106      1.561060
  H       0.447947      2.806625      2.830670
  H      -1.146020      3.100650      3.474121
  H      -0.195726      4.326325     -0.243823
  H       0.927451      3.373586      0.683346
  O       1.582727      1.377611      1.009591
  N      -0.544540      0.676873      0.639731
  N      -2.781728      0.305872      0.148230
  N       1.285779     -0.548420     -0.245303
  C      -1.479869     -0.055209     -0.017258
  C      -1.025006     -1.143705     -0.755043
  C       0.855884      0.525354      0.477568
  C       0.368201     -1.326758     -0.805901
  H      -0.825073      1.439130      1.245264
  H      -1.706293     -1.794657     -1.288633
  H       0.759263     -2.174778     -1.368240
  H      -3.470658     -0.142926     -0.436252
  H      -3.000335      1.249272      0.454173
21
Coordinates from ORCA-job thiourea_cytosine_opt_freq E -942.836473660525
  S      -2.494184      4.246603      1.328770
  N      -0.518293      3.070722      2.681575
  N       0.088319      3.942518      0.647078
  C      -0.890720      3.760370      1.561143
  H       0.451077      2.817542      2.828130
  H      -1.133057      3.122766      3.481574
  H      -0.192269      4.312334     -0.248934
  H       0.929636      3.365059      0.682517
  O       1.573096      1.375787      1.024517
  N      -0.552928      0.673856      0.640524
  N      -2.786509      0.291111      0.148260
  N       1.283163     -0.544982     -0.239303
  C      -1.483738     -0.061954     -0.019910
  C      -1.023555     -1.142721     -0.766756
  C       0.849622      0.524294      0.486698
  C       0.369985     -1.321307     -0.811498
  H      -0.845145      1.435199      1.251747
  H      -1.703502     -1.791916     -1.304024
  H       0.767737     -2.163513     -1.377874
  H      -3.475373     -0.157851     -0.436051
  H      -3.005874      1.232554      0.455220
21
Coordinates from ORCA-job thiourea_cytosine_opt_freq E -942.836541121824
  S      -2.492309      4.251303      1.339702
  N      -0.511405      3.065138      2.676997
  N       0.088949      3.950877      0.647547
  C      -0.890290      3.759116      1.561466
  H       0.459724      2.817751      2.823732
  H      -1.132457      3.096699      3.471337
  H      -0.193145      4.329909     -0.244190
  H       0.925627      3.366643      0.675677
  O       1.570481      1.376610      1.028673
  N      -0.553664      0.676602      0.632456
  N      -2.790706      0.291232      0.148487
  N       1.285857     -0.549273     -0.228861
  C      -1.486891     -0.061220     -0.020744
  C      -1.021239     -1.141710     -0.767302
  C       0.849607      0.523965      0.489946
  C       0.371965     -1.322397     -0.803836
  H      -0.847424      1.441989      1.234820
  H      -1.700010     -1.792430     -1.304081
  H       0.768785     -2.167130     -1.367338
  H      -3.481570     -0.161057     -0.430917
  H      -3.012397      1.233854      0.449832
21
Coordinates from ORCA-job thiourea_cytosine_opt_freq E -942.836589944313
  S      -2.483928      4.266789      1.341312
  N      -0.508042      3.065732      2.674877
  N       0.092992      3.942339      0.642328
  C      -0.886300      3.760151      1.558883
  H       0.463635      2.810362      2.818055
  H      -1.127010      3.105845      3.471887
  H      -0.186214      4.324193     -0.249027
  H       0.925354      3.352282      0.673896
  O       1.561798      1.382470      1.037812
  N      -0.559716      0.677417      0.636520
  N      -2.795331      0.281773      0.151677
  N       1.285127     -0.542105     -0.223545
  C      -1.489320     -0.063251     -0.019630
  C      -1.019201     -1.137022     -0.772907
  C       0.843539      0.529102      0.496808
  C       0.374586     -1.314221     -0.804995
  H      -0.856900      1.438031      1.242201
  H      -1.694365     -1.787151     -1.314923
  H       0.773876     -2.156098     -1.371172
  H      -3.484884     -0.174202     -0.426502
  H      -3.022209      1.224036      0.449846
21
Coordinates from ORCA-job thiourea_cytosine_opt_freq E -942.836625442651
  S      -2.473905      4.283813      1.338287
  N      -0.504463      3.069784      2.673637
  N       0.101062      3.947407      0.642675
  C      -0.880072      3.767640      1.558283
  H       0.466870      2.807246      2.816133
  H      -1.122097      3.115728      3.471665
  H      -0.176676      4.331736     -0.248057
  H       0.927682      3.349472      0.672911
  O       1.552637      1.382648      1.046242
  N      -0.567237      0.675928      0.637676
  N      -2.801003      0.266884      0.155156
  N       1.283128     -0.539096     -0.219480
  C      -1.493181     -0.069515     -0.020650
  C      -1.017759     -1.135934     -0.780372
  C       0.835876      0.530403      0.501618
  C       0.376685     -1.310051     -0.807710
  H      -0.868025      1.431507      1.247121
  H      -1.688738     -1.786253     -1.327287
  H       0.778441     -2.149304     -1.376125
  H      -3.489936     -0.192501     -0.421148
  H      -3.031799      1.208930      0.452829
21
Coordinates from ORCA-job thiourea_cytosine_opt_freq E -942.836671744811
  S      -2.463783      4.298628      1.327794
  N      -0.504106      3.071733      2.670939
  N       0.110655      3.950626      0.643425
  C      -0.873651      3.774353      1.556208
  H       0.465542      2.803297      2.813993
  H      -1.120355      3.121134      3.469466
  H      -0.162962      4.338720     -0.246843
  H       0.935429      3.350548      0.677804
  O       1.544638      1.383953      1.051578
  N      -0.574298      0.675609      0.638831
  N      -2.806446      0.251977      0.161361
  N       1.280679     -0.534695     -0.217956
  C      -1.496833     -0.075079     -0.020069
  C      -1.016915     -1.133868     -0.786119
  C       0.828788      0.532280      0.504875
  C       0.378316     -1.305047     -0.811685
  H      -0.878641      1.425925      1.252433
  H      -1.684341     -1.784585     -1.336933
  H       0.782589     -2.141292     -1.382744
  H      -3.495289     -0.211098     -0.412103
  H      -3.041525      1.193351      0.459149
21
Coordinates from ORCA-job thiourea_cytosine_opt_freq E -942.836702187798
  S      -2.454199      4.313196      1.317180
  N      -0.505980      3.071692      2.667366
  N       0.119706      3.955754      0.644725
  C      -0.867197      3.781863      1.554753
  H       0.461125      2.797215      2.811985
  H      -1.122529      3.121034      3.464958
  H      -0.151971      4.348713     -0.244023
  H       0.940514      3.349961      0.676838
  O       1.539759      1.382594      1.058334
  N      -0.579171      0.675646      0.639431
  N      -2.810339      0.240273      0.167348
  N       1.278906     -0.530530     -0.218435
  C      -1.499234     -0.079305     -0.018151
  C      -1.016334     -1.132301     -0.788854
  C       0.824332      0.533083      0.507454
  C       0.379446     -1.300740     -0.815663
  H      -0.885805      1.421796      1.256658
  H      -1.681679     -1.783740     -1.341425
  H       0.785849     -2.133939     -1.389588
  H      -3.498606     -0.226157     -0.404046
  H      -3.049105      1.180363      0.466559
21
Coordinates from ORCA-job thiourea_cytosine_opt_freq E -942.836733776200
  S      -2.446423      4.324114      1.307247
  N      -0.509398      3.069197      2.662059
  N       0.127954      3.959172      0.645323
  C      -0.861560      3.787501      1.552121
  H       0.455237      2.790409      2.808887
  H      -1.128022      3.114745      3.457280
  H      -0.139638      4.358843     -0.241593
  H       0.949251      3.354383      0.679973
  O       1.536101      1.381680      1.063910
  N      -0.582832      0.676325      0.639832
  N      -2.813740      0.231293      0.173786
  N       1.277243     -0.525601     -0.220932
  C      -1.501378     -0.082254     -0.014805
  C      -1.016434     -1.131493     -0.788739
  C       0.821519      0.533975      0.508996
  C       0.379602     -1.296597     -0.819388
  H      -0.889798      1.420682      1.259928
  H      -1.681041     -1.784188     -1.340800
  H       0.788048     -2.126376     -1.396704
  H      -3.500795     -0.239757     -0.395185
  H      -3.056408      1.170418      0.472207
21
Coordinates from ORCA-job thiourea_cytosine_opt_freq E -942.836762695994
  S      -2.438412      4.339985      1.302239
  N      -0.514099      3.064967      2.654941
  N       0.135161      3.962597      0.644861
  C      -0.856386      3.794309      1.549397
  H       0.447799      2.778703      2.802880
  H      -1.136387      3.106086      3.447409
  H      -0.127945      4.371410     -0.239184
  H       0.954454      3.355180      0.677852
  O       1.533608      1.379550      1.072460
  N      -0.585013      0.676610      0.641083
  N      -2.815939      0.224312      0.179770
  N       1.276498     -0.519719     -0.224498
  C      -1.502520     -0.084693     -0.010008
  C      -1.016545     -1.131649     -0.786571
  C       0.820284      0.534652      0.511514
  C       0.379670     -1.291870     -0.823027
  H      -0.891521      1.419696      1.264346
  H      -1.681046     -1.786047     -1.336804
  H       0.789873     -2.117777     -1.404577
  H      -3.500764     -0.251818     -0.387644
  H      -3.063282      1.161985      0.476964
