21
Coordinates from ORCA-job thiourea_cytosine_opt_freq E -942.836762695994
  S          -2.43841227642014      4.33998480803052      1.30223875028117
  N          -0.51409944277839      3.06496703931782      2.65494070075624
  N           0.13516100841656      3.96259674125033      0.64486126785540
  C          -0.85638622988183      3.79430879447226      1.54939738942469
  H           0.44779896984417      2.77870293342703      2.80287998664027
  H          -1.13638748684252      3.10608564803232      3.44740936410279
  H          -0.12794472541733      4.37141011593854     -0.23918396091556
  H           0.95445403914984      3.35518045487931      0.67785173364225
  O           1.53360759744496      1.37954991149422      1.07245979536691
  N          -0.58501346933829      0.67661037407108      0.64108275959693
  N          -2.81593866906077      0.22431225026449      0.17976992867416
  N           1.27649826447500     -0.51971874103599     -0.22449842502418
  C          -1.50252003708919     -0.08469281990662     -0.01000789132264
  C          -1.01654484671352     -1.13164871725491     -0.78657056537752
  C           0.82028437188705      0.53465189408820      0.51151399280716
  C           0.37967029296283     -1.29186980021509     -0.82302723775465
  H          -0.89152084263163      1.41969645179806      1.26434622137039
  H          -1.68104569002524     -1.78604652476835     -1.33680364691343
  H           0.78987348002950     -2.11777686197138     -1.40457674125980
  H          -3.50076352913406     -0.25181827238884     -0.38764376998047
  H          -3.06328177887697      1.16198532047692      0.47696434802986
