21
Coordinates from ORCA-job urea_cytosine_opt_freq E -619.807722390416
  O      -2.475240      3.933079      1.501588
  N      -0.919863      2.237594      1.501588
  N      -0.228213      4.427779      1.501588
  C      -1.303033      3.562794      1.501188
  H       0.057782      1.966755      1.501288
  H      -1.606944      1.491130      1.501588
  H      -0.362016      5.433330      1.501688
  H       0.727616      4.088010      1.501488
  O       2.213400      1.118800      0.000100
  N      -0.059500      0.981600      0.000100
  N      -2.442200      0.921400      0.000100
  N       1.293500     -0.974400      0.000000
  C      -1.240600      0.267600     -0.000100
  C      -1.164300     -1.072600     -0.000200
  C       1.208800      0.405600     -0.000300
  C       0.190800     -1.647800      0.000300
  H      -0.133100      1.994600      0.000300
  H      -2.022300     -1.731700     -0.000300
  H       0.235100     -2.748700      0.000500
  H      -3.308900      0.398400      0.000300
  H      -2.453300      1.933200      0.000600
21
Coordinates from ORCA-job urea_cytosine_opt_freq E -619.831004032923
  O      -2.479619      3.953788      1.507775
  N      -0.917633      2.276994      1.534006
  N      -0.243771      4.485987      1.519811
  C      -1.300681      3.601761      1.526391
  H       0.059344      1.987678      1.535785
  H      -1.604095      1.521188      1.527878
  H      -0.409372      5.481141      1.504220
  H       0.717494      4.174395      1.531724
  O       2.216936      1.088026     -0.017551
  N      -0.046621      0.948207     -0.022428
  N      -2.433093      0.923003     -0.005674
  N       1.292567     -1.022134     -0.019083
  C      -1.232382      0.246352     -0.013957
  C      -1.155312     -1.115687     -0.011006
  C       1.222674      0.362017     -0.024253
  C       0.175888     -1.690565     -0.014774
  H      -0.114669      1.975628     -0.016041
  H      -2.018727     -1.767888     -0.005300
  H       0.221850     -2.784891     -0.012954
  H      -3.296795      0.403351     -0.011622
  H      -2.446493      1.938122      0.000459
21
Coordinates from ORCA-job urea_cytosine_opt_freq E -619.848173536417
  O      -2.482230      3.965950      1.511263
  N      -0.909452      2.315681      1.563986
  N      -0.261297      4.541278      1.538280
  C      -1.295522      3.637028      1.548041
  H       0.057979      2.009105      1.567257
  H      -1.592408      1.556476      1.552165
  H      -0.467479      5.526957      1.509581
  H       0.708105      4.262300      1.564331
  O       2.218968      1.055854     -0.035921
  N      -0.038482      0.914160     -0.043123
  N      -2.415137      0.922273     -0.011111
  N       1.289820     -1.065338     -0.039419
  C      -1.224705      0.227031     -0.026164
  C      -1.149635     -1.151434     -0.019351
  C       1.236445      0.316979     -0.046313
  C       0.155270     -1.724218     -0.029707
  H      -0.097173      1.941281     -0.030607
  H      -2.022787     -1.791374     -0.007543
  H       0.207230     -2.814490     -0.027243
  H      -3.278873      0.403961     -0.021800
  H      -2.431148      1.937014     -0.003199
21
Coordinates from ORCA-job urea_cytosine_opt_freq E -619.865773605867
  O      -2.488179      3.987845      1.507784
  N      -0.894942      2.372154      1.606776
  N      -0.285328      4.613470      1.565392
  C      -1.293263      3.686895      1.574114
  H       0.062828      2.049063      1.614432
  H      -1.571504      1.611410      1.591070
  H      -0.539180      5.587733      1.518153
  H       0.692730      4.371748      1.618465
  O       2.226119      1.004689     -0.062422
  N      -0.031169      0.867103     -0.072422
  N      -2.391926      0.910310     -0.019401
  N       1.288039     -1.118723     -0.069415
  C      -1.218343      0.198977     -0.043213
  C      -1.151022     -1.190125     -0.029924
  C       1.253014      0.255640     -0.076182
  C       0.134539     -1.764350     -0.050862
  H      -0.072409      1.887774     -0.054506
  H      -2.038809     -1.810215     -0.009072
  H       0.197449     -2.853572     -0.048412
  H      -3.257537      0.393723     -0.035035
  H      -2.413619      1.924923     -0.011915
21
Coordinates from ORCA-job urea_cytosine_opt_freq E -619.881069560430
  O      -2.494835      4.020180      1.488505
  N      -0.869152      2.448603      1.658660
  N      -0.315194      4.706870      1.604525
  C      -1.293795      3.752706      1.595887
  H       0.084045      2.121223      1.675040
  H      -1.539456      1.688293      1.646087
  H      -0.616116      5.667107      1.538977
  H       0.667403      4.504816      1.708036
  O       2.237839      0.934177     -0.095745
  N      -0.024130      0.809591     -0.110339
  N      -2.370757      0.880909     -0.030823
  N       1.284114     -1.183462     -0.110181
  C      -1.214649      0.158499     -0.064943
  C      -1.160290     -1.235259     -0.042591
  C       1.267861      0.182182     -0.111587
  C       0.117166     -1.817039     -0.079222
  H      -0.038501      1.821345     -0.091020
  H      -2.063185     -1.832731     -0.010047
  H       0.190227     -2.905916     -0.078568
  H      -3.240520      0.370084     -0.047895
  H      -2.400585      1.894294     -0.029351
21
Coordinates from ORCA-job urea_cytosine_opt_freq E -619.890447977005
  O      -2.497972      4.045611      1.457032
  N      -0.837785      2.520003      1.704084
  N      -0.344620      4.793881      1.641733
  C      -1.295332      3.811578      1.608915
  H       0.119626      2.206362      1.729471
  H      -1.505577      1.761116      1.699186
  H      -0.678381      5.742146      1.560431
  H       0.635666      4.624540      1.805272
  O       2.248657      0.866174     -0.120611
  N      -0.017854      0.760262     -0.144654
  N      -2.357821      0.846398     -0.039021
  N       1.275910     -1.242698     -0.148058
  C      -1.211579      0.117432     -0.084175
  C      -1.169231     -1.276301     -0.056614
  C       1.274698      0.120319     -0.143349
  C       0.104516     -1.868209     -0.107263
  H      -0.006460      1.769498     -0.125931
  H      -2.081047     -1.859051     -0.014092
  H       0.177224     -2.956966     -0.109162
  H      -3.234034      0.346326     -0.053743
  H      -2.391116      1.858051     -0.046047
21
Coordinates from ORCA-job urea_cytosine_opt_freq E -619.896737063689
  O      -2.496001      4.063761      1.416517
  N      -0.802093      2.590138      1.747904
  N      -0.374983      4.878853      1.675255
  C      -1.295021      3.866947      1.616582
  H       0.164052      2.304476      1.783110
  H      -1.470734      1.833461      1.752966
  H      -0.733741      5.816051      1.577907
  H       0.595344      4.740649      1.909915
  O       2.255967      0.799257     -0.142141
  N      -0.012739      0.713694     -0.174078
  N      -2.348908      0.810506     -0.043372
  N       1.265298     -1.300597     -0.185693
  C      -1.208173      0.074489     -0.100366
  C      -1.175857     -1.317932     -0.072719
  C       1.274650      0.064226     -0.169546
  C       0.093856     -1.920157     -0.137794
  H       0.022797      1.723822     -0.156698
  H      -2.091997     -1.893039     -0.022385
  H       0.157502     -3.009193     -0.146101
  H      -3.233281      0.325650     -0.055372
  H      -2.378448      1.821407     -0.060487
21
Coordinates from ORCA-job urea_cytosine_opt_freq E -619.900657691783
  O      -2.487470      4.075655      1.374166
  N      -0.764643      2.656302      1.789632
  N      -0.402613      4.957675      1.701906
  C      -1.290401      3.917550      1.621417
  H       0.211212      2.407267      1.833752
  H      -1.435383      1.902362      1.805521
  H      -0.782026      5.884790      1.590094
  H       0.549160      4.850101      2.015035
  O       2.257596      0.738976     -0.155081
  N      -0.010987      0.669724     -0.200012
  N      -2.342731      0.776169     -0.044294
  N       1.255341     -1.353390     -0.219486
  C      -1.206858      0.032162     -0.114966
  C      -1.181736     -1.358879     -0.092281
  C       1.268982      0.014832     -0.194882
  C       0.085055     -1.968919     -0.168794
  H       0.044274      1.680202     -0.182871
  H      -2.098604     -1.932174     -0.035846
  H       0.136383     -3.058434     -0.183199
  H      -3.235338      0.307489     -0.054726
  H      -2.361724      1.787012     -0.071682
21
Coordinates from ORCA-job urea_cytosine_opt_freq E -619.902792768828
  O      -2.473815      4.088036      1.332131
  N      -0.731006      2.719032      1.829144
  N      -0.424546      5.029348      1.719425
  C      -1.282534      3.965488      1.623534
  H       0.252748      2.507391      1.882769
  H      -1.403004      1.967075      1.855427
  H      -0.823338      5.946745      1.596419
  H       0.498862      4.951581      2.115588
  O       2.256998      0.685697     -0.170584
  N      -0.010905      0.627181     -0.216971
  N      -2.337499      0.744452     -0.041508
  N       1.247681     -1.401269     -0.252301
  C      -1.207806     -0.008247     -0.125574
  C      -1.187524     -1.398609     -0.111851
  C       1.262314     -0.030533     -0.209761
  C       0.077291     -2.013350     -0.200958
  H       0.058444      1.637600     -0.199013
  H      -2.103485     -1.972973     -0.052572
  H       0.117374     -3.103059     -0.227417
  H      -3.236939      0.289784     -0.052835
  H      -2.341821      1.755101     -0.079686
21
Coordinates from ORCA-job urea_cytosine_opt_freq E -619.903837061272
  O      -2.456996      4.100516      1.299531
  N      -0.701428      2.773138      1.862494
  N      -0.436936      5.088527      1.728302
  C      -1.271748      4.006714      1.625556
  H       0.288125      2.593551      1.922984
  H      -1.372020      2.021089      1.898255
  H      -0.856439      5.996474      1.601781
  H       0.451215      5.037666      2.202663
  O       2.253382      0.644366     -0.172002
  N      -0.013686      0.590932     -0.233821
  N      -2.335011      0.716250     -0.037265
  N       1.242331     -1.439798     -0.275421
  C      -1.211654     -0.043164     -0.138000
  C      -1.193670     -1.433086     -0.135252
  C       1.256085     -0.067341     -0.231730
  C       0.070835     -2.049287     -0.228142
  H       0.062480      1.601235     -0.211240
  H      -2.108111     -2.009567     -0.073672
  H       0.104915     -3.139221     -0.257632
  H      -3.239133      0.271205     -0.049173
  H      -2.325045      1.726272     -0.084813
21
Coordinates from ORCA-job urea_cytosine_opt_freq E -619.904386604323
  O      -2.440496      4.118976      1.269190
  N      -0.681712      2.823681      1.895101
  N      -0.441882      5.140378      1.727450
  C      -1.262234      4.046244      1.625562
  H       0.311038      2.667807      1.966285
  H      -1.349084      2.069440      1.938926
  H      -0.882003      6.038665      1.598870
  H       0.404560      5.113470      2.275343
  O       2.253222      0.607532     -0.189395
  N      -0.014245      0.557347     -0.235995
  N      -2.332519      0.691145     -0.029550
  N       1.238538     -1.474437     -0.301374
  C      -1.214526     -0.074237     -0.143377
  C      -1.198324     -1.464345     -0.154154
  C       1.253583     -0.102381     -0.233025
  C       0.065109     -2.081115     -0.256861
  H       0.064460      1.568117     -0.208462
  H      -2.112133     -2.042146     -0.096002
  H       0.095496     -3.170548     -0.303042
  H      -3.239545      0.252492     -0.044750
  H      -2.309814      1.700389     -0.087336
21
Coordinates from ORCA-job urea_cytosine_opt_freq E -619.904769536377
  O      -2.427101      4.136234      1.253996
  N      -0.667232      2.862380      1.922022
  N      -0.438321      5.177578      1.720054
  C      -1.253388      4.076152      1.627127
  H       0.327504      2.721904      2.001923
  H      -1.328441      2.103511      1.973144
  H      -0.897726      6.067359      1.593830
  H       0.369998      5.169243      2.324566
  O       2.250863      0.583308     -0.187021
  N      -0.016912      0.533603     -0.241571
  N      -2.333176      0.669953     -0.022345
  N       1.236303     -1.497947     -0.314771
  C      -1.218317     -0.097630     -0.152397
  C      -1.202290     -1.487490     -0.177370
  C       1.251817     -0.125926     -0.247393
  C       0.061579     -2.103348     -0.278404
  H       0.058400      1.544699     -0.205374
  H      -2.115574     -2.066481     -0.122563
  H       0.093146     -3.192775     -0.326416
  H      -3.241369      0.233701     -0.039474
  H      -2.302277      1.678444     -0.088159
21
Coordinates from ORCA-job urea_cytosine_opt_freq E -619.905150520297
  O      -2.418203      4.156460      1.245880
  N      -0.663167      2.895537      1.952870
  N      -0.427934      5.204981      1.702264
  C      -1.248314      4.101475      1.629801
  H       0.331830      2.761890      2.047047
  H      -1.314868      2.128968      2.011009
  H      -0.900907      6.088078      1.571822
  H       0.347433      5.213212      2.349945
  O       2.250267      0.566173     -0.188228
  N      -0.018526      0.515246     -0.236206
  N      -2.335189      0.650661     -0.012009
  N       1.235362     -1.514584     -0.327799
  C      -1.220807     -0.116475     -0.157350
  C      -1.204380     -1.505911     -0.200698
  C       1.252498     -0.143776     -0.250991
  C       0.060020     -2.120009     -0.301283
  H       0.048221      1.526702     -0.188990
  H      -2.117849     -2.085482     -0.155080
  H       0.095199     -3.208914     -0.358479
  H      -3.242980      0.213722     -0.033787
  H      -2.300216      1.658518     -0.086332
21
Coordinates from ORCA-job urea_cytosine_opt_freq E -619.905601095887
  O      -2.415025      4.176664      1.246860
  N      -0.669739      2.922594      1.992337
  N      -0.411325      5.219392      1.670748
  C      -1.247370      4.119703      1.633429
  H       0.323376      2.787074      2.109560
  H      -1.306352      2.143778      2.059478
  H      -0.888124      6.098813      1.524019
  H       0.344243      5.243791      2.342271
  O       2.250041      0.558952     -0.183877
  N      -0.020381      0.504202     -0.219311
  N      -2.339429      0.632470      0.002880
  N       1.235617     -1.521538     -0.339127
  C      -1.222265     -0.130212     -0.159205
  C      -1.204630     -1.518487     -0.228304
  C       1.254554     -0.152558     -0.248762
  C       0.061073     -2.129342     -0.327682
  H       0.030336      1.515556     -0.156032
  H      -2.118692     -2.098287     -0.199010
  H       0.102820     -3.217212     -0.397966
  H      -3.244974      0.191338     -0.027728
  H      -2.306268      1.639781     -0.081173
21
Coordinates from ORCA-job urea_cytosine_opt_freq E -619.905932394513
  O      -2.414322      4.180757      1.246376
  N      -0.677885      2.936150      2.029471
  N      -0.400848      5.218147      1.638930
  C      -1.248593      4.123693      1.635616
  H       0.311985      2.796584      2.170487
  H      -1.300870      2.146698      2.105939
  H      -0.871908      6.096016      1.466931
  H       0.355693      5.255602      2.308669
  O       2.249557      0.561011     -0.174665
  N      -0.022188      0.502634     -0.196477
  N      -2.342710      0.622437      0.017634
  N       1.235488     -1.518401     -0.348399
  C      -1.222420     -0.135280     -0.156226
  C      -1.204357     -1.521768     -0.249493
  C       1.255110     -0.150802     -0.241117
  C       0.062860     -2.129539     -0.350584
  H       0.013990      1.512992     -0.117877
  H      -2.118872     -2.101479     -0.237140
  H       0.108898     -3.216047     -0.436358
  H      -3.246069      0.177687     -0.024401
  H      -2.315050      1.629379     -0.073912
21
Coordinates from ORCA-job urea_cytosine_opt_freq E -619.906294936097
  O      -2.409928      4.164347      1.234872
  N      -0.680055      2.945033      2.071637
  N      -0.398091      5.210141      1.604612
  C      -1.247279      4.117463      1.633273
  H       0.305544      2.805492      2.240416
  H      -1.290267      2.146443      2.160865
  H      -0.862350      6.083860      1.399572
  H       0.368804      5.263515      2.260509
  O       2.248530      0.565238     -0.159403
  N      -0.024151      0.504815     -0.167178
  N      -2.344809      0.617638      0.034878
  N       1.233593     -1.511009     -0.360188
  C      -1.222523     -0.136422     -0.149515
  C      -1.205528     -1.520250     -0.269246
  C       1.253305     -0.144612     -0.229988
  C       0.063273     -2.125159     -0.376403
  H      -0.000341      1.513426     -0.071286
  H      -2.120355     -2.099471     -0.275235
  H       0.110545     -3.209828     -0.481608
  H      -3.246694      0.171509     -0.023315
  H      -2.323735      1.624303     -0.063865
21
Coordinates from ORCA-job urea_cytosine_opt_freq E -619.906958486227
  O      -2.393779      4.100004      1.196707
  N      -0.671677      2.949228      2.138939
  N      -0.405410      5.186147      1.551444
  C      -1.239760      4.088861      1.623227
  H       0.306502      2.818842      2.352021
  H      -1.266118      2.140998      2.251042
  H      -0.861527      6.045948      1.284395
  H       0.383541      5.269671      2.175515
  O       2.246131      0.574839     -0.127815
  N      -0.027102      0.513905     -0.116892
  N      -2.347000      0.621418      0.063829
  N       1.228078     -1.493173     -0.380192
  C      -1.223772     -0.130079     -0.134476
  C      -1.210202     -1.508607     -0.294783
  C       1.247445     -0.129108     -0.209253
  C       0.060746     -2.109765     -0.416373
  H      -0.016042      1.518913      0.006697
  H      -2.125373     -2.086099     -0.327878
  H       0.105666     -3.190754     -0.554852
  H      -3.247651      0.177214     -0.024757
  H      -2.335208      1.628068     -0.043140
21
Coordinates from ORCA-job urea_cytosine_opt_freq E -619.908057301030
  O      -2.358411      3.962980      1.127912
  N      -0.646056      2.937234      2.216182
  N      -0.429389      5.137412      1.488060
  C      -1.221566      4.022787      1.600161
  H       0.321879      2.830250      2.481354
  H      -1.228489      2.124115      2.357983
  H      -0.880483      5.965270      1.132253
  H       0.387835      5.264854      2.063999
  O       2.242499      0.592370     -0.079839
  N      -0.030204      0.534456     -0.052422
  N      -2.348152      0.645847      0.100707
  N       1.218213     -1.461179     -0.402845
  C      -1.226975     -0.107391     -0.110420
  C      -1.219699     -1.478512     -0.316348
  C       1.237412     -0.101382     -0.179168
  C       0.052584     -2.076553     -0.460014
  H      -0.024796      1.534164      0.103947
  H      -2.135613     -2.052019     -0.378499
  H       0.089749     -3.151834     -0.639344
  H      -3.247927      0.209646     -0.031060
  H      -2.344921      1.653957     -0.009195
21
Coordinates from ORCA-job urea_cytosine_opt_freq E -619.909491684665
  O      -2.294994      3.757056      1.033393
  N      -0.603528      2.906377      2.286173
  N      -0.469625      5.067274      1.426586
  C      -1.190871      3.920839      1.565524
  H       0.353651      2.840317      2.598070
  H      -1.183806      2.096432      2.456554
  H      -0.917640      5.839420      0.961598
  H       0.363376      5.253955      1.960171
  O       2.236932      0.615963     -0.021062
  N      -0.034248      0.565093      0.011775
  N      -2.347981      0.692822      0.140321
  N       1.205083     -1.418625     -0.422213
  C      -1.233949     -0.067121     -0.081659
  C      -1.233758     -1.430688     -0.328919
  C       1.224306     -0.065384     -0.144441
  C       0.037888     -2.027247     -0.497257
  H      -0.021720      1.558912      0.199674
  H      -2.150753     -1.999079     -0.414492
  H       0.063279     -3.095687     -0.716111
  H      -3.246677      0.270850     -0.040881
  H      -2.347477      1.704991      0.040600
21
Coordinates from ORCA-job urea_cytosine_opt_freq E -619.910377537441
  O      -2.206477      3.552343      0.928574
  N      -0.562214      2.880104      2.343379
  N      -0.505206      5.001680      1.375637
  C      -1.150989      3.818667      1.524758
  H       0.384356      2.869363      2.693327
  H      -1.143125      2.075912      2.539509
  H      -0.935854      5.704396      0.797055
  H       0.310845      5.256480      1.907981
  O       2.226156      0.640895      0.034564
  N      -0.043662      0.592320      0.062025
  N      -2.354290      0.733581      0.181573
  N       1.193175     -1.377675     -0.438562
  C      -1.248310     -0.028462     -0.058213
  C      -1.248326     -1.385410     -0.343091
  C       1.210520     -0.033181     -0.115398
  C       0.022246     -1.978040     -0.530653
  H      -0.018626      1.580720      0.278980
  H      -2.164846     -1.951727     -0.445654
  H       0.041800     -3.039719     -0.782087
  H      -3.248940      0.322997     -0.044525
  H      -2.350745      1.751225      0.104224
21
Coordinates from ORCA-job urea_cytosine_opt_freq E -619.911547154081
  O      -2.196287      3.607181      0.904528
  N      -0.564391      2.887970      2.323154
  N      -0.488962      5.033691      1.409913
  C      -1.142258      3.844286      1.515880
  H       0.387610      2.896752      2.654887
  H      -1.154350      2.088905      2.512980
  H      -0.904612      5.748645      0.832313
  H       0.288331      5.289808      1.999670
  O       2.215790      0.637531      0.026806
  N      -0.053475      0.579113      0.035919
  N      -2.366594      0.707846      0.178732
  N       1.197380     -1.391726     -0.437932
  C      -1.259926     -0.044551     -0.068666
  C      -1.245930     -1.405435     -0.345357
  C       1.207847     -0.047158     -0.127956
  C       0.024860     -1.993256     -0.526715
  H      -0.017752      1.570501      0.247229
  H      -2.158572     -1.980386     -0.436211
  H       0.054056     -3.057412     -0.767308
  H      -3.258812      0.286476     -0.037594
  H      -2.356466      1.727691      0.119133
21
Coordinates from ORCA-job urea_cytosine_opt_freq E -619.912799647491
  O      -2.128045      3.577350      0.821405
  N      -0.577186      2.909095      2.364839
  N      -0.445739      5.014084      1.378635
  C      -1.116364      3.827396      1.493477
  H       0.364307      2.965318      2.724682
  H      -1.148306      2.104902      2.577950
  H      -0.809708      5.692022      0.725876
  H       0.266517      5.308324      2.029697
  O       2.190554      0.672004      0.047611
  N      -0.078166      0.582253      0.055415
  N      -2.402906      0.673031      0.221375
  N       1.198443     -1.364214     -0.454001
  C      -1.284211     -0.049707     -0.062458
  C      -1.247155     -1.403507     -0.380171
  C       1.197315     -0.029333     -0.122208
  C       0.028097     -1.972960     -0.564078
  H      -0.049385      1.569062      0.290922
  H      -2.153122     -1.987249     -0.485817
  H       0.080811     -3.031353     -0.825647
  H      -3.283440      0.235729     -0.010509
  H      -2.394820      1.694226      0.186412
21
Coordinates from ORCA-job urea_cytosine_opt_freq E -619.913395905790
  O      -2.062361      3.515280      0.762382
  N      -0.580588      2.932471      2.408909
  N      -0.417910      4.985931      1.334752
  C      -1.084299      3.797312      1.468575
  H       0.343962      3.031877      2.802550
  H      -1.134024      2.122995      2.648692
  H      -0.752414      5.621929      0.627732
  H       0.240798      5.325154      2.017896
  O       2.168518      0.696152      0.076812
  N      -0.099286      0.586063      0.084432
  N      -2.425271      0.650407      0.258684
  N       1.193970     -1.338517     -0.468963
  C      -1.298374     -0.049775     -0.050565
  C      -1.249726     -1.393396     -0.413410
  C       1.184652     -0.013963     -0.106425
  C       0.027043     -1.951522     -0.603590
  H      -0.075387      1.566590      0.344011
  H      -2.152757     -1.977946     -0.539772
  H       0.093497     -3.001689     -0.892014
  H      -3.296485      0.207376      0.004730
  H      -2.416067      1.673742      0.247986
21
Coordinates from ORCA-job urea_cytosine_opt_freq E -619.913754296392
  O      -2.018358      3.474968      0.737033
  N      -0.586875      2.964422      2.449641
  N      -0.389009      4.966639      1.294316
  C      -1.065219      3.787832      1.462464
  H       0.321477      3.094378      2.869678
  H      -1.124016      2.150070      2.707254
  H      -0.715056      5.573908      0.558891
  H       0.231945      5.342743      1.992834
  O       2.152685      0.705578      0.103565
  N      -0.115484      0.584026      0.106396
  N      -2.439365      0.625204      0.282081
  N       1.189734     -1.322689     -0.482930
  C      -1.305245     -0.057168     -0.042422
  C      -1.251004     -1.390127     -0.443132
  C       1.173640     -0.007047     -0.092828
  C       0.028001     -1.940010     -0.640016
  H      -0.096738      1.558417      0.384948
  H      -2.152471     -1.972988     -0.587562
  H       0.102077     -2.982319     -0.953365
  H      -3.306228      0.181752      0.015272
  H      -2.427002      1.648883      0.291286
21
Coordinates from ORCA-job urea_cytosine_opt_freq E -619.914045906458
  O      -1.983844      3.441155      0.731132
  N      -0.584650      3.001415      2.486371
  N      -0.368435      4.958980      1.259383
  C      -1.043413      3.785588      1.459428
  H       0.307835      3.158544      2.928586
  H      -1.111390      2.184386      2.755689
  H      -0.709514      5.548164      0.515928
  H       0.218528      5.370940      1.967180
  O       2.142688      0.696986      0.135334
  N      -0.126368      0.575205      0.122562
  N      -2.447510      0.602436      0.292969
  N       1.185130     -1.318464     -0.497074
  C      -1.309045     -0.069341     -0.038831
  C      -1.253134     -1.392807     -0.470230
  C       1.164376     -0.011385     -0.079696
  C       0.027575     -1.936857     -0.674498
  H      -0.108227      1.544139      0.417874
  H      -2.154078     -1.972537     -0.629140
  H       0.103095     -2.971542     -1.011615
  H      -3.314510      0.165828      0.016911
  H      -2.427621      1.625637      0.325142
21
Coordinates from ORCA-job urea_cytosine_opt_freq E -619.914316148228
  O      -1.956562      3.415035      0.739680
  N      -0.580670      3.043649      2.524101
  N      -0.348852      4.956583      1.227064
  C      -1.025573      3.792528      1.465391
  H       0.296737      3.224914      2.984345
  H      -1.100969      2.224241      2.797573
  H      -0.715217      5.533334      0.485182
  H       0.210427      5.402018      1.937791
  O       2.135190      0.679338      0.169979
  N      -0.134438      0.562290      0.133378
  N      -2.454302      0.579267      0.293796
  N       1.182220     -1.319173     -0.514205
  C      -1.313011     -0.085827     -0.039597
  C      -1.254811     -1.400917     -0.495055
  C       1.156230     -0.021184     -0.068502
  C       0.028518     -1.937648     -0.708490
  H      -0.114994      1.525940      0.444981
  H      -2.154768     -1.978865     -0.664577
  H       0.103148     -2.964921     -1.068109
  H      -3.325363      0.155282      0.012404
  H      -2.425452      1.600587      0.356274
21
Coordinates from ORCA-job urea_cytosine_opt_freq E -619.914507504130
  O      -1.937411      3.389535      0.755495
  N      -0.574043      3.080898      2.558617
  N      -0.340032      4.955951      1.202332
  C      -1.011246      3.795678      1.473686
  H       0.290595      3.282226      3.034444
  H      -1.090108      2.259549      2.833047
  H      -0.726302      5.520035      0.459944
  H       0.204230      5.428371      1.908341
  O       2.131079      0.661203      0.197821
  N      -0.138156      0.549576      0.140856
  N      -2.458753      0.564483      0.288455
  N       1.180907     -1.322016     -0.530723
  C      -1.317649     -0.099453     -0.043689
  C      -1.256826     -1.408827     -0.513936
  C       1.151390     -0.031547     -0.061352
  C       0.028667     -1.938864     -0.735021
  H      -0.117503      1.508889      0.467333
  H      -2.155657     -1.986132     -0.690784
  H       0.102018     -2.960455     -1.111256
  H      -3.334281      0.154730      0.000891
  H      -2.423431      1.582641      0.378904
21
Coordinates from ORCA-job urea_cytosine_opt_freq E -619.914646376904
  O      -1.927501      3.379227      0.774394
  N      -0.570368      3.113631      2.587299
  N      -0.336139      4.960746      1.190306
  C      -1.005121      3.804173      1.486899
  H       0.285532      3.329934      3.071943
  H      -1.083648      2.289455      2.858986
  H      -0.729622      5.513640      0.443174
  H       0.205380      5.449584      1.887501
  O       2.127371      0.646488      0.213020
  N      -0.140599      0.536117      0.141619
  N      -2.462536      0.552515      0.279118
  N       1.181750     -1.327740     -0.545559
  C      -1.322779     -0.112260     -0.050189
  C      -1.257183     -1.418649     -0.527313
  C       1.148742     -0.042591     -0.060232
  C       0.029701     -1.943084     -0.753727
  H      -0.119270      1.491976      0.479051
  H      -2.154423     -1.997190     -0.708084
  H       0.103709     -2.961430     -1.138866
  H      -3.341843      0.154901     -0.013329
  H      -2.423663      1.567030      0.397393
21
Coordinates from ORCA-job urea_cytosine_opt_freq E -619.914763945332
  O      -1.911316      3.356804      0.790450
  N      -0.566637      3.147901      2.620407
  N      -0.338339      4.962627      1.179888
  C      -0.998038      3.805600      1.499863
  H       0.278731      3.383429      3.116266
  H      -1.072797      2.320090      2.894057
  H      -0.726371      5.493484      0.414170
  H       0.203465      5.469738      1.863794
  O       2.123535      0.635744      0.222799
  N      -0.143355      0.523103      0.145082
  N      -2.466352      0.543452      0.272580
  N       1.181773     -1.332272     -0.559255
  C      -1.328372     -0.122112     -0.056202
  C      -1.258576     -1.424680     -0.542667
  C       1.146655     -0.051886     -0.060095
  C       0.028928     -1.945167     -0.772268
  H      -0.123410      1.475125      0.494636
  H      -2.154375     -2.003457     -0.730295
  H       0.105163     -2.960261     -1.165658
  H      -3.346435      0.155157     -0.029923
  H      -2.426388      1.554053      0.415774
21
Coordinates from ORCA-job urea_cytosine_opt_freq E -619.914873932827
  O      -1.893102      3.343105      0.807404
  N      -0.564756      3.189567      2.654667
  N      -0.341520      4.972705      1.176265
  C      -0.991999      3.815467      1.515834
  H       0.269538      3.445922      3.159230
  H      -1.060024      2.356517      2.932507
  H      -0.719120      5.478637      0.389424
  H       0.200144      5.495953      1.847249
  O       2.119884      0.622021      0.225022
  N      -0.146380      0.505375      0.146636
  N      -2.469925      0.529829      0.265956
  N       1.181087     -1.342693     -0.571668
  C      -1.332722     -0.135404     -0.063193
  C      -1.259908     -1.433546     -0.561258
  C       1.145090     -0.066192     -0.062532
  C       0.027373     -1.952575     -0.791457
  H      -0.129366      1.453450      0.506725
  H      -2.154618     -2.011368     -0.757585
  H       0.106626     -2.964644     -1.191767
  H      -3.349089      0.147997     -0.047066
  H      -2.429724      1.536348      0.433013
21
Coordinates from ORCA-job urea_cytosine_opt_freq E -619.915019949074
  O      -1.854307      3.307413      0.823449
  N      -0.560535      3.244945      2.700829
  N      -0.351793      4.984894      1.171597
  C      -0.979006      3.822434      1.534049
  H       0.256690      3.534077      3.216899
  H      -1.037781      2.404898      2.989442
  H      -0.708883      5.448507      0.350293
  H       0.185421      5.533270      1.825225
  O       2.115367      0.603718      0.229315
  N      -0.150886      0.483414      0.152633
  N      -2.474610      0.513193      0.260892
  N       1.177946     -1.355294     -0.585179
  C      -1.337248     -0.150026     -0.070516
  C      -1.263450     -1.440675     -0.588428
  C       1.142132     -0.084088     -0.063553
  C       0.023219     -1.959899     -0.818034
  H      -0.137981      1.426130      0.526189
  H      -2.157317     -2.015113     -0.798731
  H       0.105164     -2.967207     -1.229423
  H      -3.350234      0.137091     -0.068683
  H      -2.434417      1.514790      0.455139
21
Coordinates from ORCA-job urea_cytosine_opt_freq E -619.915216673572
  O      -1.799492      3.268167      0.845832
  N      -0.555337      3.319535      2.755979
  N      -0.368360      5.009519      1.171110
  C      -0.960652      3.838639      1.557816
  H       0.239007      3.650203      3.282834
  H      -1.005784      2.470648      3.060356
  H      -0.699381      5.420454      0.312287
  H       0.161514      5.586718      1.804636
  O       2.112031      0.573537      0.232651
  N      -0.154997      0.452477      0.160567
  N      -2.479581      0.487985      0.253657
  N       1.172260     -1.376711     -0.600689
  C      -1.340122     -0.171574     -0.080431
  C      -1.268740     -1.452097     -0.624459
  C       1.138799     -0.111851     -0.065016
  C       0.016880     -1.973832     -0.852009
  H      -0.148089      1.389089      0.548369
  H      -2.162464     -2.019993     -0.852696
  H       0.099879     -2.974863     -1.277894
  H      -3.350286      0.117140     -0.093980
  H      -2.439596      1.483280      0.474486
21
Coordinates from ORCA-job urea_cytosine_opt_freq E -619.915478499430
  O      -1.718969      3.209899      0.868945
  N      -0.547982      3.401041      2.814891
  N      -0.393447      5.035684      1.170223
  C      -0.934036      3.852057      1.582699
  H       0.217742      3.782362      3.350479
  H      -0.966306      2.542909      3.138756
  H      -0.686869      5.381865      0.270460
  H       0.124393      5.646720      1.780887
  O       2.107257      0.538808      0.243324
  N      -0.160726      0.420450      0.172390
  N      -2.486497      0.460076      0.246175
  N       1.164422     -1.397128     -0.617853
  C      -1.343142     -0.193357     -0.090869
  C      -1.275678     -1.461828     -0.664320
  C       1.132809     -0.140929     -0.063690
  C       0.009345     -1.985638     -0.890904
  H      -0.159134      1.350679      0.574904
  H      -2.169501     -2.021534     -0.911340
  H       0.091467     -2.978816     -1.334890
  H      -3.351553      0.094477     -0.120174
  H      -2.446108      1.448671      0.493313
21
Coordinates from ORCA-job urea_cytosine_opt_freq E -619.915793718724
  O      -1.624299      3.144798      0.895280
  N      -0.541091      3.480086      2.870181
  N      -0.423085      5.058342      1.167840
  C      -0.902724      3.861473      1.606916
  H       0.192340      3.913927      3.411451
  H      -0.923277      2.613621      3.214968
  H      -0.669902      5.336891      0.231465
  H       0.084026      5.701388      1.753842
  O       2.101572      0.505284      0.259297
  N      -0.167248      0.391622      0.187612
  N      -2.495825      0.431684      0.238577
  N       1.156026     -1.412159     -0.636359
  C      -1.346285     -0.213273     -0.101219
  C      -1.282787     -1.469763     -0.702055
  C       1.125025     -0.166349     -0.060191
  C       0.002629     -1.993316     -0.929776
  H      -0.171004      1.316069      0.603593
  H      -2.176987     -2.020804     -0.965906
  H       0.082736     -2.977747     -1.393341
  H      -3.356013      0.070912     -0.142919
  H      -2.456335      1.413784      0.504150
21
Coordinates from ORCA-job urea_cytosine_opt_freq E -619.916125346037
  O      -1.522114      3.072865      0.922032
  N      -0.535807      3.545352      2.916889
  N      -0.454090      5.068531      1.160677
  C      -0.869170      3.860504      1.627518
  H       0.164191      4.030924      3.458955
  H      -0.881533      2.671405      3.281145
  H      -0.642931      5.279405      0.193540
  H       0.047389      5.738816      1.720647
  O       2.091445      0.482057      0.284121
  N      -0.177258      0.372061      0.204810
  N      -2.508421      0.407002      0.232466
  N       1.149066     -1.413691     -0.655689
  C      -1.351635     -0.226855     -0.110004
  C      -1.288390     -1.473320     -0.732309
  C       1.113873     -0.180537     -0.053266
  C      -0.000937     -1.991122     -0.965138
  H      -0.184812      1.291754      0.632147
  H      -2.182667     -2.017680     -1.008611
  H       0.077819     -2.966388     -1.448344
  H      -3.365849      0.051304     -0.159080
  H      -2.470680      1.384083      0.510898
21
Coordinates from ORCA-job urea_cytosine_opt_freq E -619.916430235932
  O      -1.435050      3.016840      0.958424
  N      -0.534257      3.608572      2.959672
  N      -0.479201      5.074032      1.152077
  C      -0.839980      3.861506      1.650418
  H       0.130977      4.141509      3.500387
  H      -0.842019      2.727650      3.340403
  H      -0.612143      5.223053      0.164132
  H       0.024989      5.764368      1.685089
  O       2.080013      0.463783      0.305391
  N      -0.188162      0.353394      0.219364
  N      -2.520323      0.382024      0.226090
  N       1.143774     -1.412482     -0.676431
  C      -1.357931     -0.241614     -0.119619
  C      -1.292690     -1.479059     -0.759406
  C       1.102816     -0.191679     -0.048478
  C      -0.002662     -1.988704     -0.998190
  H      -0.199995      1.269659      0.658135
  H      -2.186744     -2.017855     -1.046675
  H       0.077216     -2.955231     -1.498858
  H      -3.376591      0.031973     -0.172443
  H      -2.484548      1.354733      0.513923
21
Coordinates from ORCA-job urea_cytosine_opt_freq E -619.916631555171
  O      -1.386408      2.965579      0.987696
  N      -0.539022      3.634174      2.985587
  N      -0.499881      5.060706      1.140791
  C      -0.822007      3.843017      1.665236
  H       0.098765      4.209356      3.510254
  H      -0.801272      2.743072      3.376885
  H      -0.565559      5.153233      0.138196
  H       0.056759      5.738047      1.639769
  O       2.058411      0.477199      0.338089
  N      -0.206748      0.355819      0.234438
  N      -2.539934      0.366695      0.222253
  N       1.146423     -1.379774     -0.697430
  C      -1.371265     -0.244034     -0.127131
  C      -1.288912     -1.480661     -0.765383
  C       1.086116     -0.173917     -0.039354
  C       0.008149     -1.967720     -1.017024
  H      -0.222682      1.269674      0.675546
  H      -2.180876     -2.021876     -1.054237
  H       0.094446     -2.927515     -1.530354
  H      -3.403431      0.025338     -0.168027
  H      -2.513584      1.340061      0.497605
21
Coordinates from ORCA-job urea_cytosine_opt_freq E -619.917010186736
  O      -1.326981      2.947188      1.046709
  N      -0.544927      3.722931      3.033897
  N      -0.503449      5.069875      1.132647
  C      -0.802025      3.865149      1.700190
  H       0.050045      4.339519      3.563661
  H      -0.769546      2.827584      3.438665
  H      -0.538576      5.109629      0.125276
  H       0.045689      5.769378      1.608070
  O       2.050311      0.452344      0.337467
  N      -0.215219      0.322857      0.237395
  N      -2.544097      0.333465      0.215535
  N       1.139992     -1.396720     -0.718531
  C      -1.376485     -0.272979     -0.139258
  C      -1.296196     -1.495024     -0.803175
  C       1.080242     -0.198422     -0.045020
  C       0.001358     -1.979432     -1.055177
  H      -0.236617      1.231727      0.695242
  H      -2.186940     -2.029670     -1.108291
  H       0.094045     -2.930699     -1.582728
  H      -3.402974     -0.002232     -0.189800
  H      -2.510161      1.300002      0.520629
21
Coordinates from ORCA-job urea_cytosine_opt_freq E -619.916968128547
  O      -1.432015      3.000077      1.047004
  N      -0.560010      3.711314      3.029430
  N      -0.454054      5.053613      1.132252
  C      -0.836686      3.867624      1.701607
  H       0.043369      4.315842      3.555211
  H      -0.787982      2.814104      3.427408
  H      -0.542848      5.124071      0.130092
  H       0.121699      5.729008      1.610465
  O       2.046671      0.484309      0.309178
  N      -0.218258      0.327123      0.220339
  N      -2.535834      0.337244      0.226346
  N       1.145261     -1.395286     -0.710301
  C      -1.381164     -0.278139     -0.134257
  C      -1.293646     -1.497387     -0.798824
  C       1.085173     -0.186300     -0.055267
  C       0.003573     -1.981949     -1.044385
  H      -0.242125      1.231630      0.676812
  H      -2.179619     -2.039007     -1.107354
  H       0.111540     -2.936226     -1.562360
  H      -3.393251      0.000667     -0.182980
  H      -2.492303      1.304137      0.542988
21
Coordinates from ORCA-job urea_cytosine_opt_freq E -619.917363358918
  O      -1.364215      2.942100      1.081142
  N      -0.564404      3.748424      3.056034
  N      -0.487153      5.042706      1.121030
  C      -0.817402      3.855600      1.717890
  H       0.009077      4.390686      3.578109
  H      -0.751886      2.845608      3.467616
  H      -0.511742      5.045593      0.112725
  H       0.126935      5.707108      1.566155
  O       2.036957      0.485575      0.322823
  N      -0.226808      0.322818      0.230471
  N      -2.551596      0.332028      0.221187
  N       1.145567     -1.380624     -0.723652
  C      -1.388134     -0.277120     -0.139541
  C      -1.292287     -1.493120     -0.810162
  C       1.076375     -0.181092     -0.053218
  C       0.008198     -1.968798     -1.060921
  H      -0.255592      1.225731      0.692636
  H      -2.176270     -2.034578     -1.123720
  H       0.117392     -2.917975     -1.588488
  H      -3.409120      0.000341     -0.191522
  H      -2.516403      1.295462      0.536809
21
Coordinates from ORCA-job urea_cytosine_opt_freq E -619.917413984925
  O      -1.338317      2.924985      1.111242
  N      -0.570649      3.779332      3.075485
  N      -0.496945      5.044036      1.116888
  C      -0.810217      3.859253      1.733293
  H      -0.018026      4.445090      3.592063
  H      -0.728083      2.874542      3.493837
  H      -0.501122      5.015379      0.107709
  H       0.142078      5.699345      1.542417
  O       2.030723      0.480295      0.327940
  N      -0.232260      0.313030      0.233010
  N      -2.556335      0.321853      0.218404
  N       1.144926     -1.380189     -0.732663
  C      -1.391431     -0.285278     -0.143855
  C      -1.291817     -1.496521     -0.822793
  C       1.071443     -0.185772     -0.052950
  C       0.009836     -1.967941     -1.075208
  H      -0.264902      1.216185      0.700206
  H      -2.174343     -2.037191     -1.141795
  H       0.120530     -2.913147     -1.609446
  H      -3.414664     -0.004917     -0.195788
  H      -2.522937      1.284099      0.535409
21
Coordinates from ORCA-job urea_cytosine_opt_freq E -619.917465360042
  O      -1.346345      2.917337      1.101534
  N      -0.570712      3.756106      3.065915
  N      -0.500297      5.038385      1.115983
  C      -0.814746      3.849199      1.725133
  H      -0.009576      4.420212      3.576562
  H      -0.728572      2.852814      3.484553
  H      -0.520076      5.022188      0.106092
  H       0.148274      5.685153      1.541756
  O       2.033194      0.484279      0.332649
  N      -0.229751      0.322041      0.232899
  N      -2.553585      0.332982      0.222285
  N       1.145941     -1.377437     -0.723157
  C      -1.388846     -0.276385     -0.138365
  C      -1.289568     -1.488571     -0.817590
  C       1.072770     -0.181135     -0.047541
  C       0.011449     -1.963181     -1.067067
  H      -0.262733      1.228605      0.696621
  H      -2.171687     -2.030820     -1.134951
  H       0.117756     -2.909674     -1.599930
  H      -3.413013      0.006115     -0.189125
  H      -2.522388      1.298259      0.529147
21
Coordinates from ORCA-job urea_cytosine_opt_freq E -619.917523285653
  O      -1.343007      2.913951      1.120850
  N      -0.576597      3.778502      3.078905
  N      -0.498183      5.035762      1.114505
  C      -0.814160      3.852328      1.735649
  H      -0.029649      4.459002      3.585510
  H      -0.711850      2.874663      3.505312
  H      -0.526326      5.011396      0.105221
  H       0.160059      5.679611      1.529034
  O       2.033569      0.478817      0.329927
  N      -0.229794      0.314236      0.230138
  N      -2.552988      0.328039      0.222812
  N       1.144944     -1.385329     -0.722864
  C      -1.390005     -0.283248     -0.139899
  C      -1.291266     -1.489025     -0.830212
  C       1.073917     -0.188019     -0.048922
  C       0.009584     -1.966713     -1.074910
  H      -0.266693      1.218837      0.696433
  H      -2.171624     -2.030468     -1.154109
  H       0.117412     -2.911211     -1.610864
  H      -3.410531      0.003012     -0.194842
  H      -2.519323      1.292329      0.535730
21
Coordinates from ORCA-job urea_cytosine_opt_freq E -619.917554214050
  O      -1.342066      2.914781      1.122211
  N      -0.575461      3.781616      3.080645
  N      -0.500297      5.036050      1.116594
  C      -0.814225      3.853570      1.737333
  H      -0.029513      4.465320      3.582822
  H      -0.704715      2.877645      3.508933
  H      -0.533311      5.013781      0.107885
  H       0.155172      5.682281      1.530591
  O       2.034623      0.473226      0.332788
  N      -0.228851      0.313103      0.228135
  N      -2.551650      0.328398      0.221544
  N       1.144555     -1.389670     -0.720852
  C      -1.390093     -0.284155     -0.141443
  C      -1.291858     -1.489132     -0.833266
  C       1.074534     -0.191895     -0.047774
  C       0.008773     -1.968840     -1.075471
  H      -0.266055      1.217494      0.693543
  H      -2.171860     -2.030770     -1.157719
  H       0.115544     -2.913335     -1.611603
  H      -3.409041      0.003978     -0.197011
  H      -2.516716      1.293027      0.535519
21
Coordinates from ORCA-job urea_cytosine_opt_freq E -619.917588346133
  O      -1.332339      2.909636      1.127309
  N      -0.571774      3.788796      3.085425
  N      -0.504846      5.033883      1.117773
  C      -0.810883      3.853287      1.741246
  H      -0.029603      4.480399      3.579480
  H      -0.687375      2.885475      3.518803
  H      -0.545834      5.013488      0.109611
  H       0.136541      5.693476      1.531911
  O       2.036554      0.459788      0.342501
  N      -0.227250      0.311450      0.225971
  N      -2.549949      0.328746      0.218305
  N       1.143050     -1.396974     -0.717984
  C      -1.389887     -0.285273     -0.145337
  C      -1.293444     -1.488569     -0.839842
  C       1.074821     -0.199684     -0.043667
  C       0.006994     -1.971785     -1.078060
  H      -0.264929      1.216073      0.690707
  H      -2.173425     -2.029457     -1.165442
  H       0.111031     -2.915794     -1.615680
  H      -3.407178      0.005623     -0.201750
  H      -2.512785      1.293888      0.532124
21
Coordinates from ORCA-job urea_cytosine_opt_freq E -619.917612606955
  O      -1.318494      2.901907      1.136802
  N      -0.565854      3.797012      3.091980
  N      -0.512783      5.032796      1.118561
  C      -0.806191      3.853314      1.747184
  H      -0.026841      4.496000      3.577859
  H      -0.668211      2.893998      3.529604
  H      -0.558489      5.010519      0.110889
  H       0.112056      5.708559      1.531275
  O       2.037505      0.445174      0.353217
  N      -0.226301      0.308977      0.223053
  N      -2.549083      0.330453      0.211897
  N       1.141658     -1.404758     -0.715849
  C      -1.389819     -0.285808     -0.150803
  C      -1.294492     -1.488794     -0.845589
  C       1.074300     -0.208347     -0.039587
  C       0.005544     -1.975476     -1.080331
  H      -0.263585      1.213691      0.687144
  H      -2.174786     -2.028388     -1.172388
  H       0.107217     -2.919242     -1.618934
  H      -3.406583      0.010059     -0.209664
  H      -2.509279      1.294827      0.527084
21
Coordinates from ORCA-job urea_cytosine_opt_freq E -619.917653174056
  O      -1.300084      2.888137      1.153983
  N      -0.555627      3.807548      3.101724
  N      -0.524069      5.028596      1.118167
  C      -0.799482      3.851027      1.756630
  H      -0.019604      4.515160      3.577471
  H      -0.641136      2.905608      3.544903
  H      -0.577418      5.002524      0.111097
  H       0.073461      5.729976      1.528230
  O       2.038665      0.426809      0.366803
  N      -0.224948      0.306344      0.218580
  N      -2.547941      0.335375      0.200500
  N       1.139660     -1.415054     -0.712375
  C      -1.389346     -0.285029     -0.159143
  C      -1.295907     -1.488912     -0.851959
  C       1.073672     -0.219208     -0.034223
  C       0.003280     -1.980720     -1.081877
  H      -0.261081      1.211318      0.682358
  H      -2.177150     -2.025712     -1.180821
  H       0.102624     -2.924773     -1.620543
  H      -3.405658      0.019459     -0.223795
  H      -2.504422      1.297997      0.517696
21
Coordinates from ORCA-job urea_cytosine_opt_freq E -619.917680090774
  O      -1.285035      2.874543      1.174882
  N      -0.542577      3.816891      3.111874
  N      -0.538475      5.024811      1.118914
  C      -0.794477      3.848629      1.767735
  H      -0.006037      4.530631      3.577260
  H      -0.613607      2.915845      3.559492
  H      -0.600982      4.994803      0.112547
  H       0.031676      5.750658      1.525172
  O       2.040102      0.410001      0.377244
  N      -0.223057      0.303804      0.212222
  N      -2.545904      0.343673      0.184773
  N       1.137825     -1.426941     -0.707299
  C      -1.388226     -0.282986     -0.168705
  C      -1.297134     -1.489863     -0.856249
  C       1.073709     -0.230054     -0.030055
  C       0.000643     -1.987987     -1.080324
  H      -0.257133      1.209242      0.675413
  H      -2.179785     -2.023068     -1.187302
  H       0.098411     -2.933552     -1.616651
  H      -3.403853      0.033473     -0.243023
  H      -2.498595      1.303918      0.505484
21
Coordinates from ORCA-job urea_cytosine_opt_freq E -619.917720127938
  O      -1.278298      2.862996      1.195807
  N      -0.528363      3.822882      3.120539
  N      -0.554130      5.020863      1.121095
  C      -0.792902      3.845379      1.778631
  H       0.012840      4.539562      3.576270
  H      -0.588705      2.922877      3.571551
  H      -0.628187      4.988835      0.115594
  H      -0.005956      5.765508      1.523525
  O       2.042623      0.397946      0.381930
  N      -0.220173      0.302710      0.204873
  N      -2.542668      0.354737      0.166337
  N       1.136243     -1.438840     -0.700189
  C      -1.386139     -0.279481     -0.178150
  C      -1.298380     -1.491136     -0.857699
  C       1.075138     -0.238768     -0.027832
  C      -0.002379     -1.996337     -1.074909
  H      -0.251822      1.208966      0.667182
  H      -2.182811     -2.020422     -1.190430
  H       0.094501     -2.944897     -1.606044
  H      -3.400469      0.050189     -0.265593
  H      -2.492474      1.312903      0.490916
21
Coordinates from ORCA-job urea_cytosine_opt_freq E -619.917744728888
  O      -1.279496      2.854660      1.216498
  N      -0.512615      3.826335      3.128150
  N      -0.573294      5.018674      1.126312
  C      -0.795186      3.842644      1.789884
  H       0.037514      4.543644      3.573066
  H      -0.564378      2.927067      3.581805
  H      -0.661040      4.986813      0.121967
  H      -0.038652      5.775107      1.524815
  O       2.046454      0.388961      0.381265
  N      -0.216123      0.302702      0.195914
  N      -2.537972      0.368136      0.143889
  N       1.134828     -1.451998     -0.690577
  C      -1.383005     -0.274947     -0.188277
  C      -1.299655     -1.493262     -0.856957
  C       1.077969     -0.246604     -0.027553
  C      -0.005817     -2.006691     -1.065452
  H      -0.245012      1.210166      0.656542
  H      -2.186152     -2.018713     -1.190312
  H       0.090125     -2.959830     -1.588382
  H      -3.395225      0.069077     -0.292799
  H      -2.485779      1.324527      0.473605
21
Coordinates from ORCA-job urea_cytosine_opt_freq E -619.917764089278
  O      -1.286637      2.851749      1.228567
  N      -0.503818      3.827367      3.132309
  N      -0.586559      5.017952      1.131200
  C      -0.799624      3.841028      1.796873
  H       0.053146      4.544690      3.569936
  H      -0.549897      2.928499      3.587526
  H      -0.681756      4.986217      0.127571
  H      -0.047556      5.773318      1.525821
  O       2.049064      0.387672      0.376899
  N      -0.213596      0.304108      0.190292
  N      -2.535162      0.376249      0.128398
  N       1.134268     -1.458751     -0.683758
  C      -1.380873     -0.271808     -0.194399
  C      -1.300315     -1.494895     -0.855447
  C       1.080274     -0.249175     -0.028909
  C      -0.007625     -2.012927     -1.057840
  H      -0.241168      1.212441      0.649672
  H      -2.187958     -2.018809     -1.188075
  H       0.087863     -2.969607     -1.574251
  H      -3.391530      0.079321     -0.311412
  H      -2.483050      1.331831      0.462430
21
Coordinates from ORCA-job urea_cytosine_opt_freq E -619.917784789577
  O      -1.295698      2.852204      1.235770
  N      -0.499377      3.827566      3.135002
  N      -0.596712      5.018815      1.135880
  C      -0.804493      3.840697      1.801581
  H       0.062205      4.545353      3.566642
  H      -0.539967      2.928752      3.591180
  H      -0.693924      4.985658      0.132508
  H      -0.041393      5.765086      1.525196
  O       2.050004      0.390122      0.372509
  N      -0.212738      0.306250      0.186872
  N      -2.534250      0.380349      0.117403
  N       1.134329     -1.461220     -0.679089
  C      -1.379846     -0.269759     -0.198399
  C      -1.300256     -1.496129     -0.854312
  C       1.081451     -0.248838     -0.030490
  C      -0.007914     -2.016214     -1.052294
  H      -0.239871      1.215170      0.645224
  H      -2.188245     -2.020285     -1.185458
  H       0.087264     -2.975436     -1.563981
  H      -3.389646      0.083144     -0.324041
  H      -2.483434      1.335185      0.455703
21
Coordinates from ORCA-job urea_cytosine_opt_freq E -619.917794318680
  O      -1.300994      2.852861      1.237998
  N      -0.499429      3.827557      3.136232
  N      -0.600113      5.018794      1.137468
  C      -0.806977      3.840309      1.803252
  H       0.062761      4.546672      3.565022
  H      -0.535550      2.928892      3.593157
  H      -0.694749      4.982289      0.133881
  H      -0.028617      5.755550      1.521771
  O       2.048752      0.394403      0.371473
  N      -0.213947      0.308596      0.186420
  N      -2.535581      0.380146      0.113750
  N       1.134669     -1.458988     -0.677633
  C      -1.380313     -0.268920     -0.199618
  C      -1.299759     -1.496011     -0.854384
  C       1.080843     -0.246094     -0.030812
  C      -0.006946     -2.015385     -1.050857
  H      -0.241353      1.217647      0.644602
  H      -2.187289     -2.021508     -1.184527
  H       0.088454     -2.975296     -1.561225
  H      -3.390161      0.080797     -0.327725
  H      -2.486212      1.334160      0.455160
21
Coordinates from ORCA-job urea_cytosine_opt_freq E -619.917794439487
  O      -1.304736      2.853535      1.238567
  N      -0.499683      3.826543      3.136509
  N      -0.600479      5.018322      1.137764
  C      -0.808043      3.839776      1.803677
  H       0.062809      4.546264      3.563370
  H      -0.533002      2.928071      3.593955
  H      -0.694086      4.979563      0.134057
  H      -0.019066      5.749370      1.518395
  O       2.046980      0.397554      0.373015
  N      -0.215514      0.310882      0.186390
  N      -2.537179      0.379423      0.112343
  N       1.134969     -1.456249     -0.676664
  C      -1.381058     -0.268205     -0.200255
  C      -1.299127     -1.495330     -0.854707
  C       1.079624     -0.243491     -0.029953
  C      -0.005767     -2.013724     -1.050391
  H      -0.242998      1.220036      0.644451
  H      -2.186020     -2.022159     -1.184400
  H       0.089951     -2.973728     -1.560550
  H      -3.391251      0.077707     -0.328374
  H      -2.488837      1.332311      0.456204
21
Coordinates from ORCA-job urea_cytosine_opt_freq E -619.917792690388
  O      -1.305988      2.852532      1.239690
  N      -0.499039      3.825702      3.136788
  N      -0.599824      5.016593      1.137103
  C      -0.807879      3.838530      1.804057
  H       0.063729      4.545889      3.562198
  H      -0.530127      2.927554      3.594956
  H      -0.694114      4.976105      0.133440
  H      -0.014809      5.746322      1.514960
  O       2.045033      0.399564      0.376246
  N      -0.217121      0.313009      0.186025
  N      -2.538832      0.379258      0.111038
  N       1.135098     -1.453947     -0.675373
  C      -1.381974     -0.267285     -0.201141
  C      -1.298651     -1.494295     -0.855351
  C       1.078179     -0.241372     -0.028311
  C      -0.004805     -2.011998     -1.050156
  H      -0.244379      1.222195      0.644068
  H      -2.184847     -2.022144     -1.185310
  H       0.091470     -2.971963     -1.560316
  H      -3.392521      0.075472     -0.328858
  H      -2.491110      1.330751      0.457650
21
Coordinates from ORCA-job urea_cytosine_opt_freq E -619.917791944898
  O      -1.307692      2.851937      1.241295
  N      -0.497271      3.824674      3.136841
  N      -0.599297      5.015246      1.136723
  C      -0.807689      3.837600      1.804541
  H       0.066920      4.544262      3.561044
  H      -0.527445      2.926740      3.595425
  H      -0.696213      4.974340      0.133286
  H      -0.013458      5.745410      1.512525
  O       2.043452      0.400708      0.379446
  N      -0.218296      0.314694      0.185124
  N      -2.540052      0.379761      0.108952
  N       1.135237     -1.452780     -0.673516
  C      -1.382688     -0.266377     -0.202354
  C      -1.298207     -1.493570     -0.855792
  C       1.077011     -0.240008     -0.026579
  C      -0.004038     -2.011092     -1.049317
  H      -0.245049      1.224029      0.642961
  H      -2.183769     -2.022076     -1.186445
  H       0.092897     -2.971176     -1.559130
  H      -3.393644      0.074280     -0.329829
  H      -2.493219      1.329868      0.458202
21
Coordinates from ORCA-job urea_cytosine_opt_freq E -619.917798146608
  O      -1.309154      2.850946      1.243319
  N      -0.494568      3.823669      3.136799
  N      -0.599046      5.013691      1.136334
  C      -0.807386      3.836513      1.805116
  H       0.071832      4.542189      3.560002
  H      -0.524288      2.925893      3.595740
  H      -0.699033      4.972598      0.133189
  H      -0.013327      5.744896      1.510283
  O       2.041593      0.402090      0.383162
  N      -0.219609      0.316436      0.183834
  N      -2.541433      0.380565      0.105999
  N       1.135455     -1.451811     -0.670909
  C      -1.383593     -0.265343     -0.203857
  C      -1.297740     -1.492841     -0.856362
  C       1.075778     -0.238579     -0.024521
  C      -0.003236     -2.010282     -1.048059
  H      -0.245652      1.225982      0.641347
  H      -2.182541     -2.021942     -1.188163
  H       0.094709     -2.970599     -1.557236
  H      -3.395103      0.073138     -0.331154
  H      -2.496169      1.329263      0.458539
21
Coordinates from ORCA-job urea_cytosine_opt_freq E -619.917801101377
  O      -1.312256      2.851320      1.245558
  N      -0.490370      3.822419      3.136416
  N      -0.599577      5.013271      1.136776
  C      -0.807479      3.836169      1.805818
  H       0.079977      4.538618      3.558420
  H      -0.520429      2.924648      3.595375
  H      -0.704126      4.973347      0.134072
  H      -0.014293      5.745420      1.509449
  O       2.039838      0.402956      0.387199
  N      -0.220700      0.317964      0.182006
  N      -2.542601      0.381634      0.101479
  N       1.135804     -1.451909     -0.667161
  C      -1.384376     -0.264415     -0.205818
  C      -1.297124     -1.492515     -0.857035
  C       1.074774     -0.237809     -0.022141
  C      -0.002391     -2.010314     -1.045959
  H      -0.245834      1.227998      0.638734
  H      -2.181149     -2.022020     -1.190291
  H       0.096658     -2.971080     -1.554051
  H      -3.396704      0.071756     -0.332980
  H      -2.500153      1.329014      0.457537
21
Coordinates from ORCA-job urea_cytosine_opt_freq E -619.917809374280
  O      -1.314908      2.851720      1.246696
  N      -0.485950      3.820942      3.135597
  N      -0.600758      5.013165      1.137434
  C      -0.807672      3.835801      1.806080
  H       0.088677      4.534758      3.556455
  H      -0.516403      2.923046      3.594409
  H      -0.708717      4.974869      0.135084
  H      -0.016054      5.745729      1.510044
  O       2.038162      0.403880      0.391345
  N      -0.221725      0.319467      0.180389
  N      -2.543679      0.382653      0.096803
  N       1.136218     -1.452092     -0.663104
  C      -1.385127     -0.263485     -0.207455
  C      -1.296473     -1.492166     -0.857752
  C       1.074036     -0.237207     -0.019712
  C      -0.001595     -2.010351     -1.043695
  H      -0.246087      1.230084      0.636012
  H      -2.179871     -2.021983     -1.192179
  H       0.098435     -2.971574     -1.550703
  H      -3.398394      0.069960     -0.334382
  H      -2.504627      1.329253      0.456038
21
Coordinates from ORCA-job urea_cytosine_opt_freq E -619.917811381514
  O      -1.316480      2.853322      1.246814
  N      -0.483325      3.820767      3.135087
  N      -0.601914      5.014580      1.138426
  C      -0.807853      3.836688      1.806202
  H       0.093823      4.533046      3.555267
  H      -0.513752      2.922598      3.593477
  H      -0.711305      4.977973      0.136226
  H      -0.017792      5.746976      1.512170
  O       2.037579      0.403275      0.393598
  N      -0.222043      0.319514      0.179847
  N      -2.544002      0.382662      0.093862
  N       1.136451     -1.453056     -0.660976
  C      -1.385320     -0.263603     -0.208203
  C      -1.296056     -1.492489     -0.858520
  C       1.073987     -0.237984     -0.018426
  C      -0.001230     -2.011052     -1.042713
  H      -0.246267      1.230614      0.634531
  H      -2.179365     -2.022203     -1.193343
  H       0.099025     -2.972427     -1.549384
  H      -3.399326      0.068036     -0.334690
  H      -2.507348      1.329233      0.454151
21
Coordinates from ORCA-job urea_cytosine_opt_freq E -619.917813912662
  O      -1.317236      2.854222      1.245829
  N      -0.481359      3.819955      3.134307
  N      -0.603201      5.015566      1.139186
  C      -0.807950      3.836961      1.805809
  H       0.097700      4.531253      3.553703
  H      -0.511364      2.921438      3.592111
  H      -0.712854      4.980595      0.137015
  H      -0.019798      5.747625      1.514635
  O       2.037142      0.402912      0.395647
  N      -0.222339      0.319760      0.179913
  N      -2.544180      0.382959      0.091606
  N       1.136617     -1.453453     -0.659302
  C      -1.385418     -0.263460     -0.208433
  C      -1.295670     -1.492536     -0.858878
  C       1.074037     -0.238520     -0.017271
  C      -0.000943     -2.011345     -1.041843
  H      -0.246699      1.231317      0.633550
  H      -2.179106     -2.022147     -1.193506
  H       0.099224     -2.972805     -1.548377
  H      -3.400003      0.066414     -0.334534
  H      -2.509112      1.329760      0.452237
21
Coordinates from ORCA-job urea_cytosine_opt_freq E -619.917816025621
  O      -1.317481      2.854988      1.245338
  N      -0.479667      3.819607      3.133920
  N      -0.604458      5.016584      1.139920
  C      -0.807860      3.837352      1.805714
  H       0.100658      4.530331      3.552398
  H      -0.508353      2.920609      3.590923
  H      -0.714389      4.982958      0.137763
  H      -0.021836      5.748555      1.516751
  O       2.036738      0.402276      0.397570
  N      -0.222692      0.319693      0.180403
  N      -2.544346      0.383283      0.089220
  N       1.136654     -1.453825     -0.658032
  C      -1.385494     -0.263514     -0.208710
  C      -1.295344     -1.492732     -0.859288
  C       1.074017     -0.239215     -0.016181
  C      -0.000703     -2.011736     -1.041259
  H      -0.247491      1.231708      0.633020
  H      -2.178980     -2.022137     -1.193722
  H       0.099278     -2.973204     -1.547816
  H      -3.400614      0.064725     -0.334466
  H      -2.510148      1.330163      0.449937
21
Coordinates from ORCA-job urea_cytosine_opt_freq E -619.917822495678
  O      -1.318584      2.855477      1.244683
  N      -0.476023      3.817528      3.132938
  N      -0.606830      5.017421      1.141104
  C      -0.807795      3.837046      1.805451
  H       0.107238      4.526870      3.549423
  H      -0.502274      2.917456      3.588020
  H      -0.718564      4.986318      0.139107
  H      -0.025312      5.749449      1.519520
  O       2.035605      0.402396      0.401313
  N      -0.223655      0.320317      0.181296
  N      -2.544776      0.385111      0.084045
  N       1.136728     -1.453744     -0.654945
  C      -1.385817     -0.262870     -0.209501
  C      -1.294721     -1.492712     -0.859350
  C       1.073604     -0.239383     -0.013766
  C      -0.000099     -2.012013     -1.039235
  H      -0.249278      1.233256      0.631839
  H      -2.178495     -2.021913     -1.193777
  H       0.099834     -2.973745     -1.545313
  H      -3.401785      0.062466     -0.334868
  H      -2.511511      1.331740      0.445419
