21
Coordinates from ORCA-job urea_cytosine_opt_freq E -619.917822495678
  O          -1.31858412170170      2.85547727996923      1.24468317801012
  N          -0.47602347399070      3.81752766274870      3.13293775143779
  N          -0.60682978705489      5.01742095966815      1.14110411104512
  C          -0.80779521804154      3.83704593113190      1.80545066685743
  H           0.10723825143381      4.52687023396292      3.54942325875563
  H          -0.50227382659329      2.91745575563623      3.58801996878286
  H          -0.71856384590131      4.98631780473788      0.13910738175507
  H          -0.02531234507746      5.74944925438009      1.51952029379699
  O           2.03560515192114      0.40239628916524      0.40131315119234
  N          -0.22365536601673      0.32031698544345      0.18129635245285
  N          -2.54477567392659      0.38511068988703      0.08404475012519
  N           1.13672782874706     -1.45374363866040     -0.65494480478403
  C          -1.38581678395099     -0.26286985175227     -0.20950100348820
  C          -1.29472062661130     -1.49271159641847     -0.85934963070165
  C           1.07360413807324     -0.23938251698742     -0.01376633963676
  C          -0.00009944708681     -2.01201308253600     -1.03923490253817
  H          -0.24927772724847      1.23325557248585      0.63183862923373
  H          -2.17849544105029     -2.02191328507139     -1.19377679913162
  H           0.09983353317153     -2.97374495579075     -1.54531316068745
  H          -3.40178514634869      0.06246550787460     -0.33486827466851
  H          -2.51151107274599      1.33174000012537      0.44541942219124
