15
Coordinates from ORCA-job adenine_opt_freq E -467.065228824756
  N      -1.199000     -1.399700      0.000000
  N      -2.075200      0.649900      0.000000
  N       0.033700      1.859400     -0.000100
  N       1.999800      0.415000      0.000000
  N       1.824100     -1.976000      0.000000
  C      -0.135900     -0.542100      0.000100
  C      -0.705600      0.724100      0.000100
  C       1.235900     -0.700400      0.000000
  C      -2.338600     -0.639400      0.000000
  C       1.360700      1.609200      0.000000
  H      -1.156600     -2.410300     -0.000200
  H      -3.322500     -1.086400     -0.000100
  H       2.003400      2.483100     -0.000100
  H       2.832200     -2.052800      0.000300
  H       1.250300     -2.808200      0.000400
15
Coordinates from ORCA-job adenine_opt_freq E -467.069268294813
  N      -1.236748     -1.420546     -0.000005
  N      -2.080442      0.662050      0.000027
  N       0.051356      1.845370     -0.000001
  N       1.992215      0.389611     -0.000033
  N       1.858506     -1.946626     -0.000038
  C      -0.150817     -0.564146      0.000062
  C      -0.703613      0.725542      0.000045
  C       1.237811     -0.717124      0.000015
  C      -2.358280     -0.624738     -0.000059
  C       1.362323      1.585132     -0.000060
  H      -1.222287     -2.429354     -0.000148
  H      -3.352418     -1.051413     -0.000113
  H       2.015997      2.453303     -0.000048
  H       2.865390     -1.983629      0.000273
  H       1.327709     -2.798031      0.000481
15
Coordinates from ORCA-job adenine_opt_freq E -467.069853248137
  N      -1.259510     -1.429179     -0.000037
  N      -2.083270      0.667580     -0.000037
  N       0.059634      1.835131      0.000031
  N       1.986062      0.379058     -0.000027
  N       1.879221     -1.934230     -0.000108
  C      -0.161125     -0.578274      0.000010
  C      -0.701993      0.722798      0.000021
  C       1.237107     -0.728757     -0.000023
  C      -2.368520     -0.613755     -0.000025
  C       1.363073      1.576878      0.000032
  H      -1.264920     -2.437661     -0.000175
  H      -3.368601     -1.027777     -0.000058
  H       2.023192      2.441606     -0.000071
  H       2.887441     -1.941908      0.000278
  H       1.378910     -2.806109      0.000588
15
Coordinates from ORCA-job adenine_opt_freq E -467.069898811536
  N      -1.263543     -1.429176     -0.000047
  N      -2.084011      0.668548      0.000052
  N       0.059384      1.833240      0.000028
  N       1.984264      0.378623     -0.000064
  N       1.883181     -1.935100     -0.000162
  C      -0.163274     -0.580623     -0.000010
  C      -0.701550      0.721727      0.000018
  C       1.236139     -0.731124     -0.000036
  C      -2.370474     -0.611058     -0.000048
  C       1.362974      1.577333     -0.000072
  H      -1.274115     -2.437575     -0.000192
  H      -3.371622     -1.023067     -0.000075
  H       2.024919      2.440522      0.000022
  H       2.891521     -1.934551      0.000298
  H       1.392907     -2.812320      0.000687
15
Coordinates from ORCA-job adenine_opt_freq E -467.069913968842
  N      -1.265027     -1.428524     -0.000098
  N      -2.084337      0.669220      0.000026
  N       0.058599      1.832229      0.000086
  N       1.982873      0.378186     -0.000070
  N       1.884234     -1.935827     -0.000293
  C      -0.164339     -0.581639     -0.000050
  C      -0.700998      0.721067      0.000054
  C       1.234763     -0.732233     -0.000104
  C      -2.371343     -0.609589     -0.000006
  C       1.362937      1.577537      0.000075
  H      -1.279135     -2.436929     -0.000299
  H      -3.372829     -1.021024     -0.000037
  H       2.026728      2.439007     -0.000108
  H       2.892738     -1.928575      0.000346
  H       1.401837     -2.817508      0.000876
15
Coordinates from ORCA-job adenine_opt_freq E -467.069917643509
  N      -1.264793     -1.428307     -0.000128
  N      -2.084332      0.669396      0.000185
  N       0.058466      1.832309      0.000095
  N       1.982688      0.377912     -0.000157
  N       1.883666     -1.935881     -0.000398
  C      -0.164390     -0.581581     -0.000076
  C      -0.700853      0.721114      0.000075
  C       1.234227     -0.732250     -0.000135
  C      -2.371361     -0.609570     -0.000030
  C       1.363006      1.577336     -0.000148
  H      -1.279485     -2.436714     -0.000373
  H      -3.372703     -1.021283     -0.000055
  H       2.027320      2.438363      0.000066
  H       2.892218     -1.926966      0.000405
  H       1.403027     -2.818477      0.001075
15
Coordinates from ORCA-job adenine_opt_freq E -467.069916689941
  N      -1.264542     -1.428236     -0.000149
  N      -2.084318      0.669465      0.000061
  N       0.058516      1.832486      0.000141
  N       1.982773      0.377755     -0.000126
  N       1.883244     -1.935879     -0.000602
  C      -0.164346     -0.581434     -0.000101
  C      -0.700871      0.721244      0.000074
  C       1.234035     -0.732191     -0.000217
  C      -2.371313     -0.609672      0.000024
  C       1.363063      1.577136      0.000162
  H      -1.279339     -2.436643     -0.000435
  H      -3.372519     -1.021642      0.000000
  H       2.027471      2.438109     -0.000130
  H       2.891806     -1.926395      0.000431
  H       1.403040     -2.818703      0.001266
