15
Coordinates from ORCA-job adenine_opt_freq E -467.069916689941
  N          -1.26454210810285     -1.42823569949782     -0.00014898918247
  N          -2.08431758366582      0.66946508387058      0.00006114906846
  N           0.05851609540493      1.83248558003406      0.00014144467037
  N           1.98277262701572      0.37775513497354     -0.00012630251058
  N           1.88324395588986     -1.93587888774269     -0.00060167669288
  C          -0.16434574752764     -0.58143365370642     -0.00010111204620
  C          -0.70087068399830      0.72124389752280      0.00007433577755
  C           1.23403477811460     -0.73219119802539     -0.00021655003031
  C          -2.37131339740835     -0.60967199640846      0.00002424968882
  C           1.36306306722749      1.57713574948329      0.00016181624576
  H          -1.27933907131510     -2.43664305649223     -0.00043525387792
  H          -3.37251928512814     -1.02164201368839      0.00000011509492
  H           2.02747077797495      2.43810894692146     -0.00012965931829
  H           2.89180636898792     -1.92639522549047      0.00043079855986
  H           1.40304020653072     -2.81870266175385      0.00126563455292
