27
Coordinates from ORCA-job biuret_adenine_opt_freq E -860.426853392754
  N       5.468355     -0.033034      1.500795
  C       4.507871     -0.970636      1.500793
  O       4.824056     -2.158403      1.500787
  N       3.187773     -0.609170      1.500797
  C       2.386031      0.500122      1.500803
  O       1.162846      0.379373      1.500804
  N       2.926940      1.728555      1.500807
  H       6.420357     -0.377368      1.500792
  H       5.338488      0.956661      1.500800
  H       2.611440     -1.440635      1.500794
  H       3.899265      1.954261      1.500807
  H       2.270418      2.499173      1.500812
  N      -1.199000     -1.399700      0.000000
  N      -2.075200      0.649900      0.000000
  N       0.033700      1.859400     -0.000100
  N       1.999800      0.415000      0.000000
  N       1.824100     -1.976000      0.000000
  C      -0.135900     -0.542100      0.000100
  C      -0.705600      0.724100      0.000100
  C       1.235900     -0.700400      0.000000
  C      -2.338600     -0.639400      0.000000
  C       1.360700      1.609200      0.000000
  H      -1.156600     -2.410300     -0.000200
  H      -3.322500     -1.086400     -0.000100
  H       2.003400      2.483100     -0.000100
  H       2.832200     -2.052800      0.000300
  H       1.250300     -2.808200      0.000400
27
Coordinates from ORCA-job biuret_adenine_opt_freq E -860.517952935065
  N       5.521156     -0.056199      1.523389
  C       4.535032     -0.979781      1.508403
  O       4.820039     -2.179243      1.489225
  N       3.217745     -0.597969      1.510491
  C       2.409435      0.524947      1.519009
  O       1.159155      0.397163      1.528705
  N       2.993588      1.759751      1.558373
  H       6.464516     -0.419795      1.519120
  H       5.411339      0.937506      1.538311
  H       2.622834     -1.411574      1.494036
  H       3.974028      1.956345      1.569376
  H       2.366830      2.547006      1.595310
  N      -1.232575     -1.425864      0.001296
  N      -2.119188      0.625410     -0.022395
  N      -0.016336      1.854634     -0.056075
  N       1.975031      0.428146     -0.040685
  N       1.816668     -1.955129     -0.010461
  C      -0.171865     -0.555912     -0.012603
  C      -0.749633      0.712077     -0.029417
  C       1.213624     -0.698031     -0.016643
  C      -2.374839     -0.667705     -0.003028
  C       1.306297      1.621145     -0.057930
  H      -1.187453     -2.435521      0.014032
  H      -3.357026     -1.118950      0.007128
  H       1.928502      2.501826     -0.099727
  H       2.825483     -2.014538     -0.019727
  H       1.258152     -2.795446      0.002478
27
Coordinates from ORCA-job biuret_adenine_opt_freq E -860.583962151133
  N       5.568903     -0.074190      1.537834
  C       4.562035     -0.986741      1.517530
  O       4.819606     -2.194508      1.481027
  N       3.245826     -0.590439      1.528216
  C       2.429528      0.542591      1.543841
  O       1.166399      0.409356      1.576717
  N       3.025691      1.783480      1.598034
  H       6.504841     -0.452939      1.524447
  H       5.474390      0.922369      1.564669
  H       2.633455     -1.391850      1.500517
  H       4.008795      1.970768      1.606269
  H       2.407413      2.575681      1.657048
  N      -1.263800     -1.445575     -0.001565
  N      -2.148386      0.613062     -0.038197
  N      -0.044402      1.847946     -0.094954
  N       1.952200      0.431721     -0.076396
  N       1.814031     -1.937009     -0.021305
  C      -0.200502     -0.569891     -0.024382
  C      -0.778025      0.703409     -0.050828
  C       1.195562     -0.700649     -0.031321
  C      -2.403358     -0.680923     -0.007176
  C       1.268217      1.621987     -0.100454
  H      -1.223766     -2.454507      0.018951
  H      -3.386913     -1.129640      0.010130
  H       1.886187      2.505239     -0.170265
  H       2.823365     -1.977822     -0.040344
  H       1.273246     -2.786626      0.001949
27
Coordinates from ORCA-job biuret_adenine_opt_freq E -860.658494078046
  N       5.607343     -0.082118      1.559924
  C       4.589641     -0.990561      1.529275
  O       4.826064     -2.202043      1.464772
  N       3.274355     -0.585095      1.553658
  C       2.457019      0.558541      1.580659
  O       1.197294      0.427985      1.649359
  N       3.062974      1.795509      1.651108
  H       6.539402     -0.467175      1.532531
  H       5.516921      0.915772      1.607226
  H       2.645528     -1.374997      1.508614
  H       4.050037      1.969709      1.651915
  H       2.454177      2.592152      1.743992
  N      -1.297110     -1.461389     -0.000491
  N      -2.178335      0.603917     -0.051475
  N      -0.072022      1.835014     -0.150220
  N       1.919904      0.427513     -0.132536
  N       1.809424     -1.917347     -0.043681
  C      -0.230564     -0.582416     -0.040958
  C      -0.806553      0.694103     -0.077686
  C       1.172170     -0.703054     -0.058145
  C      -2.432672     -0.688159     -0.003258
  C       1.228760      1.611970     -0.165288
  H      -1.265238     -2.469558      0.031053
  H      -3.418232     -1.132623      0.028188
  H       1.848698      2.492974     -0.276392
  H       2.819195     -1.934598     -0.077703
  H       1.292359     -2.779725     -0.004449
27
Coordinates from ORCA-job biuret_adenine_opt_freq E -860.736218550902
  N       5.646032     -0.086435      1.597639
  C       4.620979     -0.990781      1.544499
  O       4.841998     -2.201043      1.433456
  N       3.304472     -0.577843      1.592205
  C       2.494982      0.577783      1.638961
  O       1.264162      0.456832      1.749107
  N       3.100437      1.806463      1.719716
  H       6.575340     -0.474627      1.548488
  H       5.556508      0.909189      1.682823
  H       2.662064     -1.358725      1.517692
  H       4.088811      1.974032      1.702688
  H       2.494951      2.601646      1.850080
  N      -1.333620     -1.472621      0.003889
  N      -2.213385      0.597496     -0.056991
  N      -0.103902      1.816127     -0.222054
  N       1.873720      0.414089     -0.216836
  N       1.799617     -1.902765     -0.084838
  C      -0.264252     -0.592430     -0.068403
  C      -0.838994      0.684978     -0.110300
  C       1.139650     -0.705023     -0.108514
  C      -2.465352     -0.690756      0.012929
  C       1.189947      1.590179     -0.258028
  H      -1.311220     -2.479915      0.049679
  H      -3.452369     -1.130882      0.069311
  H       1.818467      2.463184     -0.417551
  H       2.808949     -1.893462     -0.136226
  H       1.312546     -2.780392     -0.023430
27
Coordinates from ORCA-job biuret_adenine_opt_freq E -860.786596498476
  N       5.673586     -0.078170      1.644560
  C       4.650630     -0.982592      1.551185
  O       4.871122     -2.184765      1.380491
  N       3.331132     -0.570329      1.630271
  C       2.535645      0.594114      1.706207
  O       1.334575      0.480551      1.838978
  N       3.144287      1.815671      1.782445
  H       6.603650     -0.460151      1.570974
  H       5.577191      0.910352      1.787935
  H       2.684953     -1.346830      1.521404
  H       4.132941      1.979996      1.736175
  H       2.541463      2.609209      1.935174
  N      -1.368086     -1.479096      0.006951
  N      -2.245052      0.595183     -0.057679
  N      -0.133121      1.800411     -0.286221
  N       1.829392      0.395681     -0.299850
  N       1.778962     -1.907354     -0.126550
  C      -0.296306     -0.602172     -0.101033
  C      -0.868186      0.678230     -0.142072
  C       1.104496     -0.713011     -0.167510
  C      -2.495720     -0.689525      0.031340
  C       1.161891      1.567636     -0.346919
  H      -1.354268     -2.485586      0.066608
  H      -3.483269     -1.125225      0.114677
  H       1.798889      2.432160     -0.532300
  H       2.787430     -1.885774     -0.189342
  H       1.312312     -2.794316     -0.045910
27
Coordinates from ORCA-job biuret_adenine_opt_freq E -860.810506583045
  N       5.698365     -0.079972      1.684464
  C       4.672952     -0.975245      1.549558
  O       4.890678     -2.168106      1.325125
  N       3.353534     -0.559951      1.655067
  C       2.571406      0.610219      1.757205
  O       1.369725      0.495653      1.895018
  N       3.185366      1.830765      1.820665
  H       6.627163     -0.460922      1.591269
  H       5.603748      0.897843      1.886996
  H       2.705261     -1.330629      1.522440
  H       4.171701      1.995829      1.745345
  H       2.583282      2.624353      1.978102
  N      -1.393101     -1.485918      0.006207
  N      -2.269792      0.589349     -0.061895
  N      -0.160755      1.791925     -0.326022
  N       1.796093      0.384760     -0.355350
  N       1.760438     -1.914307     -0.149132
  C      -0.321512     -0.612398     -0.124980
  C      -0.892311      0.671248     -0.166409
  C       1.076240     -0.723141     -0.206736
  C      -2.518955     -0.693807      0.039864
  C       1.137730      1.558052     -0.403647
  H      -1.382282     -2.491816      0.075728
  H      -3.505721     -1.127941      0.140620
  H       1.776666      2.420438     -0.593034
  H       2.768647     -1.885486     -0.220267
  H       1.305973     -2.806497     -0.056210
27
Coordinates from ORCA-job biuret_adenine_opt_freq E -860.822901916926
  N       5.712132     -0.079877      1.719308
  C       4.687598     -0.967933      1.544991
  O       4.905008     -2.150769      1.275580
  N       3.368922     -0.552515      1.667843
  C       2.600256      0.620329      1.789162
  O       1.393509      0.506142      1.929217
  N       3.218788      1.838077      1.842272
  H       6.641263     -0.456800      1.613354
  H       5.616277      0.885579      1.975434
  H       2.719619     -1.319216      1.518454
  H       4.203445      2.002627      1.743034
  H       2.618517      2.632456      2.003517
  N      -1.409590     -1.489833      0.007875
  N      -2.286110      0.584775     -0.065295
  N      -0.181472      1.786390     -0.353211
  N       1.774944      0.378014     -0.393329
  N       1.746072     -1.920073     -0.163623
  C      -0.338951     -0.619500     -0.139490
  C      -0.909256      0.665867     -0.183335
  C       1.056513     -0.731862     -0.231280
  C      -2.534835     -0.697539      0.046935
  C       1.119382      1.553267     -0.442231
  H      -1.398673     -2.495211      0.085071
  H      -3.520585     -1.130971      0.159809
  H       1.756624      2.415311     -0.634448
  H       2.753983     -1.888165     -0.242947
  H       1.297157     -2.814269     -0.062677
27
Coordinates from ORCA-job biuret_adenine_opt_freq E -860.837309953062
  N       5.733224     -0.081681      1.793422
  C       4.712209     -0.951936      1.532375
  O       4.931311     -2.111037      1.177858
  N       3.393076     -0.541244      1.677879
  C       2.643395      0.634672      1.828492
  O       1.434145      0.523797      1.972885
  N       3.267683      1.848046      1.863637
  H       6.664430     -0.448906      1.671995
  H       5.631212      0.847084      2.160384
  H       2.743960     -1.302268      1.501028
  H       4.247100      2.011470      1.717602
  H       2.671176      2.644099      2.030887
  N      -1.433333     -1.495077      0.018243
  N      -2.310325      0.578117     -0.065378
  N      -0.212879      1.776604     -0.395378
  N       1.742852      0.367713     -0.453181
  N       1.723417     -1.927088     -0.190199
  C      -0.365001     -0.628767     -0.157665
  C      -0.935454      0.657684     -0.206990
  C       1.027520     -0.743524     -0.268344
  C      -2.557924     -0.702731      0.066334
  C       1.089071      1.543782     -0.503332
  H      -1.420289     -2.499339      0.108980
  H      -3.541513     -1.134877      0.200454
  H       1.722057      2.406391     -0.702432
  H       2.729833     -1.894068     -0.290694
  H       1.279587     -2.822615     -0.078871
27
Coordinates from ORCA-job biuret_adenine_opt_freq E -860.852690650548
  N       5.752166     -0.074616      1.937969
  C       4.759737     -0.909437      1.505026
  O       5.003352     -2.002133      0.993759
  N       3.434948     -0.528527      1.676515
  C       2.706009      0.648397      1.870000
  O       1.497369      0.547530      2.025361
  N       3.345949      1.852957      1.872045
  H       6.694760     -0.407127      1.803971
  H       5.609179      0.736787      2.515348
  H       2.793491     -1.283350      1.453186
  H       4.311020      2.003849      1.632530
  H       2.761142      2.657354      2.041327
  N      -1.469722     -1.499950      0.044134
  N      -2.345144      0.572649     -0.057189
  N      -0.255937      1.762086     -0.453886
  N       1.694436      0.349047     -0.539295
  N       1.684539     -1.941218     -0.232649
  C      -0.404721     -0.640622     -0.177940
  C      -0.974244      0.647221     -0.236283
  C       0.983843     -0.761046     -0.320713
  C      -2.591570     -0.704838      0.106320
  C       1.044542      1.525945     -0.590677
  H      -1.453876     -2.501989      0.156645
  H      -3.571772     -1.132589      0.274541
  H       1.673415      2.388961     -0.799855
  H       2.686121     -1.914969     -0.378152
  H       1.241507     -2.836072     -0.112049
27
Coordinates from ORCA-job biuret_adenine_opt_freq E -860.862828911135
  N       5.741567     -0.031765      2.059649
  C       4.808421     -0.852445      1.485164
  O       5.105288     -1.852105      0.833891
  N       3.472969     -0.531397      1.684737
  C       2.763097      0.647398      1.917102
  O       1.554338      0.567113      2.080819
  N       3.438309      1.832924      1.886609
  H       6.703469     -0.305739      1.927068
  H       5.524536      0.597622      2.818646
  H       2.844378     -1.280694      1.414912
  H       4.380018      1.942437      1.541891
  H       2.875845      2.657245      2.035424
  N      -1.504964     -1.499922      0.070677
  N      -2.374244      0.573959     -0.053655
  N      -0.288692      1.748753     -0.508180
  N       1.650809      0.325089     -0.612488
  N       1.646275     -1.957499     -0.267250
  C      -0.441645     -0.650223     -0.193878
  C      -1.007361      0.639595     -0.264127
  C       0.943076     -0.779551     -0.364710
  C      -2.621895     -0.698655      0.141600
  C       1.008769      1.505129     -0.666485
  H      -1.488555     -2.499156      0.205765
  H      -3.599751     -1.118700      0.340114
  H       1.638816      2.366216     -0.880860
  H       2.638282     -1.940248     -0.472621
  H       1.199387     -2.851085     -0.149823
27
Coordinates from ORCA-job biuret_adenine_opt_freq E -860.867138686686
  N       5.735127      0.013122      2.084059
  C       4.828248     -0.825476      1.484702
  O       5.151907     -1.784617      0.789115
  N       3.485631     -0.541161      1.714350
  C       2.787754      0.646156      1.963306
  O       1.578110      0.585241      2.127743
  N       3.490911      1.816777      1.922127
  H       6.703816     -0.243016      1.959565
  H       5.488731      0.533841      2.914050
  H       2.859496     -1.284040      1.425716
  H       4.411849      1.886144      1.515067
  H       2.940640      2.655462      2.032424
  N      -1.519841     -1.499579      0.083497
  N      -2.388114      0.573312     -0.063559
  N      -0.304227      1.741721     -0.543504
  N       1.630715      0.313524     -0.647208
  N       1.630564     -1.964404     -0.280033
  C      -0.457943     -0.654820     -0.203008
  C      -1.023031      0.634888     -0.285647
  C       0.925244     -0.787948     -0.385545
  C      -2.635159     -0.695861      0.152252
  C       0.992126      1.495710     -0.706131
  H      -1.502204     -2.496477      0.234728
  H      -3.611821     -1.111791      0.364933
  H       1.624289      2.355576     -0.919387
  H       2.609399     -1.949859     -0.540319
  H       1.178325     -2.858130     -0.183301
27
Coordinates from ORCA-job biuret_adenine_opt_freq E -860.870879794592
  N       5.749910      0.044381      2.081922
  C       4.837027     -0.808013      1.495689
  O       5.159971     -1.748125      0.778119
  N       3.493090     -0.538277      1.767617
  C       2.807703      0.664890      2.023490
  O       1.598256      0.624951      2.188294
  N       3.533494      1.824465      1.983246
  H       6.711057     -0.247101      1.968779
  H       5.507770      0.455532      2.973559
  H       2.858594     -1.270255      1.467582
  H       4.423367      1.852810      1.506960
  H       2.980855      2.668078      2.026505
  N      -1.522161     -1.504048      0.098951
  N      -2.403043      0.560700     -0.082981
  N      -0.327997      1.732671     -0.590898
  N       1.612399      0.312224     -0.685681
  N       1.625915     -1.963781     -0.286409
  C      -0.467133     -0.659491     -0.213003
  C      -1.040063      0.625295     -0.314955
  C       0.915244     -0.789680     -0.407311
  C      -2.641247     -0.704920      0.160134
  C       0.968953      1.492514     -0.753865
  H      -1.496780     -2.496996      0.273435
  H      -3.614020     -1.121430      0.388989
  H       1.598803      2.353883     -0.967449
  H       2.579148     -1.949916     -0.627552
  H       1.161427     -2.856061     -0.243176
27
Coordinates from ORCA-job biuret_adenine_opt_freq E -860.873135336134
  N       5.763104      0.069362      2.032522
  C       4.825017     -0.811340      1.515894
  O       5.124168     -1.764145      0.807289
  N       3.490390     -0.533607      1.831683
  C       2.815799      0.682200      2.083144
  O       1.606373      0.660058      2.246178
  N       3.557774      1.834794      2.060930
  H       6.711477     -0.263820      1.913839
  H       5.557319      0.448705      2.949154
  H       2.842344     -1.257197      1.532123
  H       4.426842      1.839356      1.544102
  H       2.996638      2.674712      2.044631
  N      -1.514535     -1.508121      0.106202
  N      -2.408639      0.547870     -0.108020
  N      -0.340720      1.724237     -0.631936
  N       1.607970      0.313466     -0.711110
  N       1.629401     -1.965020     -0.279074
  C      -0.465434     -0.662680     -0.222476
  C      -1.046656      0.616503     -0.342903
  C       0.916884     -0.789893     -0.421685
  C      -2.638398     -0.714830      0.156919
  C       0.957531      1.490813     -0.789593
  H      -1.481676     -2.496760      0.302884
  H      -3.607885     -1.132919      0.396598
  H       1.584977      2.353840     -1.003827
  H       2.556121     -1.953238     -0.688144
  H       1.144356     -2.848046     -0.315330
27
Coordinates from ORCA-job biuret_adenine_opt_freq E -860.874395268443
  N       5.774990      0.068497      1.981818
  C       4.803892     -0.821209      1.530844
  O       5.071221     -1.808734      0.859429
  N       3.485006     -0.522640      1.882760
  C       2.819270      0.699895      2.125789
  O       1.610413      0.690198      2.290994
  N       3.571484      1.849853      2.129442
  H       6.709655     -0.301450      1.854204
  H       5.611081      0.468429      2.899933
  H       2.824285     -1.241278      1.591290
  H       4.429885      1.853067      1.592112
  H       3.002866      2.684976      2.083516
  N      -1.502378     -1.513174      0.111339
  N      -2.411922      0.533730     -0.127042
  N      -0.352084      1.716465     -0.667069
  N       1.606728      0.317329     -0.734770
  N       1.637145     -1.964304     -0.271520
  C      -0.460354     -0.664859     -0.231020
  C      -1.051137      0.608294     -0.365895
  C       0.921396     -0.787614     -0.436065
  C      -2.631709     -0.727036      0.155615
  C       0.947476      1.490519     -0.821392
  H      -1.460710     -2.497059      0.329503
  H      -3.597145     -1.148288      0.405853
  H       1.570838      2.355174     -1.041073
  H       2.544337     -1.951239     -0.726151
  H       1.136012     -2.833242     -0.392454
27
Coordinates from ORCA-job biuret_adenine_opt_freq E -860.875019136281
  N       5.772442      0.070430      1.946476
  C       4.787925     -0.829824      1.544661
  O       5.036114     -1.830108      0.885126
  N       3.480229     -0.520737      1.915121
  C       2.820720      0.701903      2.152087
  O       1.612218      0.701692      2.320462
  N       3.582619      1.848106      2.179626
  H       6.703145     -0.298501      1.791778
  H       5.643996      0.503549      2.855129
  H       2.815797     -1.238692      1.627196
  H       4.439145      1.862589      1.638063
  H       3.015358      2.685076      2.139467
  N      -1.497942     -1.513597      0.110900
  N      -2.412962      0.529694     -0.141168
  N      -0.355195      1.711188     -0.692860
  N       1.607169      0.314689     -0.753311
  N       1.636424     -1.969388     -0.267250
  C      -0.458826     -0.665526     -0.239290
  C      -1.052925      0.605115     -0.383424
  C       0.921589     -0.788883     -0.448639
  C      -2.628884     -0.729458      0.152527
  C       0.944755      1.486533     -0.845479
  H      -1.451738     -2.493271      0.346840
  H      -3.592400     -1.150614      0.410156
  H       1.566733      2.350210     -1.072417
  H       2.544567     -1.958186     -0.724201
  H       1.130467     -2.829692     -0.437585
27
Coordinates from ORCA-job biuret_adenine_opt_freq E -860.875552999396
  N       5.780623      0.047277      1.947042
  C       4.779161     -0.831058      1.545754
  O       5.009120     -1.840343      0.892477
  N       3.479658     -0.510312      1.927682
  C       2.826134      0.711373      2.163562
  O       1.618470      0.717339      2.342207
  N       3.595504      1.854444      2.212356
  H       6.704455     -0.327897      1.771950
  H       5.675301      0.496144      2.850027
  H       2.814491     -1.227798      1.644590
  H       4.446295      1.889896      1.663073
  H       3.030680      2.694016      2.201636
  N      -1.494935     -1.516775      0.113126
  N      -2.421190      0.520942     -0.148301
  N      -0.370227      1.705965     -0.721746
  N       1.598187      0.316397     -0.782575
  N       1.635590     -1.964478     -0.273410
  C      -0.462231     -0.666174     -0.248317
  C      -1.063104      0.600685     -0.399893
  C       0.916157     -0.785906     -0.467403
  C      -2.628911     -0.736998      0.157493
  C       0.929914      1.485064     -0.878840
  H      -1.439837     -2.490679      0.370316
  H      -3.588466     -1.160238      0.426234
  H       1.546583      2.348473     -1.119887
  H       2.554789     -1.949243     -0.709790
  H       1.138329     -2.825817     -0.469373
27
Coordinates from ORCA-job biuret_adenine_opt_freq E -860.876056909260
  N       5.780053      0.032790      1.946672
  C       4.772724     -0.830814      1.545377
  O       4.987559     -1.829097      0.868364
  N       3.477741     -0.507239      1.941998
  C       2.833826      0.715623      2.183408
  O       1.627062      0.731378      2.373350
  N       3.617694      1.849091      2.251090
  H       6.701291     -0.330180      1.739053
  H       5.695110      0.491058      2.845742
  H       2.813260     -1.224200      1.662573
  H       4.460945      1.900360      1.692565
  H       3.062872      2.694669      2.278688
  N      -1.496996     -1.518718      0.112474
  N      -2.430257      0.514425     -0.162763
  N      -0.383585      1.699384     -0.756390
  N       1.588415      0.313751     -0.813016
  N       1.630898     -1.958866     -0.276685
  C      -0.468437     -0.667680     -0.258740
  C      -1.073570      0.596035     -0.421242
  C       0.908737     -0.785752     -0.483566
  C      -2.632601     -0.741186      0.156571
  C       0.916422      1.480052     -0.916937
  H      -1.433786     -2.484760      0.396215
  H      -3.589608     -1.164396      0.434311
  H       1.528009      2.341898     -1.174983
  H       2.567083     -1.936476     -0.673193
  H       1.149678     -2.826850     -0.480944
27
Coordinates from ORCA-job biuret_adenine_opt_freq E -860.876484085439
  N       5.784413      0.006255      1.952536
  C       4.765476     -0.827029      1.533825
  O       4.960399     -1.811767      0.829788
  N       3.474839     -0.499276      1.952708
  C       2.844900      0.729107      2.208797
  O       1.640311      0.754936      2.412505
  N       3.645334      1.850466      2.287710
  H       6.700900     -0.356446      1.725122
  H       5.709643      0.458369      2.854990
  H       2.805312     -1.212356      1.679825
  H       4.475163      1.907899      1.710742
  H       3.101684      2.701602      2.346980
  N      -1.496730     -1.523960      0.113881
  N      -2.442801      0.500684     -0.180304
  N      -0.404853      1.691407     -0.794995
  N       1.575112      0.316801     -0.844527
  N       1.632219     -1.945060     -0.278615
  C      -0.474357     -0.670097     -0.268020
  C      -1.087488      0.587744     -0.444407
  C       0.903355     -0.782401     -0.495695
  C      -2.636377     -0.752050      0.155073
  C       0.895657      1.478065     -0.958932
  H      -1.422146     -2.480132      0.426941
  H      -3.590041     -1.177531      0.440724
  H       1.498599      2.340025     -1.235805
  H       2.581351     -1.908364     -0.639094
  H       1.170667     -2.822590     -0.481761
27
Coordinates from ORCA-job biuret_adenine_opt_freq E -860.876894257095
  N       5.783308     -0.020794      1.944223
  C       4.749219     -0.824629      1.516842
  O       4.916649     -1.789478      0.778121
  N       3.466545     -0.491198      1.968230
  C       2.856767      0.745061      2.248397
  O       1.655213      0.783671      2.465791
  N       3.677800      1.850886      2.333323
  H       6.694321     -0.384371      1.697397
  H       5.717906      0.423654      2.851060
  H       2.784602     -1.195279      1.703515
  H       4.492313      1.903302      1.734323
  H       3.148345      2.709340      2.414477
  N      -1.492145     -1.530055      0.115179
  N      -2.454137      0.482826     -0.206008
  N      -0.426717      1.681994     -0.838627
  N       1.564571      0.323286     -0.871670
  N       1.639919     -1.928721     -0.273197
  C      -0.476316     -0.672343     -0.276598
  C      -1.099432      0.577220     -0.471394
  C       0.903669     -0.777077     -0.501120
  C      -2.637678     -0.766196      0.147645
  C       0.875312      1.477304     -1.001724
  H      -1.405163     -2.474520      0.459340
  H      -3.588241     -1.195297      0.438198
  H       1.468444      2.340024     -1.296771
  H       2.599350     -1.877797     -0.602562
  H       1.196116     -2.816516     -0.466401
27
Coordinates from ORCA-job biuret_adenine_opt_freq E -860.877293386408
  N       5.776651     -0.054141      1.922091
  C       4.718961     -0.822059      1.491685
  O       4.848305     -1.764277      0.716760
  N       3.451928     -0.478657      1.987303
  C       2.869544      0.765237      2.302346
  O       1.672218      0.819856      2.535373
  N       3.714170      1.853219      2.390617
  H       6.678653     -0.425111      1.654699
  H       5.724555      0.377904      2.835809
  H       2.749183     -1.166332      1.731888
  H       4.510934      1.894011      1.766809
  H       3.201193      2.720291      2.487587
  N      -1.479359     -1.537424      0.118703
  N      -2.464104      0.458021     -0.239735
  N      -0.450917      1.669769     -0.891963
  N       1.556971      0.334745     -0.897569
  N       1.655994     -1.907234     -0.260206
  C      -0.472507     -0.673886     -0.285059
  C      -1.109731      0.563487     -0.504083
  C       0.910567     -0.767489     -0.502968
  C      -2.633699     -0.785997      0.137132
  C       0.853916      1.477689     -1.049887
  H      -1.377627     -2.467723      0.496131
  H      -3.580083     -1.221119      0.432356
  H       1.435558      2.341765     -1.363356
  H       2.622723     -1.845388     -0.566441
  H       1.226544     -2.804860     -0.436031
27
Coordinates from ORCA-job biuret_adenine_opt_freq E -860.877682587338
  N       5.762531     -0.087021      1.887313
  C       4.676833     -0.816558      1.459961
  O       4.762509     -1.731218      0.646934
  N       3.432962     -0.463494      2.007343
  C       2.882924      0.783905      2.367471
  O       1.691054      0.857596      2.619080
  N       3.752137      1.853072      2.459615
  H       6.652511     -0.465110      1.591958
  H       5.731288      0.325294      2.811139
  H       2.704570     -1.127747      1.757720
  H       4.531782      1.882119      1.813259
  H       3.257950      2.729224      2.573417
  N      -1.460325     -1.543802      0.125084
  N      -2.471572      0.429261     -0.280789
  N      -0.474000      1.653822     -0.955640
  N       1.553431      0.347521     -0.922978
  N       1.675951     -1.883386     -0.238812
  C      -0.463912     -0.674524     -0.293821
  C      -1.117428      0.547477     -0.542977
  C       0.922103     -0.755489     -0.503477
  C      -2.625082     -0.807879      0.124217
  C       0.834393      1.476225     -1.104259
  H      -1.343728     -2.458173      0.535949
  H      -3.566486     -1.249722      0.425340
  H       1.404602      2.341140     -1.436018
  H       2.648690     -1.819112     -0.527162
  H       1.254852     -2.789120     -0.389876
27
Coordinates from ORCA-job biuret_adenine_opt_freq E -860.878010556856
  N       5.747527     -0.109413      1.853152
  C       4.637935     -0.804922      1.427221
  O       4.688720     -1.690817      0.580055
  N       3.417438     -0.449576      2.020320
  C       2.896827      0.794156      2.429822
  O       1.711132      0.885575      2.702851
  N       3.785784      1.847745      2.527847
  H       6.625649     -0.489261      1.526857
  H       5.739599      0.274028      2.789888
  H       2.666490     -1.088109      1.767294
  H       4.553648      1.872142      1.867015
  H       3.309286      2.730565      2.663542
  N      -1.443080     -1.546556      0.133502
  N      -2.477926      0.403326     -0.322496
  N      -0.493285      1.635854     -1.020975
  N       1.551898      0.356628     -0.946561
  N       1.690493     -1.862423     -0.213428
  C      -0.456044     -0.674287     -0.302277
  C      -1.123998      0.532183     -0.582787
  C       0.931982     -0.744856     -0.504894
  C      -2.617084     -0.825467      0.111965
  C       0.818271      1.470701     -1.159046
  H      -1.315285     -2.446826      0.571426
  H      -3.553800     -1.272127      0.420532
  H       1.379639      2.334988     -1.507235
  H       2.668819     -1.806259     -0.487399
  H       1.269907     -2.772693     -0.336199
27
Coordinates from ORCA-job biuret_adenine_opt_freq E -860.878342690952
  N       5.744860     -0.107628      1.840606
  C       4.628246     -0.791575      1.407483
  O       4.675840     -1.662309      0.544663
  N       3.416723     -0.443827      2.015537
  C       2.909308      0.789261      2.464736
  O       1.728466      0.888188      2.757652
  N       3.803648      1.838395      2.568346
  H       6.618836     -0.483074      1.498454
  H       5.747870      0.247200      2.788675
  H       2.656057     -1.063440      1.745335
  H       4.571011      1.867646      1.907281
  H       3.335376      2.722007      2.724075
  N      -1.439052     -1.543313      0.142032
  N      -2.485436      0.391652     -0.349876
  N      -0.505931      1.623212     -1.066178
  N       1.548979      0.358414     -0.960713
  N       1.689121     -1.852735     -0.194505
  C      -0.456593     -0.672817     -0.307471
  C      -1.131641      0.524138     -0.609969
  C       0.931820     -0.739925     -0.507469
  C      -2.617696     -0.830569      0.105040
  C       0.807175      1.463224     -1.196666
  H      -1.308540     -2.438860      0.588666
  H      -3.551862     -1.277740      0.420509
  H       1.366025      2.325502     -1.553870
  H       2.669281     -1.815159     -0.467980
  H       1.258650     -2.761567     -0.294401
27
Coordinates from ORCA-job biuret_adenine_opt_freq E -860.878734337626
  N       5.749333     -0.112827      1.834543
  C       4.624835     -0.784915      1.396538
  O       4.671021     -1.648780      0.526761
  N       3.418248     -0.434241      2.002072
  C       2.926056      0.786855      2.493972
  O       1.751935      0.887430      2.815015
  N       3.820615      1.834579      2.606369
  H       6.615581     -0.492435      1.477283
  H       5.770824      0.214280      2.792212
  H       2.650043     -1.032734      1.708418
  H       4.593925      1.879757      1.954033
  H       3.358870      2.714657      2.794968
  N      -1.438101     -1.539579      0.154846
  N      -2.499174      0.375942     -0.380512
  N      -0.525806      1.607670     -1.117361
  N       1.539602      0.361971     -0.976276
  N       1.690660     -1.833345     -0.174291
  C      -0.462043     -0.671520     -0.311882
  C      -1.146173      0.513747     -0.640767
  C       0.926156     -0.731810     -0.511315
  C      -2.622421     -0.838042      0.098886
  C       0.788644      1.454994     -1.239816
  H      -1.305846     -2.432697      0.605510
  H      -3.553114     -1.285661      0.423817
  H       1.344516      2.314384     -1.608460
  H       2.668003     -1.811583     -0.460808
  H       1.254351     -2.741796     -0.253763
27
Coordinates from ORCA-job biuret_adenine_opt_freq E -860.879042574880
  N       5.759027     -0.113396      1.835820
  C       4.632121     -0.777124      1.389990
  O       4.680312     -1.638750      0.517069
  N       3.424587     -0.424540      1.987089
  C       2.948689      0.784952      2.518966
  O       1.782553      0.882853      2.870913
  N       3.846208      1.827008      2.638315
  H       6.619761     -0.499344      1.471346
  H       5.791939      0.194694      2.799487
  H       2.652802     -1.008619      1.672379
  H       4.622694      1.887246      1.991752
  H       3.393997      2.702609      2.864677
  N      -1.445809     -1.536361      0.163079
  N      -2.518277      0.360898     -0.412208
  N      -0.550593      1.592626     -1.164328
  N       1.522800      0.365105     -0.992556
  N       1.687860     -1.814226     -0.154218
  C      -0.474429     -0.671199     -0.317428
  C      -1.165953      0.503462     -0.670393
  C       0.914347     -0.725058     -0.513896
  C      -2.634838     -0.845313      0.088199
  C       0.764585      1.447513     -1.280389
  H      -1.312920     -2.427556      0.617128
  H      -3.563271     -1.292978      0.419426
  H       1.316253      2.303798     -1.662242
  H       2.662151     -1.798568     -0.450420
  H       1.253945     -2.725432     -0.217566
27
Coordinates from ORCA-job biuret_adenine_opt_freq E -860.879359804345
  N       5.771859     -0.126549      1.834674
  C       4.635954     -0.769657      1.383479
  O       4.672521     -1.624412      0.501842
  N       3.429473     -0.406552      1.976270
  C       2.979547      0.792118      2.555165
  O       1.824520      0.885866      2.945158
  N       3.887043      1.821668      2.681177
  H       6.622522     -0.527694      1.461996
  H       5.818368      0.164921      2.802967
  H       2.651878     -0.976371      1.648609
  H       4.658659      1.896193      2.031002
  H       3.451595      2.691958      2.955019
  N      -1.455258     -1.536029      0.168840
  N      -2.543956      0.336279     -0.454457
  N      -0.585920      1.571854     -1.223406
  N       1.498214      0.371383     -1.014496
  N       1.688625     -1.784535     -0.128866
  C      -0.490225     -0.672233     -0.325939
  C      -1.192410      0.487475     -0.708554
  C       0.900174     -0.714716     -0.515296
  C      -2.651040     -0.860202      0.070926
  C       0.730735      1.439083     -1.331174
  H      -1.318532     -2.421615      0.632538
  H      -3.576692     -1.310026      0.406970
  H       1.274363      2.291835     -1.731766
  H       2.659594     -1.762306     -0.435889
  H       1.268933     -2.703438     -0.176797
27
Coordinates from ORCA-job biuret_adenine_opt_freq E -860.879645699724
  N       5.792213     -0.131359      1.839261
  C       4.651612     -0.757726      1.379088
  O       4.681866     -1.607043      0.490688
  N       3.442689     -0.387728      1.966322
  C       3.016595      0.797367      2.592198
  O       1.874122      0.882630      3.020721
  N       3.936730      1.812382      2.723100
  H       6.636925     -0.548074      1.469234
  H       5.839142      0.151979      2.810114
  H       2.662349     -0.951145      1.631437
  H       4.694632      1.899167      2.058717
  H       3.520901      2.676304      3.043560
  N      -1.473479     -1.535650      0.169323
  N      -2.574390      0.313742     -0.497849
  N      -0.624373      1.551318     -1.280267
  N       1.468619      0.375138     -1.036604
  N       1.679621     -1.759341     -0.105228
  C      -0.512636     -0.673842     -0.336696
  C      -1.223030      0.472188     -0.746318
  C       0.879747     -0.706538     -0.516379
  C      -2.674687     -0.873443      0.049644
  C       0.693997      1.429448     -1.379549
  H      -1.333234     -2.415312      0.643131
  H      -3.598822     -1.325091      0.387372
  H       1.230104      2.277876     -1.798651
  H       2.647062     -1.726726     -0.423778
  H       1.276264     -2.686222     -0.142602
27
Coordinates from ORCA-job biuret_adenine_opt_freq E -860.879892245802
  N       5.804900     -0.149868      1.828127
  C       4.647685     -0.743479      1.367547
  O       4.652359     -1.577908      0.464091
  N       3.448060     -0.357931      1.966686
  C       3.057433      0.810371      2.648761
  O       1.931073      0.891809      3.116769
  N       3.998219      1.805037      2.788249
  H       6.637521     -0.585455      1.452398
  H       5.859050      0.126580      2.800642
  H       2.655046     -0.908008      1.634348
  H       4.732287      1.904608      2.099275
  H       3.608776      2.662037      3.157079
  N      -1.484108     -1.537544      0.169229
  N      -2.603358      0.280902     -0.549847
  N      -0.663377      1.521882     -1.349791
  N       1.440168      0.380550     -1.067227
  N       1.676124     -1.726602     -0.080551
  C      -0.530698     -0.676452     -0.352140
  C      -1.252348      0.449735     -0.793433
  C       0.863404     -0.694622     -0.521362
  C      -2.692835     -0.894094      0.025350
  C       0.657774      1.413794     -1.437647
  H      -1.335313     -2.404477      0.663521
  H      -3.613797     -1.349276      0.366932
  H       1.184483      2.257510     -1.877336
  H       2.641532     -1.683268     -0.406102
  H       1.290480     -2.661532     -0.103575
27
Coordinates from ORCA-job biuret_adenine_opt_freq E -860.880140830855
  N       5.823209     -0.154620      1.818546
  C       4.654641     -0.724823      1.357151
  O       4.643008     -1.549132      0.444291
  N       3.462363     -0.328159      1.965024
  C       3.101623      0.815823      2.703430
  O       1.991141      0.888071      3.209211
  N       4.060543      1.793289      2.852481
  H       6.648736     -0.604473      1.444475
  H       5.876556      0.125732      2.790011
  H       2.660381     -0.870060      1.638219
  H       4.764488      1.911675      2.135279
  H       3.694524      2.640232      3.266121
  N      -1.502665     -1.538228      0.165184
  N      -2.633024      0.254543     -0.600393
  N      -0.698561      1.495236     -1.413990
  N       1.412620      0.379079     -1.095312
  N       1.661271     -1.704307     -0.059026
  C      -0.553248     -0.680212     -0.368970
  C      -1.281564      0.430230     -0.838635
  C       0.841930     -0.688538     -0.526943
  C      -2.715965     -0.908667     -0.000486
  C       0.625307      1.396419     -1.490462
  H      -1.348417     -2.393948      0.677052
  H      -3.635419     -1.364916      0.343702
  H       1.146224      2.235328     -1.946378
  H       2.624783     -1.657328     -0.391892
  H       1.286057     -2.643947     -0.067700
27
Coordinates from ORCA-job biuret_adenine_opt_freq E -860.880418982300
  N       5.837332     -0.157413      1.801512
  C       4.656604     -0.706623      1.345494
  O       4.626084     -1.521122      0.424596
  N       3.475492     -0.299044      1.966792
  C       3.140286      0.817302      2.754831
  O       2.043887      0.878775      3.291032
  N       4.112977      1.782827      2.914336
  H       6.656308     -0.615677      1.424428
  H       5.894521      0.132238      2.769895
  H       2.663665     -0.833281      1.651081
  H       4.784123      1.926003      2.170222
  H       3.763684      2.618128      3.364858
  N      -1.518539     -1.538244      0.160613
  N      -2.654916      0.233959     -0.644487
  N      -0.723426      1.472758     -1.469908
  N       1.394247      0.372968     -1.116740
  N       1.647194     -1.691062     -0.042435
  C      -0.570714     -0.684402     -0.383498
  C      -1.302641      0.413946     -0.878248
  C       0.824998     -0.686875     -0.531043
  C      -2.734334     -0.918781     -0.024237
  C       0.602395      1.380032     -1.535955
  H      -1.361117     -2.383253      0.689000
  H      -3.653304     -1.374491      0.322000
  H       1.120614      2.214587     -2.003084
  H       2.610612     -1.647153     -0.377056
  H       1.274505     -2.631800     -0.034008
27
Coordinates from ORCA-job biuret_adenine_opt_freq E -860.880625603159
  N       5.851204     -0.146342      1.784075
  C       4.666010     -0.692094      1.336921
  O       4.626261     -1.505983      0.416395
  N       3.492353     -0.280828      1.967809
  C       3.167647      0.810207      2.789471
  O       2.078732      0.857523      3.342346
  N       4.145236      1.773596      2.959226
  H       6.670138     -0.601648      1.404732
  H       5.911583      0.162846      2.745981
  H       2.677367     -0.815705      1.667369
  H       4.783769      1.947230      2.192571
  H       3.799467      2.597198      3.433955
  N      -1.537126     -1.536320      0.154300
  N      -2.667513      0.229468     -0.673491
  N      -0.730936      1.459534     -1.502702
  N       1.386639      0.359497     -1.125035
  N       1.628849     -1.695054     -0.036734
  C      -0.585638     -0.688734     -0.393107
  C      -1.313623      0.406326     -0.902476
  C       0.810092     -0.693378     -0.533675
  C      -2.751052     -0.916753     -0.042092
  C       0.595082      1.365088     -1.560810
  H      -1.382130     -2.375461      0.692596
  H      -3.672206     -1.368089      0.304186
  H       1.117606      2.194896     -2.031117
  H       2.593784     -1.660193     -0.367780
  H       1.248945     -2.632529     -0.012924
27
Coordinates from ORCA-job biuret_adenine_opt_freq E -860.880756368152
  N       5.854822     -0.147411      1.762646
  C       4.660453     -0.678857      1.325820
  O       4.602095     -1.486916      0.401033
  N       3.497888     -0.260384      1.971366
  C       3.193160      0.808073      2.826228
  O       2.114731      0.847668      3.397961
  N       4.176931      1.765393      3.004955
  H       6.666291     -0.604157      1.369623
  H       5.930767      0.163818      2.722615
  H       2.673286     -0.785517      1.677877
  H       4.792832      1.966542      2.226348
  H       3.839601      2.575666      3.508240
  N      -1.545550     -1.534194      0.152075
  N      -2.677887      0.215593     -0.705675
  N      -0.741870      1.441165     -1.542289
  N       1.377849      0.354352     -1.136698
  N       1.622632     -1.685850     -0.023720
  C      -0.594208     -0.690692     -0.401691
  C      -1.323632      0.394157     -0.930240
  C       0.802648     -0.692747     -0.535453
  C      -2.760698     -0.922233     -0.059431
  C       0.583702      1.350797     -1.592439
  H      -1.390503     -2.365432      0.702492
  H      -3.681880     -1.372066      0.288720
  H       1.106507      2.176170     -2.070006
  H       2.589526     -1.656804     -0.348861
  H       1.241047     -2.621836      0.018496
27
Coordinates from ORCA-job biuret_adenine_opt_freq E -860.880906476028
  N       5.865212     -0.140011      1.736345
  C       4.662484     -0.659267      1.314176
  O       4.583691     -1.464031      0.387540
  N       3.511044     -0.232352      1.974953
  C       3.235214      0.802330      2.877967
  O       2.171850      0.827431      3.478447
  N       4.228818      1.749470      3.067747
  H       6.668385     -0.598242      1.328511
  H       5.959968      0.179882      2.691578
  H       2.678217     -0.748450      1.692194
  H       4.808466      1.994139      2.273554
  H       3.905636      2.536996      3.615094
  N      -1.565622     -1.530666      0.146393
  N      -2.697770      0.196377     -0.755300
  N      -0.759905      1.413419     -1.599678
  N       1.360138      0.345521     -1.153513
  N       1.606463     -1.671627     -0.004004
  C      -0.613134     -0.693859     -0.415374
  C      -1.342694      0.376399     -0.971464
  C       0.785542     -0.692825     -0.538553
  C      -2.781645     -0.929007     -0.087734
  C       0.565321      1.328196     -1.637083
  H      -1.412219     -2.351301      0.712964
  H      -3.703743     -1.376065      0.261528
  H       1.090293      2.145901     -2.125394
  H       2.575478     -1.648023     -0.323592
  H       1.225051     -2.606036      0.062690
27
Coordinates from ORCA-job biuret_adenine_opt_freq E -860.880933269398
  N       5.875018     -0.142246      1.712623
  C       4.658445     -0.632789      1.302572
  O       4.551097     -1.428763      0.370484
  N       3.521391     -0.186867      1.978411
  C       3.293444      0.805128      2.943198
  O       2.253352      0.814816      3.581005
  N       4.306934      1.730004      3.143345
  H       6.663558     -0.613386      1.291239
  H       5.990093      0.181875      2.664058
  H       2.674623     -0.687371      1.703468
  H       4.844641      2.022803      2.335722
  H       4.012941      2.487088      3.747645
  N      -1.588377     -1.531144      0.136477
  N      -2.727816      0.161608     -0.818492
  N      -0.789980      1.372972     -1.670448
  N       1.329471      0.341824     -1.185192
  N       1.588472     -1.639048      0.021568
  C      -0.638967     -0.699188     -0.437917
  C      -1.372413      0.348222     -1.025223
  C       0.760937     -0.686151     -0.549206
  C      -2.807984     -0.947898     -0.124042
  C       0.537009      1.297716     -1.692052
  H      -1.432964     -2.337743      0.722333
  H      -3.729106     -1.395123      0.227515
  H       1.060131      2.107383     -2.195782
  H       2.560208     -1.614883     -0.291436
  H       1.216383     -2.574537      0.118119
27
Coordinates from ORCA-job biuret_adenine_opt_freq E -860.881070171133
  N       5.878061     -0.142915      1.698532
  C       4.653831     -0.619110      1.296722
  O       4.530502     -1.407528      0.359961
  N       3.526014     -0.167332      1.984713
  C       3.320356      0.800967      2.976271
  O       2.292898      0.801932      3.635918
  N       4.340613      1.718424      3.178341
  H       6.658358     -0.618078      1.266509
  H       6.005696      0.179093      2.649021
  H       2.672708     -0.659424      1.714778
  H       4.859290      2.032985      2.366381
  H       4.060546      2.460045      3.808065
  N      -1.595911     -1.528522      0.135187
  N      -2.739832      0.143001     -0.851709
  N      -0.808210      1.356287     -1.714448
  N       1.318327      0.340093     -1.195132
  N       1.583035     -1.624549      0.039308
  C      -0.647217     -0.699426     -0.444789
  C      -1.384594      0.335911     -1.054151
  C       0.754163     -0.683002     -0.546613
  C      -2.817208     -0.956540     -0.141401
  C       0.518595      1.289181     -1.729095
  H      -1.439947     -2.326801      0.732173
  H      -3.737739     -1.404357      0.210942
  H       1.039131      2.095167     -2.241685
  H       2.555302     -1.601476     -0.272292
  H       1.213774     -2.559725      0.148482
27
Coordinates from ORCA-job biuret_adenine_opt_freq E -860.881079777058
  N       5.889527     -0.134390      1.701864
  C       4.666957     -0.613340      1.300484
  O       4.545157     -1.404125      0.365815
  N       3.536591     -0.161127      1.985459
  C       3.334722      0.797529      2.986052
  O       2.310675      0.790236      3.652082
  N       4.357551      1.712913      3.186901
  H       6.671258     -0.608465      1.271285
  H       6.016308      0.195331      2.649807
  H       2.687057     -0.656884      1.719414
  H       4.861501      2.040896      2.370848
  H       4.081743      2.446833      3.827643
  N      -1.608789     -1.528347      0.130802
  N      -2.749663      0.141172     -0.863062
  N      -0.815761      1.351109     -1.726547
  N       1.310182      0.336049     -1.198981
  N       1.570117     -1.624334      0.040659
  C      -0.658516     -0.701096     -0.449169
  C      -1.393907      0.332780     -1.063557
  C       0.742724     -0.685376     -0.548915
  C      -2.829228     -0.956799     -0.150458
  C       0.511551      1.284456     -1.738847
  H      -1.454750     -2.324864      0.730636
  H      -3.750791     -1.403312      0.200862
  H       1.033910      2.087962     -2.253303
  H       2.543123     -1.600994     -0.268832
  H       1.201290     -2.559515      0.151049
27
Coordinates from ORCA-job biuret_adenine_opt_freq E -860.881127067143
  N       5.893061     -0.141759      1.692162
  C       4.659753     -0.596550      1.297219
  O       4.517803     -1.377768      0.357185
  N       3.540718     -0.130875      1.993140
  C       3.370635      0.799816      3.026435
  O       2.363237      0.783243      3.716260
  N       4.406943      1.700396      3.228087
  H       6.663409     -0.626736      1.253434
  H       6.031814      0.186246      2.639031
  H       2.681815     -0.614475      1.730985
  H       4.888185      2.051544      2.407884
  H       4.153694      2.415562      3.898780
  N      -1.618511     -1.529061      0.125985
  N      -2.768032      0.113954     -0.901636
  N      -0.839646      1.326171     -1.774027
  N       1.290992      0.337710     -1.218712
  N       1.562008     -1.598829      0.055995
  C      -0.671989     -0.703200     -0.462325
  C      -1.412706      0.314157     -1.097473
  C       0.729543     -0.677811     -0.554680
  C      -2.842162     -0.972600     -0.171147
  C       0.488744      1.269994     -1.777954
  H      -1.461287     -2.315046      0.738727
  H      -3.761914     -1.421325      0.182125
  H       1.006815      2.069477     -2.302684
  H       2.536083     -1.572083     -0.251293
  H       1.201534     -2.535854      0.178491
27
Coordinates from ORCA-job biuret_adenine_opt_freq E -860.881141889343
  N       5.895370     -0.146161      1.696073
  C       4.659534     -0.593377      1.299627
  O       4.514158     -1.370741      0.357080
  N       3.542253     -0.124602      1.996412
  C       3.377743      0.801859      3.034388
  O       2.373719      0.784096      3.728695
  N       4.417962      1.698431      3.233225
  H       6.663353     -0.634108      1.256567
  H       6.034616      0.179709      2.643609
  H       2.681766     -0.604386      1.733057
  H       4.898452      2.047949      2.411995
  H       4.172080      2.412126      3.908164
  N      -1.620085     -1.530476      0.124604
  N      -2.773654      0.106318     -0.908720
  N      -0.847889      1.321037     -1.783651
  N       1.285121      0.340777     -1.224264
  N       1.559857     -1.591272      0.057064
  C      -0.675624     -0.703576     -0.465534
  C      -1.418612      0.309707     -1.104302
  C       0.725469     -0.674343     -0.557497
  C      -2.845091     -0.978095     -0.174799
  C       0.481030      1.268879     -1.786816
  H      -1.461096     -2.313687      0.740440
  H      -3.763845     -1.428214      0.179307
  H       0.996835      2.068075     -2.314096
  H       2.534247     -1.561736     -0.249103
  H       1.202871     -2.529890      0.178463
27
Coordinates from ORCA-job biuret_adenine_opt_freq E -860.881148296418
  N       5.899368     -0.152312      1.701136
  C       4.660353     -0.590030      1.303292
  O       4.510475     -1.362574      0.357579
  N       3.545994     -0.117458      2.002028
  C       3.387243      0.804618      3.044937
  O       2.386910      0.785639      3.744376
  N       4.431558      1.696888      3.240829
  H       6.664170     -0.643174      1.259472
  H       6.040241      0.170376      2.649454
  H       2.683370     -0.591463      1.737360
  H       4.913402      2.042789      2.419085
  H       4.194173      2.409819      3.919461
  N      -1.622470     -1.532312      0.122494
  N      -2.781462      0.096316     -0.918067
  N      -0.859203      1.314283     -1.796270
  N       1.277207      0.345265     -1.231209
  N       1.556489     -1.581483      0.057557
  C      -0.680780     -0.703891     -0.469794
  C      -1.426830      0.303845     -1.113432
  C       0.719859     -0.669422     -0.561313
  C      -2.849324     -0.985629     -0.180240
  C       0.470025      1.267578     -1.798553
  H      -1.461188     -2.311208      0.743201
  H      -3.766703     -1.437653      0.175023
  H       0.983078      2.066340     -2.329133
  H       2.531471     -1.549056     -0.246506
  H       1.203115     -2.521794      0.177226
27
Coordinates from ORCA-job biuret_adenine_opt_freq E -860.881162087027
  N       5.904316     -0.159588      1.705932
  C       4.661751     -0.586228      1.307020
  O       4.505848     -1.352821      0.357445
  N       3.551847     -0.109226      2.009455
  C       3.400612      0.807525      3.058560
  O       2.404603      0.787232      3.763946
  N       4.448897      1.695179      3.252382
  H       6.665220     -0.653051      1.260540
  H       6.048333      0.158279      2.655345
  H       2.685597     -0.575446      1.744107
  H       4.932250      2.038293      2.430527
  H       4.220279      2.407013      3.934988
  N      -1.625967     -1.534379      0.119232
  N      -2.791391      0.083418     -0.931277
  N      -0.873421      1.305737     -1.812873
  N       1.267074      0.350628     -1.239658
  N       1.552190     -1.569418      0.058419
  C      -0.687508     -0.704117     -0.475484
  C      -1.437323      0.296546     -1.125498
  C       0.713002     -0.663318     -0.565690
  C      -2.855020     -0.994754     -0.187664
  C       0.455826      1.265534     -1.813509
  H      -1.461956     -2.307534      0.746394
  H      -3.770712     -1.449201      0.168882
  H       0.965953      2.063496     -2.348133
  H       2.528109     -1.534591     -0.242289
  H       1.202129     -2.510910      0.178893
27
Coordinates from ORCA-job biuret_adenine_opt_freq E -860.881178366834
  N       5.910615     -0.167915      1.712313
  C       4.665016     -0.584593      1.312137
  O       4.503468     -1.345339      0.358791
  N       3.559846     -0.103658      2.018667
  C       3.414918      0.811121      3.071395
  O       2.421638      0.791241      3.780765
  N       4.466045      1.694852      3.263592
  H       6.668013     -0.663187      1.262956
  H       6.057935      0.143111      2.663449
  H       2.689502     -0.561085      1.753072
  H       4.954188      2.032242      2.442317
  H       4.244050      2.408180      3.946621
  N      -1.629696     -1.536945      0.115050
  N      -2.802458      0.070011     -0.944030
  N      -0.889595      1.298036     -1.829170
  N       1.255521      0.357665     -1.248198
  N       1.547710     -1.556150      0.058094
  C      -0.694978     -0.703966     -0.481720
  C      -1.449227      0.289413     -1.137565
  C       0.705645     -0.655978     -0.570372
  C      -2.861286     -1.005283     -0.195933
  C       0.439485      1.264914     -1.827942
  H      -1.462409     -2.303781      0.749100
  H      -3.774940     -1.463058      0.161593
  H       0.946554      2.062365     -2.366329
  H       2.524512     -1.519536     -0.239414
  H       1.200469     -2.498379      0.180751
27
Coordinates from ORCA-job biuret_adenine_opt_freq E -860.881193846293
  N       5.917209     -0.176141      1.718610
  C       4.669046     -0.585080      1.318112
  O       4.502069     -1.340610      0.361572
  N       3.568591     -0.101197      2.029258
  C       3.429405      0.814897      3.082909
  O       2.437127      0.797635      3.793943
  N       4.482526      1.695125      3.274063
  H       6.671469     -0.672609      1.265188
  H       6.068331      0.126360      2.671889
  H       2.693778     -0.549938      1.764207
  H       4.977046      2.025762      2.453904
  H       4.264526      2.411601      3.954938
  N      -1.633151     -1.539758      0.110169
  N      -2.813579      0.056078     -0.957076
  N      -0.906449      1.291546     -1.844727
  N       1.243359      0.365647     -1.256460
  N       1.543736     -1.542143      0.057490
  C      -0.702372     -0.703458     -0.488222
  C      -1.461429      0.282755     -1.149257
  C       0.698531     -0.648039     -0.574904
  C      -2.867343     -1.015935     -0.203924
  C       0.422470      1.265693     -1.841183
  H      -1.462224     -2.300461      0.750631
  H      -3.778786     -1.477601      0.154234
  H       0.926347      2.063111     -2.382707
  H       2.521222     -1.504286     -0.237347
  H       1.199082     -2.484653      0.184678
27
Coordinates from ORCA-job biuret_adenine_opt_freq E -860.881209211121
  N       5.922506     -0.182014      1.723159
  C       4.672677     -0.588016      1.324079
  O       4.501890     -1.340815      0.366115
  N       3.575593     -0.103301      2.039322
  C       3.439832      0.818147      3.089870
  O       2.446054      0.806129      3.799190
  N       4.494062      1.695891      3.280205
  H       6.674647     -0.679154      1.266752
  H       6.077055      0.112465      2.678444
  H       2.697509     -0.546336      1.775523
  H       4.995260      2.019510      2.461290
  H       4.276434      2.416850      3.956398
  N      -1.635280     -1.541961      0.106210
  N      -2.821842      0.046028     -0.965675
  N      -0.919717      1.288210     -1.855019
  N       1.233670      0.372821     -1.262254
  N       1.541482     -1.530510      0.056988
  C      -0.707686     -0.702653     -0.493141
  C      -1.470736      0.278338     -1.157365
  C       0.693429     -0.641343     -0.578082
  C      -2.871578     -1.024844     -0.210578
  C       0.409230      1.268125     -1.849429
  H      -1.461258     -2.298472      0.750807
  H      -3.781209     -1.490161      0.147446
  H       0.910267      2.066344     -2.392454
  H       2.519116     -1.491886     -0.237004
  H       1.199133     -2.473092      0.189194
27
Coordinates from ORCA-job biuret_adenine_opt_freq E -860.881224968570
  N       5.926555     -0.185301      1.726391
  C       4.675855     -0.592876      1.330322
  O       4.503156     -1.345135      0.372379
  N       3.580579     -0.109663      2.048972
  C       3.445336      0.820657      3.092221
  O       2.447830      0.816404      3.796557
  N       4.500156      1.696910      3.281464
  H       6.677524     -0.682502      1.267884
  H       6.083920      0.102071      2.683460
  H       2.700887     -0.550522      1.786516
  H       5.008103      2.012990      2.463752
  H       4.279997      2.423377      3.950932
  N      -1.636064     -1.543769      0.103091
  N      -2.827124      0.039136     -0.971068
  N      -0.929002      1.287853     -1.859749
  N       1.226875      0.378984     -1.265492
  N       1.540913     -1.521657      0.056498
  C      -0.710814     -0.701721     -0.496297
  C      -1.476855      0.276244     -1.161586
  C       0.690290     -0.636132     -0.580010
  C      -2.873842     -1.030688     -0.214227
  C       0.400195      1.272006     -1.852812
  H      -1.459567     -2.298685      0.748885
  H      -3.782150     -1.498900      0.143359
  H       0.898649      2.071921     -2.395688
  H       2.518180     -1.482163     -0.238235
  H       1.200960     -2.464539      0.192475
27
Coordinates from ORCA-job biuret_adenine_opt_freq E -860.881232541844
  N       5.929199     -0.186869      1.726379
  C       4.676918     -0.595139      1.334926
  O       4.501241     -1.346995      0.377267
  N       3.583792     -0.113067      2.057530
  C       3.451024      0.822007      3.096539
  O       2.451628      0.824327      3.798085
  N       4.507982      1.695794      3.284483
  H       6.678132     -0.684882      1.265284
  H       6.090050      0.095968      2.684297
  H       2.703020     -0.553308      1.796588
  H       5.018025      2.008751      2.466887
  H       4.287491      2.424295      3.951694
  N      -1.637346     -1.544417      0.101230
  N      -2.831514      0.033241     -0.977067
  N      -0.936273      1.285746     -1.866069
  N       1.221180      0.383090     -1.268436
  N       1.540226     -1.513141      0.058781
  C      -0.713642     -0.701100     -0.498924
  C      -1.481741      0.273476     -1.166945
  C       0.687243     -0.632086     -0.580993
  C      -2.876170     -1.035974     -0.219212
  C       0.393250      1.273510     -1.857557
  H      -1.459352     -2.298540      0.747527
  H      -3.783649     -1.506166      0.137878
  H       0.889425      2.074711     -2.400538
  H       2.516957     -1.472154     -0.237287
  H       1.203442     -2.456778      0.197647
27
Coordinates from ORCA-job biuret_adenine_opt_freq E -860.881235740605
  N       5.932216     -0.187767      1.727098
  C       4.678665     -0.596580      1.339293
  O       4.501027     -1.348008      0.381705
  N       3.586923     -0.115933      2.064871
  C       3.455157      0.822608      3.100043
  O       2.454196      0.830764      3.799190
  N       4.514405      1.694351      3.286342
  H       6.679526     -0.686111      1.263670
  H       6.095441      0.092429      2.685441
  H       2.706288     -0.556810      1.804556
  H       5.025529      2.004590      2.468449
  H       4.294155      2.424247      3.952133
  N      -1.639066     -1.544715      0.100072
  N      -2.835447      0.027977     -0.983080
  N      -0.942057      1.283529     -1.871266
  N       1.216490      0.386454     -1.270394
  N       1.539105     -1.505932      0.061190
  C      -0.716461     -0.700618     -0.500670
  C      -1.485887      0.271166     -1.171324
  C       0.684025     -0.628703     -0.581544
  C      -2.878576     -1.039539     -0.222745
  C       0.387757      1.274350     -1.861646
  H      -1.460175     -2.299370      0.745471
  H      -3.785526     -1.510968      0.134072
  H       0.882152      2.076623     -2.404586
  H       2.515133     -1.462986     -0.236727
  H       1.205546     -2.450748      0.200378
27
Coordinates from ORCA-job biuret_adenine_opt_freq E -860.881241138653
  N       5.935276     -0.189988      1.727711
  C       4.679900     -0.595139      1.341933
  O       4.498887     -1.344227      0.383133
  N       3.590417     -0.113939      2.070567
  C       3.462193      0.822726      3.107069
  O       2.462404      0.833630      3.807626
  N       4.524516      1.691627      3.292131
  H       6.680310     -0.688951      1.261355
  H       6.100844      0.089065      2.685973
  H       2.709100     -0.553633      1.810345
  H       5.034075      2.002175      2.473439
  H       4.307647      2.420278      3.960381
  N      -1.641859     -1.544494      0.099374
  N      -2.840597      0.021190     -0.991407
  N      -0.948948      1.278336     -1.880745
  N       1.210832      0.389360     -1.273413
  N       1.536790     -1.497570      0.064896
  C      -0.720428     -0.700332     -0.502946
  C      -1.491212      0.267117     -1.178431
  C       0.679753     -0.624960     -0.582100
  C      -2.882130     -1.044235     -0.228096
  C       0.380929      1.272768     -1.869450
  H      -1.462291     -2.298734      0.745044
  H      -3.788493     -1.516758      0.128781
  H       0.873878      2.074961     -2.413794
  H       2.512379     -1.452488     -0.234053
  H       1.206369     -2.443486      0.204666
27
Coordinates from ORCA-job biuret_adenine_opt_freq E -860.881243604612
  N       5.937729     -0.192838      1.729507
  C       4.681398     -0.593898      1.343183
  O       4.498289     -1.340619      0.382920
  N       3.593234     -0.111650      2.073168
  C       3.467078      0.822547      3.111681
  O       2.468508      0.834277      3.813911
  N       4.531169      1.689873      3.296317
  H       6.681611     -0.691821      1.261456
  H       6.104004      0.086563      2.687494
  H       2.711410     -0.549876      1.812399
  H       5.039507      2.000958      2.477097
  H       4.316868      2.417593      3.966366
  N      -1.643832     -1.544178      0.099356
  N      -2.844359      0.016063     -0.997318
  N      -0.953881      1.274259     -1.887732
  N       1.206891      0.391786     -1.275190
  N       1.535006     -1.491723      0.067161
  C      -0.723346     -0.700049     -0.504262
  C      -1.495144      0.264170     -1.183297
  C       0.676675     -0.621926     -0.582292
  C      -2.884668     -1.047311     -0.231119
  C       0.375918      1.271449     -1.875170
  H      -1.463768     -2.298394      0.744894
  H      -3.790535     -1.520557      0.126071
  H       0.868188      2.073123     -2.420929
  H       2.510245     -1.445256     -0.232707
  H       1.206343     -2.438266      0.207028
27
Coordinates from ORCA-job biuret_adenine_opt_freq E -860.881246237961
  N       5.939572     -0.196287      1.731634
  C       4.682726     -0.593136      1.343685
  O       4.497924     -1.337491      0.381902
  N       3.595489     -0.109504      2.074343
  C       3.471193      0.822291      3.115042
  O       2.473747      0.834179      3.818849
  N       4.536420      1.688451      3.299895
  H       6.682928     -0.695017      1.262579
  H       6.105989      0.084157      2.689232
  H       2.712869     -0.545809      1.812939
  H       5.043775      2.000377      2.480375
  H       4.323984      2.415536      3.971197
  N      -1.645107     -1.543727      0.099709
  N      -2.847380      0.011650     -1.001914
  N      -0.958156      1.270832     -1.893727
  N       1.203606      0.394286     -1.276468
  N       1.533765     -1.486670      0.068888
  C      -0.725574     -0.699632     -0.505249
  C      -1.498432      0.261688     -1.187238
  C       0.674416     -0.618936     -0.582195
  C      -2.886519     -1.050129     -0.233451
  C       0.371501      1.270545     -1.879897
  H      -1.464453     -2.297803      0.745234
  H      -3.791844     -1.524178      0.124046
  H       0.863259      2.071483     -2.427229
  H       2.508728     -1.439413     -0.231765
  H       1.206113     -2.433444      0.209575
27
Coordinates from ORCA-job biuret_adenine_opt_freq E -860.881246268992
  N       5.940978     -0.199922      1.734215
  C       4.684062     -0.593497      1.344197
  O       4.498361     -1.336171      0.381298
  N       3.597107     -0.108595      2.074724
  C       3.473866      0.822175      3.116462
  O       2.476790      0.834417      3.820830
  N       4.539724      1.687507      3.301925
  H       6.684423     -0.698384      1.265094
  H       6.107006      0.081868      2.691437
  H       2.713784     -0.543134      1.812614
  H       5.046802      1.999862      2.482358
  H       4.327918      2.414722      3.973286
  N      -1.645469     -1.543352      0.100261
  N      -2.849560      0.008081     -1.004851
  N      -0.961779      1.268585     -1.897970
  N       1.201009      0.397049     -1.277234
  N       1.533283     -1.482308      0.069883
  C      -0.726947     -0.699063     -0.505871
  C      -1.500976      0.259918     -1.189850
  C       0.673032     -0.615996     -0.581986
  C      -2.887483     -1.052438     -0.234559
  C       0.367772      1.270618     -1.883052
  H      -1.464018     -2.297406      0.745576
  H      -3.792210     -1.527354      0.123293
  H       0.858909      2.071018     -2.431750
  H       2.507914     -1.434764     -0.231826
  H       1.206242     -2.429139      0.211486
27
Coordinates from ORCA-job biuret_adenine_opt_freq E -860.881245801263
  N       5.941350     -0.202922      1.736382
  C       4.684746     -0.594569      1.344284
  O       4.499073     -1.336389      0.380732
  N       3.597384     -0.108789      2.073921
  C       3.474267      0.822014      3.115667
  O       2.476852      0.834664      3.819595
  N       4.540373      1.686870      3.302044
  H       6.685416     -0.701140      1.268051
  H       6.106526      0.080513      2.693234
  H       2.713675     -0.542183      1.811014
  H       5.047465      1.999646      2.482593
  H       4.328121      2.414507      3.972838
  N      -1.644729     -1.542913      0.101273
  N      -2.850209      0.006186     -1.005504
  N      -0.963623      1.267765     -1.899670
  N       1.199953      0.399358     -1.277213
  N       1.533797     -1.479542      0.070326
  C      -0.726990     -0.698459     -0.505797
  C      -1.501949      0.259188     -1.190560
  C       0.672980     -0.613777     -0.581516
  C      -2.887208     -1.053717     -0.234271
  C       0.365888      1.271397     -1.884115
  H      -1.462554     -2.297122      0.746200
  H      -3.791461     -1.529276      0.123913
  H       0.856411      2.071538     -2.433743
  H       2.508130     -1.432268     -0.232408
  H       1.206857     -2.426280      0.212720
27
Coordinates from ORCA-job biuret_adenine_opt_freq E -860.881249003753
  N       5.941426     -0.205558      1.738228
  C       4.685120     -0.595899      1.344437
  O       4.499806     -1.337444      0.380595
  N       3.597163     -0.109310      2.072891
  C       3.474014      0.821954      3.114234
  O       2.475930      0.835186      3.817226
  N       4.540577      1.686044      3.301781
  H       6.686107     -0.703973      1.271116
  H       6.105739      0.079416      2.694761
  H       2.713171     -0.541689      1.809083
  H       5.047662      1.999483      2.482532
  H       4.327642      2.413911      3.972161
  N      -1.643552     -1.542539      0.102314
  N      -2.850503      0.004530     -1.005640
  N      -0.965231      1.267246     -1.900897
  N       1.199197      0.401652     -1.277276
  N       1.534684     -1.476800      0.070766
  C      -0.726627     -0.697805     -0.505636
  C      -1.502567      0.258605     -1.190966
  C       0.673300     -0.611639     -0.581113
  C      -2.886509     -1.054824     -0.233564
  C       0.364292      1.272412     -1.884888
  H      -1.460556     -2.296631      0.747142
  H      -3.790279     -1.530973      0.125042
  H       0.853928      2.072518     -2.435335
  H       2.508770     -1.430114     -0.232924
  H       1.207835     -2.423460      0.213921
27
Coordinates from ORCA-job biuret_adenine_opt_freq E -860.881253344084
  N       5.941225     -0.208072      1.739853
  C       4.685142     -0.597385      1.344598
  O       4.500435     -1.338898      0.380577
  N       3.596516     -0.110020      2.071628
  C       3.473026      0.822030      3.112208
  O       2.473852      0.836202      3.813642
  N       4.540434      1.684871      3.301326
  H       6.686389     -0.707164      1.274271
  H       6.104575      0.078093      2.696196
  H       2.712328     -0.541275      1.806577
  H       5.047667      1.999019      2.482399
  H       4.326768      2.412773      3.971492
  N      -1.641850     -1.542169      0.103603
  N      -2.850525      0.002798     -1.005400
  N      -0.966716      1.266821     -1.901843
  N       1.198714      0.404123     -1.277529
  N       1.535967     -1.473744      0.071288
  C      -0.725870     -0.697029     -0.505280
  C      -1.502906      0.258102     -1.191066
  C       0.673947     -0.609353     -0.580792
  C      -2.885354     -1.056021     -0.232498
  C       0.362865      1.273580     -1.885652
  H      -1.457888     -2.295699      0.748814
  H      -3.788588     -1.532827      0.126579
  H       0.851316      2.073861     -2.436870
  H       2.509866     -1.427956     -0.233232
  H       1.209207     -2.420362      0.215101
27
Coordinates from ORCA-job biuret_adenine_opt_freq E -860.881257229694
  N       5.941240     -0.209777      1.740513
  C       4.684966     -0.597868      1.344594
  O       4.500370     -1.339245      0.380378
  N       3.596175     -0.109615      2.070702
  C       3.472932      0.822156      3.111519
  O       2.472986      0.837037      3.811793
  N       4.541813      1.682998      3.302589
  H       6.686210     -0.710145      1.276001
  H       6.104108      0.076671      2.696867
  H       2.711646     -0.539406      1.804388
  H       5.048626      1.998714      2.483977
  H       4.328292      2.409914      3.973931
  N      -1.640670     -1.541901      0.104526
  N      -2.851055      0.000459     -1.006298
  N      -0.968629      1.265491     -1.904176
  N       1.197818      0.406080     -1.278613
  N       1.536764     -1.470224      0.072357
  C      -0.725606     -0.696373     -0.505268
  C      -1.503680      0.257038     -1.192229
  C       0.674073     -0.607246     -0.580784
  C      -2.884699     -1.057446     -0.232099
  C       0.361002      1.273834     -1.887828
  H      -1.455828     -2.294030      0.751123
  H      -3.787436     -1.534781      0.127531
  H       0.848238      2.074210     -2.439959
  H       2.510623     -1.425398     -0.232556
  H       1.210259     -2.416845      0.217009
27
Coordinates from ORCA-job biuret_adenine_opt_freq E -860.881256007531
  N       5.941415     -0.210928      1.740987
  C       4.684853     -0.597828      1.344371
  O       4.500460     -1.338813      0.379734
  N       3.596019     -0.108976      2.069707
  C       3.472453      0.822360      3.110836
  O       2.471330      0.838294      3.809366
  N       4.543130      1.680687      3.304560
  H       6.685876     -0.712828      1.277288
  H       6.103612      0.074411      2.697819
  H       2.711201     -0.536968      1.801612
  H       5.050212      1.997635      2.486577
  H       4.329991      2.406434      3.977316
  N      -1.639464     -1.541635      0.105635
  N      -2.851655     -0.002031     -1.007173
  N      -0.970562      1.263840     -1.906739
  N       1.196964      0.407785     -1.280197
  N       1.537536     -1.466637      0.073331
  C      -0.725386     -0.695659     -0.505054
  C      -1.504486      0.255872     -1.193422
  C       0.674104     -0.605223     -0.581049
  C      -2.884032     -1.058894     -0.231535
  C       0.359113      1.273675     -1.890567
  H      -1.453758     -2.291592      0.754511
  H      -3.786262     -1.536710      0.128734
  H       0.845178      2.074130     -2.443598
  H       2.511420     -1.422824     -0.231797
  H       1.211279     -2.413280      0.218737
27
Coordinates from ORCA-job biuret_adenine_opt_freq E -860.881257396204
  N       5.942674     -0.212139      1.741175
  C       4.685229     -0.596286      1.344243
  O       4.499627     -1.335766      0.378629
  N       3.597329     -0.106324      2.069968
  C       3.475084      0.822723      3.113316
  O       2.473694      0.839354      3.811371
  N       4.548105      1.677749      3.309777
  H       6.685693     -0.715798      1.277029
  H       6.105038      0.070709      2.698745
  H       2.711638     -0.531625      1.800363
  H       5.055186      1.996421      2.492460
  H       4.336825      2.401515      3.985256
  N      -1.639801     -1.541467      0.106014
  N      -2.854041     -0.006537     -1.011127
  N      -0.974499      1.260298     -1.912656
  N       1.194207      0.409291     -1.283149
  N       1.537040     -1.461491      0.075054
  C      -0.726825     -0.695102     -0.505778
  C      -1.507113      0.253350     -1.197122
  C       0.672507     -0.602844     -0.581748
  C      -2.884999     -1.061529     -0.232949
  C       0.355142      1.272195     -1.896125
  H      -1.453274     -2.288402      0.758141
  H      -3.786652     -1.540001      0.127911
  H       0.840140      2.072267     -2.450646
  H       2.510911     -1.418035     -0.230286
  H       1.211674     -2.408226      0.222126
27
Coordinates from ORCA-job biuret_adenine_opt_freq E -860.881257489191
  N       5.944491     -0.213090      1.742031
  C       4.686375     -0.594412      1.343942
  O       4.499860     -1.331839      0.376926
  N       3.599178     -0.103688      2.069947
  C       3.477392      0.823127      3.115376
  O       2.475007      0.840879      3.811973
  N       4.552629      1.674652      3.315511
  H       6.686208     -0.718095      1.277211
  H       6.106496      0.066013      2.700787
  H       2.712759     -0.526155      1.798349
  H       5.061316      1.994062      2.499491
  H       4.342884      2.396950      3.993004
  N      -1.640390     -1.541261      0.106616
  N      -2.856611     -0.010914     -1.014749
  N      -0.978559      1.256642     -1.918492
  N       1.191257      0.410500     -1.286328
  N       1.536419     -1.456616      0.076258
  C      -0.728518     -0.694485     -0.506206
  C      -1.509953      0.250868     -1.200574
  C       0.670627     -0.600586     -0.582537
  C      -2.886204     -1.064043     -0.234063
  C       0.351033      1.270478     -1.901783
  H      -1.453114     -2.284841      0.762376
  H      -3.787278     -1.543128      0.127444
  H       0.835234      2.069940     -2.457900
  H       2.510045     -1.413289     -0.229906
  H       1.211955     -2.403369      0.225286
27
Coordinates from ORCA-job biuret_adenine_opt_freq E -860.881255290422
  N       5.947033     -0.214763      1.743513
  C       4.687975     -0.590885      1.342956
  O       4.499856     -1.324607      0.373478
  N       3.601771     -0.098707      2.069354
  C       3.481420      0.823700      3.118903
  O       2.477884      0.842537      3.813768
  N       4.559726      1.669955      3.324946
  H       6.686955     -0.721371      1.277500
  H       6.108515      0.058697      2.704007
  H       2.714103     -0.516985      1.794939
  H       5.071198      1.990772      2.511228
  H       4.352287      2.389898      4.005607
  N      -1.641541     -1.540793      0.107678
  N      -2.860477     -0.017420     -1.020297
  N      -0.984630      1.250838     -1.927701
  N       1.186641      0.411648     -1.291372
  N       1.535472     -1.449784      0.077792
  C      -0.731191     -0.693752     -0.506985
  C      -1.514265      0.246995     -1.205905
  C       0.667757     -0.597642     -0.583789
  C      -2.888214     -1.067560     -0.235589
  C       0.344866      1.267420     -1.910609
  H      -1.453250     -2.279466      0.768698
  H      -3.788453     -1.547387      0.127024
  H       0.828037      2.065614     -2.469458
  H       2.508535     -1.406164     -0.230119
  H       1.212531     -2.396491      0.230424
27
Coordinates from ORCA-job biuret_adenine_opt_freq E -860.881257916659
  N       5.951024     -0.218525      1.747828
  C       4.690985     -0.585455      1.341289
  O       4.501275     -1.312543      0.367253
  N       3.605492     -0.090899      2.067191
  C       3.486728      0.824805      3.122822
  O       2.480331      0.845808      3.813501
  N       4.569694      1.662266      3.339643
  H       6.688913     -0.727072      1.280612
  H       6.110676      0.045818      2.711203
  H       2.716194     -0.502673      1.787648
  H       5.087588      1.984467      2.530547
  H       4.364696      2.379254      4.024102
  N      -1.642664     -1.539749      0.110372
  N      -2.866340     -0.027396     -1.027357
  N      -0.994477      1.241731     -1.941807
  N       1.179240      0.413606     -1.299848
  N       1.534683     -1.439012      0.078976
  C      -0.735003     -0.692506     -0.507952
  C      -1.520999      0.240925     -1.213545
  C       0.663572     -0.592833     -0.586147
  C      -2.890842     -1.072777     -0.236257
  C       0.334912      1.262875     -1.924478
  H      -1.452435     -2.270741      0.779370
  H      -3.789564     -1.553659      0.128718
  H       0.816102      2.058937     -2.488072
  H       2.506400     -1.394702     -0.233038
  H       1.214359     -2.385654      0.237416
27
Coordinates from ORCA-job biuret_adenine_opt_freq E -860.881267287653
  N       5.953621     -0.222390      1.753769
  C       4.693682     -0.581418      1.339562
  O       4.504677     -1.302669      0.361195
  N       3.607294     -0.085181      2.063150
  C       3.488057      0.825937      3.122566
  O       2.477650      0.849383      3.807387
  N       4.574272      1.656011      3.350110
  H       6.691154     -0.731743      1.286827
  H       6.110173      0.034066      2.719787
  H       2.717352     -0.492304      1.778300
  H       5.100558      1.977746      2.546253
  H       4.369283      2.371803      4.035812
  N      -1.642073     -1.538481      0.114172
  N      -2.869939     -0.033803     -1.029254
  N      -1.001686      1.235434     -1.950869
  N       1.174153      0.414847     -1.307135
  N       1.535649     -1.431691      0.077644
  C      -0.736798     -0.691464     -0.507970
  C      -1.525410      0.236919     -1.217323
  C       0.661430     -0.589471     -0.588669
  C      -2.891578     -1.075653     -0.233412
  C       0.327696      1.259813     -1.934548
  H      -1.449881     -2.263712      0.788881
  H      -3.788914     -1.556999      0.134333
  H       0.806859      2.054205     -2.502186
  H       2.505795     -1.386599     -0.239027
  H       1.217463     -2.378286      0.240638
27
Coordinates from ORCA-job biuret_adenine_opt_freq E -860.881266203160
  N       5.956174     -0.229855      1.763527
  C       4.696443     -0.575691      1.337391
  O       4.508767     -1.288040      0.352414
  N       3.608660     -0.076012      2.056831
  C       3.489838      0.828103      3.122062
  O       2.473891      0.855118      3.798600
  N       4.580920      1.646817      3.365339
  H       6.693414     -0.740615      1.297666
  H       6.108328      0.016138      2.732953
  H       2.717807     -0.476533      1.764436
  H       5.119455      1.968111      2.569459
  H       4.375622      2.360607      4.053046
  N      -1.639923     -1.536350      0.120407
  N      -2.874896     -0.043124     -1.030432
  N      -1.012854      1.226067     -1.964370
  N       1.166572      0.416900     -1.319204
  N       1.538144     -1.420462      0.074472
  C      -0.738635     -0.690185     -0.508749
  C      -1.531708      0.230788     -1.222793
  C       0.659031     -0.584490     -0.593557
  C      -2.891633     -1.079586     -0.227430
  C       0.316556      1.255440     -1.950269
  H      -1.444125     -2.253959      0.802221
  H      -3.786626     -1.561363      0.145409
  H       0.791739      2.047646     -2.524205
  H       2.505972     -1.373967     -0.248952
  H       1.223608     -2.367205      0.243724
27
Coordinates from ORCA-job biuret_adenine_opt_freq E -860.881267527134
  N       5.955924     -0.233145      1.770120
  C       4.697452     -0.575861      1.337615
  O       4.513232     -1.286167      0.350543
  N       3.607322     -0.075650      2.053098
  C       3.485602      0.829404      3.116938
  O       2.465876      0.859043      3.787837
  N       4.577244      1.645374      3.365775
  H       6.694841     -0.743610      1.306593
  H       6.104880      0.010001      2.740766
  H       2.717444     -0.475799      1.757569
  H       5.122974      1.963363      2.573521
  H       4.369143      2.360953      4.050767
  N      -1.636768     -1.535510      0.123931
  N      -2.874627     -0.042401     -1.023966
  N      -1.014987      1.226208     -1.963341
  N       1.165987      0.417446     -1.323380
  N       1.541240     -1.419758      0.069267
  C      -0.737073     -0.689967     -0.508399
  C      -1.531928      0.231015     -1.220262
  C       0.660304     -0.584009     -0.596603
  C      -2.889346     -1.078570     -0.220508
  C       0.314569      1.255966     -1.952349
  H      -1.439046     -2.253039      0.805287
  H      -3.783389     -1.559951      0.155113
  H       0.787804      2.048288     -2.527698
  H       2.508121     -1.372456     -0.256745
  H       1.227746     -2.366868      0.238503
27
Coordinates from ORCA-job biuret_adenine_opt_freq E -860.881281052643
  N       5.955304     -0.240631      1.779604
  C       4.697436     -0.575065      1.338855
  O       4.515843     -1.281403      0.348406
  N       3.605765     -0.071285      2.049371
  C       3.483798      0.832338      3.114236
  O       2.460516      0.865460      3.779499
  N       4.578022      1.642157      3.371017
  H       6.694749     -0.752793      1.318824
  H       6.101213     -0.001474      2.751701
  H       2.715847     -0.468771      1.749797
  H       5.131913      1.957687      2.583519
  H       4.368451      2.357894      4.055415
  N      -1.632122     -1.534249      0.128615
  N      -2.876387     -0.045119     -1.017544
  N      -1.022189      1.223436     -1.967450
  N       1.162219      0.419276     -1.333496
  N       1.545405     -1.414412      0.061960
  C      -0.735938     -0.689862     -0.510318
  C      -1.534760      0.228932     -1.220483
  C       0.660937     -0.581805     -0.603237
  C      -2.886581     -1.079331     -0.211487
  C       0.307456      1.255271     -1.961290
  H      -1.430471     -2.251298      0.809314
  H      -3.778547     -1.560541      0.169264
  H       0.776572      2.047591     -2.539950
  H       2.511373     -1.365376     -0.266343
  H       1.234717     -2.362327      0.232190
27
Coordinates from ORCA-job biuret_adenine_opt_freq E -860.881283556534
  N       5.954978     -0.248335      1.790615
  C       4.698263     -0.575568      1.340949
  O       4.520322     -1.278672      0.347483
  N       3.604520     -0.068257      2.045411
  C       3.480056      0.835561      3.109793
  O       2.452027      0.873697      3.767550
  N       4.576894      1.639082      3.375065
  H       6.695096     -0.762648      1.333356
  H       6.096441     -0.013096      2.764320
  H       2.715035     -0.462815      1.740922
  H       5.139470      1.951005      2.592337
  H       4.365499      2.355751      4.057940
  N      -1.626438     -1.532895      0.133910
  N      -2.877915     -0.046825     -1.008390
  N      -1.029620      1.221758     -1.969741
  N       1.158749      0.421574     -1.344584
  N       1.550217     -1.409268      0.052735
  C      -0.734286     -0.689479     -0.511913
  C      -1.537494      0.227702     -1.219132
  C       0.661945     -0.579397     -0.610938
  C      -2.882991     -1.079660     -0.200538
  C       0.300071      1.255250     -1.969971
  H      -1.420394     -2.250442      0.812736
  H      -3.772603     -1.560775      0.185808
  H       0.765041      2.047708     -2.551765
  H       2.515446     -1.358612     -0.277307
  H       1.242213     -2.358046      0.223338
27
Coordinates from ORCA-job biuret_adenine_opt_freq E -860.881288478130
  N       5.956022     -0.262797      1.807926
  C       4.700146     -0.573453      1.344011
  O       4.524899     -1.269164      0.344811
  N       3.605199     -0.057414      2.039926
  C       3.480381      0.841266      3.108866
  O       2.446103      0.887337      3.756172
  N       4.583806      1.630278      3.390601
  H       6.694637     -0.783033      1.354924
  H       6.090757     -0.035525      2.784486
  H       2.714655     -0.442955      1.726444
  H       5.158218      1.940228      2.615761
  H       4.373182      2.344665      4.076090
  N      -1.618696     -1.530059      0.142348
  N      -2.884050     -0.055858     -1.000015
  N      -1.047457      1.213354     -1.982711
  N       1.148441      0.425984     -1.367548
  N       1.556346     -1.394320      0.039767
  C      -0.734399     -0.688362     -0.516299
  C      -1.546136      0.221870     -1.222895
  C       0.660670     -0.572914     -0.624865
  C      -2.879286     -1.083593     -0.185745
  C       0.282025      1.251841     -1.992786
  H      -1.404812     -2.245725      0.820701
  H      -3.764304     -1.565260      0.210353
  H       0.739655      2.042919     -2.582216
  H       2.520370     -1.340800     -0.292975
  H       1.254167     -2.344211      0.214858
27
Coordinates from ORCA-job biuret_adenine_opt_freq E -860.881296933519
  N       5.958570     -0.280988      1.829730
  C       4.704304     -0.570644      1.347687
  O       4.531961     -1.256806      0.341436
  N       3.608096     -0.043260      2.032948
  C       3.481741      0.848144      3.108220
  O       2.439356      0.904932      3.741529
  N       4.593240      1.617743      3.411918
  H       6.694642     -0.809275      1.381871
  H       6.083448     -0.064155      2.809986
  H       2.716314     -0.415625      1.706885
  H       5.182008      1.925732      2.647129
  H       4.384398      2.328850      4.101339
  N      -1.609441     -1.526000      0.153079
  N      -2.892516     -0.068707     -0.991092
  N      -1.071139      1.201581     -2.000429
  N       1.134258      0.431667     -1.397027
  N       1.563274     -1.373650      0.024156
  C      -0.735384     -0.686121     -0.521142
  C      -1.558066      0.213974     -1.228297
  C       0.658056     -0.563609     -0.641933
  C      -2.875172     -1.089452     -0.168284
  C       0.257865      1.246852     -2.022603
  H      -1.385856     -2.238375      0.831725
  H      -3.754172     -1.572293      0.239615
  H       0.706713      2.035141     -2.622429
  H       2.525425     -1.316866     -0.312951
  H       1.268616     -2.324491      0.206924
27
Coordinates from ORCA-job biuret_adenine_opt_freq E -860.881295451225
  N       5.960693     -0.289337      1.838408
  C       4.706795     -0.568100      1.349053
  O       4.533705     -1.249710      0.339933
  N       3.611065     -0.034019      2.030297
  C       3.485518      0.850947      3.111152
  O       2.440510      0.912148      3.739551
  N       4.601394      1.610115      3.425403
  H       6.694389     -0.822492      1.392375
  H       6.081226     -0.076232      2.820034
  H       2.718079     -0.398261      1.698263
  H       5.194285      1.920226      2.664625
  H       4.395414      2.317612      4.119367
  N      -1.606507     -1.523743      0.157489
  N      -2.897824     -0.076893     -0.990465
  N      -1.083774      1.194019     -2.012043
  N       1.126026      0.433690     -1.412223
  N       1.565141     -1.362036      0.018216
  C      -0.737266     -0.684695     -0.523804
  C      -1.565153      0.208986     -1.233165
  C       0.655465     -0.558621     -0.649818
  C      -2.874665     -1.093407     -0.162550
  C       0.244857      1.242954     -2.039120
  H      -1.378687     -2.233808      0.837128
  H      -3.750794     -1.577126      0.250439
  H       0.690003      2.028791     -2.644906
  H       2.526305     -1.303962     -0.321148
  H       1.274342     -2.312747      0.207500
27
Coordinates from ORCA-job biuret_adenine_opt_freq E -860.881299198470
  N       5.963129     -0.295915      1.845162
  C       4.709702     -0.566267      1.350088
  O       4.535828     -1.244404      0.338898
  N       3.614193     -0.026885      2.028136
  C       3.489039      0.852568      3.113425
  O       2.442113      0.916956      3.738302
  N       4.608183      1.603664      3.435679
  H       6.695095     -0.832991      1.400983
  H       6.079898     -0.084761      2.827666
  H       2.720410     -0.384196      1.690952
  H       5.203635      1.916249      2.677851
  H       4.404744      2.308238      4.133372
  N      -1.604917     -1.522010      0.160591
  N      -2.902344     -0.084036     -0.991441
  N      -1.093868      1.187923     -2.021458
  N       1.119204      0.435346     -1.423567
  N       1.566065     -1.352110      0.014565
  C      -0.739280     -0.683162     -0.525451
  C      -1.571097      0.204920     -1.237278
  C       0.652945     -0.554135     -0.655082
  C      -2.874906     -1.097180     -0.159450
  C       0.234470      1.240103     -2.051489
  H      -1.374112     -2.229562      0.841838
  H      -3.748859     -1.581975      0.256847
  H       0.676832      2.023718     -2.662178
  H       2.526089     -1.293470     -0.327662
  H       1.278348     -2.302324      0.210689
27
Coordinates from ORCA-job biuret_adenine_opt_freq E -860.881302018546
  N       5.964458     -0.302584      1.851292
  C       4.711539     -0.564218      1.350536
  O       4.537355     -1.238496      0.336891
  N       3.616288     -0.020120      2.025689
  C       3.492189      0.854012      3.115221
  O       2.443634      0.920799      3.737113
  N       4.614215      1.597598      3.445090
  H       6.695127     -0.842917      1.408963
  H       6.078247     -0.093381      2.834560
  H       2.721790     -0.371450      1.683810
  H       5.212779      1.912349      2.690575
  H       4.412487      2.299371      4.146127
  N      -1.603021     -1.520413      0.163754
  N      -2.906143     -0.091062     -0.992527
  N      -1.102885      1.181749     -2.030611
  N       1.113125      0.437012     -1.433762
  N       1.567384     -1.342452      0.011631
  C      -0.740753     -0.681920     -0.526977
  C      -1.576175      0.200698     -1.241360
  C       0.650937     -0.549869     -0.659730
  C      -2.874681     -1.100659     -0.156301
  C       0.225252      1.237355     -2.062965
  H      -1.369363     -2.224464      0.847651
  H      -3.746614     -1.586264      0.263253
  H       0.664522      2.019255     -2.678062
  H       2.526199     -1.283357     -0.333744
  H       1.282649     -2.292273      0.213872
27
Coordinates from ORCA-job biuret_adenine_opt_freq E -860.881301719479
  N       5.964932     -0.305314      1.854844
  C       4.712726     -0.564757      1.351520
  O       4.539361     -1.238496      0.337407
  N       3.616801     -0.019202      2.024653
  C       3.491930      0.853898      3.114414
  O       2.442834      0.921584      3.735428
  N       4.614615      1.595924      3.445798
  H       6.696034     -0.846710      1.414597
  H       6.077084     -0.094441      2.837936
  H       2.722779     -0.368819      1.680749
  H       5.213633      1.911517      2.691973
  H       4.413096      2.297392      4.147229
  N      -1.601863     -1.520051      0.164824
  N      -2.907051     -0.092395     -0.991210
  N      -1.105677      1.181124     -2.031681
  N       1.111566      0.437453     -1.437672
  N       1.568308     -1.339580      0.009216
  C      -0.740856     -0.681342     -0.527279
  C      -1.577571      0.200116     -1.241383
  C       0.650605     -0.548495     -0.661786
  C      -2.874119     -1.101445     -0.154324
  C       0.222435      1.237476     -2.065501
  H      -1.367134     -2.223213      0.849269
  H      -3.745295     -1.587448      0.266338
  H       0.660297      2.019197     -2.681825
  H       2.526473     -1.280594     -0.337861
  H       1.284597     -2.289079      0.214317
27
Coordinates from ORCA-job biuret_adenine_opt_freq E -860.881303730680
  N       5.964601     -0.308652      1.857110
  C       4.712489     -0.563683      1.351624
  O       4.538972     -1.235658      0.336321
  N       3.616958     -0.015944      2.023734
  C       3.493666      0.854139      3.115890
  O       2.444767      0.921723      3.737239
  N       4.617548      1.593509      3.449602
  H       6.695250     -0.851432      1.417869
  H       6.076425     -0.097491      2.840168
  H       2.722539     -0.363377      1.678189
  H       5.217015      1.910959      2.696925
  H       4.416644      2.293091      4.153113
  N      -1.600774     -1.519485      0.166038
  N      -2.908460     -0.095518     -0.991816
  N      -1.109342      1.178178     -2.036015
  N       1.109202      0.437877     -1.442579
  N       1.569183     -1.335057      0.008036
  C      -0.741239     -0.681089     -0.528359
  C      -1.579471      0.197995     -1.243567
  C       0.649945     -0.546807     -0.664129
  C      -2.873731     -1.102838     -0.152925
  C       0.218722      1.236003     -2.070926
  H      -1.364747     -2.220153      0.852608
  H      -3.744049     -1.588994      0.269339
  H       0.654838      2.017439     -2.688857
  H       2.526790     -1.276059     -0.340514
  H       1.286799     -2.284377      0.215875
27
Coordinates from ORCA-job biuret_adenine_opt_freq E -860.881301011125
  N       5.964056     -0.308832      1.857523
  C       4.712096     -0.564439      1.352162
  O       4.539246     -1.236607      0.336810
  N       3.616310     -0.017427      2.024317
  C       3.493051      0.853281      3.115786
  O       2.444810      0.920116      3.738413
  N       4.616512      1.594273      3.447652
  H       6.695357     -0.850981      1.418623
  H       6.076484     -0.096251      2.840197
  H       2.722177     -0.365736      1.679006
  H       5.215070      1.911754      2.694289
  H       4.415071      2.294076      4.150793
  N      -1.600308     -1.519705      0.165773
  N      -2.908046     -0.094782     -0.990961
  N      -1.108870      1.178906     -2.035120
  N       1.109789      0.437808     -1.442906
  N       1.569642     -1.335132      0.007546
  C      -0.740802     -0.681224     -0.528611
  C      -1.578979      0.198421     -1.243143
  C       0.650308     -0.546927     -0.664525
  C      -2.873253     -1.102348     -0.152422
  C       0.219223      1.236383     -2.070568
  H      -1.364185     -2.219637      0.853068
  H      -3.743587     -1.588379      0.269968
  H       0.655043      2.018522     -2.687828
  H       2.527236     -1.276359     -0.341027
  H       1.287088     -2.284473      0.215174
