27
Coordinates from ORCA-job biuret_adenine_opt_freq E -860.881301011125
  N           5.96405643117045     -0.30883194808274      1.85752312253237
  C           4.71209599979237     -0.56443910397323      1.35216197881192
  O           4.53924606548006     -1.23660669602381      0.33681010578632
  N           3.61631016135449     -0.01742739860316      2.02431717266514
  C           3.49305130066410      0.85328059260568      3.11578553138691
  O           2.44481046259918      0.92011569830297      3.73841282484265
  N           4.61651160464984      1.59427276687144      3.44765172469588
  H           6.69535721806777     -0.85098118349331      1.41862293907066
  H           6.07648432980708     -0.09625083149765      2.84019701391834
  H           2.72217716274786     -0.36573624125132      1.67900626481462
  H           5.21506950814078      1.91175384839935      2.69428883046976
  H           4.41507146481105      2.29407627879832      4.15079325179687
  N          -1.60030828874113     -1.51970549575261      0.16577320064770
  N          -2.90804603702092     -0.09478194342763     -0.99096063544632
  N          -1.10886960757636      1.17890613562621     -2.03512003802812
  N           1.10978920974776      0.43780844142250     -1.44290563828256
  N           1.56964178810606     -1.33513229496107      0.00754633672822
  C          -0.74080236666611     -0.68122426884634     -0.52861112882203
  C          -1.57897929082430      0.19842068323900     -1.24314275102508
  C           0.65030761793794     -0.54692679519055     -0.66452453231981
  C          -2.87325270898640     -1.10234811148056     -0.15242187018738
  C           0.21922261814663      1.23638342170903     -2.07056806096571
  H          -1.36418450518970     -2.21963683271741      0.85306813993111
  H          -3.74358681798280     -1.58837939944647      0.26996818104242
  H           0.65504303988722      2.01852191566044     -2.68782843323285
  H           2.52723583278930     -1.27635886130777     -0.34102676464762
  H           1.28708780708762     -2.28447337657929      0.21517423381653
