29
Coordinates from ORCA-job dimethylurea_adenine_opt_freq E -770.523987411035
  O       4.826421     -2.204726      1.500893
  N       5.433974      0.014452      1.500893
  N       3.211653     -0.565706      1.500893
  C       4.516007     -1.015263      1.500493
  H       5.142922      0.986271      1.500593
  H       2.431576     -1.214178      1.500993
  C       6.879494     -0.252704      1.500893
  H       7.236777     -0.318736      2.528555
  H       7.075033     -1.193896      0.987062
  H       7.398521      0.556425      0.987062
  C       2.891280      0.868958      1.500748
  H       2.812094      1.223454      0.473050
  H       1.943506      1.029646      2.014563
  H       3.680682      1.417573      2.014524
  N      -1.199000     -1.399700      0.000000
  N      -2.075200      0.649900      0.000000
  N       0.033700      1.859400     -0.000100
  N       1.999800      0.415000      0.000000
  N       1.824100     -1.976000      0.000000
  C      -0.135900     -0.542100      0.000100
  C      -0.705600      0.724100      0.000100
  C       1.235900     -0.700400      0.000000
  C      -2.338600     -0.639400      0.000000
  C       1.360700      1.609200      0.000000
  H      -1.156600     -2.410300     -0.000200
  H      -3.322500     -1.086400     -0.000100
  H       2.003400      2.483100     -0.000100
  H       2.832200     -2.052800      0.000300
  H       1.250300     -2.808200      0.000400
29
Coordinates from ORCA-job dimethylurea_adenine_opt_freq E -770.597886383639
  O       4.845074     -2.182071      1.498097
  N       5.533718      0.005203      1.524554
  N       3.265084     -0.519595      1.536923
  C       4.569393     -0.980517      1.520496
  H       5.289928      0.984461      1.540569
  H       2.498694     -1.190175      1.526301
  C       6.961641     -0.331633      1.505405
  H       7.333025     -0.431200      2.527667
  H       7.104513     -1.274327      0.976308
  H       7.513692      0.458923      0.994874
  C       2.906356      0.911858      1.553547
  H       2.809231      1.283453      0.511737
  H       1.964309      1.057111      2.080571
  H       3.698772      1.459359      2.080123
  N      -1.241835     -1.430859     -0.007688
  N      -2.156740      0.608040     -0.050194
  N      -0.064816      1.854695     -0.068622
  N       1.947830      0.447486     -0.025478
  N       1.818212     -1.918455      0.002175
  C      -0.191390     -0.547632     -0.021550
  C      -0.787098      0.709370     -0.047892
  C       1.193750     -0.672328     -0.019265
  C      -2.395435     -0.686371     -0.025862
  C       1.254950      1.634942     -0.051943
  H      -1.183777     -2.439705      0.010771
  H      -3.371956     -1.149943     -0.021187
  H       1.870325      2.529191     -0.054323
  H       2.828062     -1.965302      0.005695
  H       1.273127     -2.767010      0.009806
29
Coordinates from ORCA-job dimethylurea_adenine_opt_freq E -770.651534393200
  O       4.843010     -2.165872      1.482116
  N       5.596237     -0.002877      1.545004
  N       3.309758     -0.474635      1.565375
  C       4.601893     -0.952923      1.531805
  H       5.381432      0.981114      1.581784
  H       2.552976     -1.155213      1.542398
  C       7.008231     -0.386421      1.507286
  H       7.394145     -0.520683      2.522505
  H       7.112895     -1.323340      0.958853
  H       7.581345      0.395384      1.004238
  C       2.938071      0.948342      1.602384
  H       2.827828      1.326740      0.560721
  H       2.000785      1.086181      2.139414
  H       3.733838      1.489933      2.141096
  N      -1.279792     -1.459603     -0.011237
  N      -2.215545      0.576106     -0.089869
  N      -0.129653      1.842310     -0.125953
  N       1.906618      0.465741     -0.051718
  N       1.817029     -1.873865      0.001618
  C      -0.235602     -0.559260     -0.038983
  C      -0.845301      0.693681     -0.087559
  C       1.160629     -0.656485     -0.036984
  C      -2.438883     -0.720178     -0.043920
  C       1.180828      1.642270     -0.098445
  H      -1.216268     -2.467015      0.023460
  H      -3.412025     -1.191572     -0.033556
  H       1.781920      2.547873     -0.101535
  H       2.828338     -1.889543      0.005094
  H       1.301901     -2.739220      0.016225
29
Coordinates from ORCA-job dimethylurea_adenine_opt_freq E -770.706554552833
  O       4.822315     -2.137632      1.459288
  N       5.675324     -0.015719      1.568776
  N       3.365510     -0.401555      1.614273
  C       4.636974     -0.911828      1.550567
  H       5.502223      0.973834      1.635502
  H       2.620361     -1.090249      1.576259
  C       7.061934     -0.464742      1.496408
  H       7.471510     -0.649331      2.496632
  H       7.108911     -1.390919      0.921790
  H       7.662900      0.301833      1.000089
  C       2.982357      1.009326      1.679464
  H       2.851389      1.390878      0.651692
  H       2.050072      1.132124      2.230776
  H       3.774643      1.545142      2.230876
  N      -1.322346     -1.499795     -0.020362
  N      -2.286604      0.527610     -0.149549
  N      -0.213341      1.823839     -0.202262
  N       1.842315      0.493480     -0.083460
  N       1.816584     -1.820408      0.004715
  C      -0.288928     -0.578784     -0.063733
  C      -0.916317      0.668183     -0.143362
  C       1.117244     -0.639143     -0.058872
  C      -2.487655     -0.769488     -0.075474
  C       1.091793      1.651115     -0.158339
  H      -1.252278     -2.505158      0.036026
  H      -3.455778     -1.252162     -0.059725
  H       1.680338      2.567416     -0.164160
  H       2.828805     -1.790712      0.011654
  H       1.346388     -2.710185      0.026127
29
Coordinates from ORCA-job dimethylurea_adenine_opt_freq E -770.746112650055
  O       4.791126     -2.112116      1.443675
  N       5.740218     -0.032055      1.589824
  N       3.418677     -0.329436      1.683790
  C       4.664066     -0.878938      1.578264
  H       5.600491      0.961037      1.688434
  H       2.681306     -1.019150      1.643903
  C       7.102037     -0.532970      1.474376
  H       7.539142     -0.764685      2.454206
  H       7.095755     -1.445713      0.876390
  H       7.721811      0.220515      0.979753
  C       3.040975      1.073785      1.763230
  H       2.881702      1.454469      0.762944
  H       2.116603      1.181602      2.334591
  H       3.829281      1.606441      2.316524
  N      -1.354079     -1.535706     -0.034793
  N      -2.347040      0.478726     -0.210406
  N      -0.295314      1.809234     -0.274943
  N       1.768392      0.527043     -0.112346
  N       1.809295     -1.785680      0.003676
  C      -0.332429     -0.597834     -0.089368
  C      -0.976995      0.643368     -0.198277
  C       1.078177     -0.628152     -0.079901
  C      -2.525729     -0.817775     -0.111486
  C       1.012742      1.664782     -0.216774
  H      -1.278452     -2.538952      0.041017
  H      -3.488303     -1.312487     -0.091338
  H       1.593687      2.587201     -0.237419
  H       2.821276     -1.724613      0.012988
  H       1.378222     -2.694970      0.021081
29
Coordinates from ORCA-job dimethylurea_adenine_opt_freq E -770.769596098468
  O       4.757677     -2.094043      1.435278
  N       5.788019     -0.053221      1.604352
  N       3.460532     -0.270851      1.763642
  C       4.681458     -0.860012      1.604951
  H       5.676868      0.939644      1.736639
  H       2.718565     -0.953683      1.732984
  C       7.127850     -0.593311      1.444265
  H       7.587061     -0.866275      2.403541
  H       7.076229     -1.491112      0.825613
  H       7.760468      0.150199      0.950495
  C       3.104292      1.135118      1.845413
  H       2.918632      1.519240      0.857546
  H       2.188866      1.236015      2.435555
  H       3.892124      1.670354      2.390607
  N      -1.368598     -1.564740     -0.054595
  N      -2.395718      0.429888     -0.265818
  N      -0.374633      1.798486     -0.333553
  N       1.697631      0.561746     -0.141168
  N       1.802107     -1.754369      0.008724
  C      -0.361526     -0.610884     -0.113945
  C      -1.026714      0.621266     -0.245889
  C       1.048615     -0.616325     -0.094279
  C      -2.550663     -0.866709     -0.150313
  C       0.940981      1.679865     -0.267873
  H      -1.282682     -2.565683      0.036679
  H      -3.505316     -1.377135     -0.128191
  H       1.512237      2.607385     -0.306956
  H       2.813047     -1.677686      0.018066
  H       1.399231     -2.676198      0.019847
29
Coordinates from ORCA-job dimethylurea_adenine_opt_freq E -770.782540885376
  O       4.744607     -2.080924      1.420945
  N       5.821348     -0.066545      1.616736
  N       3.496394     -0.240096      1.845076
  C       4.699594     -0.852827      1.629654
  H       5.728750      0.922379      1.788160
  H       2.741713     -0.910865      1.819283
  C       7.146093     -0.623610      1.404072
  H       7.627090     -0.933449      2.341246
  H       7.061401     -1.502117      0.761571
  H       7.778887      0.121941      0.913792
  C       3.166938      1.172141      1.929413
  H       2.963944      1.561612      0.936203
  H       2.259123      1.277513      2.531421
  H       3.958544      1.711887      2.461993
  N      -1.384678     -1.581454     -0.077752
  N      -2.432331      0.397351     -0.327310
  N      -0.432058      1.790086     -0.389836
  N       1.644556      0.577997     -0.164565
  N       1.784494     -1.737524      0.032981
  C      -0.386779     -0.618704     -0.138089
  C      -1.064311      0.606217     -0.294135
  C       1.021244     -0.611984     -0.099758
  C      -2.573811     -0.898991     -0.196509
  C       0.889378      1.685554     -0.312930
  H      -1.291329     -2.580164      0.029379
  H      -3.522747     -1.420149     -0.177142
  H       1.452823      2.616386     -0.366494
  H       2.795091     -1.660508      0.051758
  H       1.392672     -2.664182      0.042451
29
Coordinates from ORCA-job dimethylurea_adenine_opt_freq E -770.788550394068
  O       4.732993     -2.070346      1.411023
  N       5.838038     -0.073865      1.623066
  N       3.516978     -0.223637      1.906827
  C       4.707702     -0.848225      1.646279
  H       5.762327      0.910497      1.823905
  H       2.748499     -0.878628      1.884275
  C       7.151014     -0.641922      1.368409
  H       7.646883     -0.978209      2.288516
  H       7.041184     -1.504547      0.708431
  H       7.782388      0.106340      0.880632
  C       3.210016      1.194060      1.992291
  H       3.001975      1.586265      0.994788
  H       2.307130      1.309829      2.599303
  H       4.006464      1.737263      2.513283
  N      -1.392968     -1.592648     -0.094432
  N      -2.453054      0.374905     -0.374296
  N      -0.464435      1.783328     -0.431439
  N       1.617357      0.585382     -0.177324
  N       1.774815     -1.726229      0.057109
  C      -0.401529     -0.623652     -0.154830
  C      -1.086642      0.594993     -0.329980
  C       1.005194     -0.608897     -0.100409
  C      -2.586618     -0.921386     -0.231870
  C       0.858895      1.688037     -0.342985
  H      -1.292864     -2.589337      0.024840
  H      -3.531430     -1.449917     -0.216287
  H       1.414466      2.622560     -0.404549
  H       2.785836     -1.650828      0.081105
  H       1.386026     -2.654217      0.065935
29
Coordinates from ORCA-job dimethylurea_adenine_opt_freq E -770.794812881875
  O       4.698228     -2.046680      1.390897
  N       5.850258     -0.080506      1.627176
  N       3.543960     -0.198050      2.018400
  C       4.707978     -0.836091      1.674280
  H       5.808042      0.893463      1.880932
  H       2.752834     -0.825145      1.999527
  C       7.139046     -0.663969      1.291909
  H       7.664481     -1.046520      2.176715
  H       6.982126     -1.496192      0.603215
  H       7.764399      0.090935      0.806829
  C       3.270951      1.226733      2.097774
  H       3.064597      1.618612      1.095771
  H       2.373632      1.365192      2.707796
  H       4.075903      1.773371      2.600709
  N      -1.398658     -1.610240     -0.123416
  N      -2.469718      0.342052     -0.458618
  N      -0.493445      1.768543     -0.497657
  N       1.592240      0.590542     -0.184320
  N       1.762113     -1.715636      0.112991
  C      -0.414832     -0.633464     -0.179225
  C      -1.106798      0.575516     -0.389147
  C       0.989845     -0.607442     -0.090519
  C      -2.595508     -0.953234     -0.297390
  C       0.829342      1.685530     -0.383600
  H      -1.290605     -2.603414      0.016534
  H      -3.535348     -1.490560     -0.293095
  H       1.375919      2.623882     -0.457328
  H       2.773515     -1.646848      0.147937
  H       1.372142     -2.643410      0.116540
29
Coordinates from ORCA-job dimethylurea_adenine_opt_freq E -770.800297627473
  O       4.599897     -1.994439      1.349025
  N       5.835874     -0.085039      1.619645
  N       3.569278     -0.157285      2.196413
  C       4.675296     -0.806873      1.709122
  H       5.858430      0.861967      1.962123
  H       2.747716     -0.742963      2.178825
  C       7.073460     -0.687431      1.148319
  H       7.644153     -1.150544      1.963703
  H       6.833855     -1.460907      0.416608
  H       7.690858      0.079137      0.671589
  C       3.338286      1.275094      2.253840
  H       3.147788      1.659852      1.246683
  H       2.444479      1.449006      2.859075
  H       4.154796      1.821406      2.737672
  N      -1.382398     -1.635616     -0.162169
  N      -2.456053      0.296589     -0.589917
  N      -0.491493      1.740273     -0.592055
  N       1.590686      0.589469     -0.170300
  N       1.756913     -1.709825      0.219920
  C      -0.405545     -0.650973     -0.206440
  C      -1.099410      0.544486     -0.474463
  C       0.994458     -0.610922     -0.057521
  C      -2.577340     -0.995409     -0.399550
  C       0.826424      1.671874     -0.429092
  H      -1.269219     -2.622967      0.010841
  H      -3.511713     -1.541790     -0.417970
  H       1.367349      2.611949     -0.517748
  H       2.769511     -1.656261      0.276138
  H       1.360302     -2.634889      0.209298
29
Coordinates from ORCA-job dimethylurea_adenine_opt_freq E -770.804226239895
  O       4.473520     -1.905161      1.270088
  N       5.800782     -0.071944      1.609177
  N       3.607142     -0.132905      2.409047
  C       4.628229     -0.763242      1.740113
  H       5.908156      0.815217      2.075173
  H       2.754770     -0.674215      2.376673
  C       6.962768     -0.659807      0.958357
  H       7.580933     -1.235055      1.659469
  H       6.622479     -1.332585      0.169693
  H       7.569154      0.135168      0.515550
  C       3.410526      1.306829      2.438376
  H       3.245170      1.678799      1.423137
  H       2.519219      1.519172      3.033672
  H       4.240872      1.846303      2.906920
  N      -1.369696     -1.652303     -0.199724
  N      -2.403713      0.265776     -0.764487
  N      -0.429515      1.696428     -0.718806
  N       1.618528      0.552387     -0.136408
  N       1.725121     -1.734950      0.380030
  C      -0.384270     -0.675377     -0.231827
  C      -1.053781      0.510188     -0.585495
  C       1.005973     -0.638682     -0.000477
  C      -2.545114     -1.016569     -0.527827
  C       0.876600      1.625887     -0.483420
  H      -1.271953     -2.631318      0.022870
  H      -3.481022     -1.558554     -0.575495
  H       1.431445      2.556061     -0.589506
  H       2.739617     -1.718975      0.482975
  H       1.304700     -2.649605      0.353767
29
Coordinates from ORCA-job dimethylurea_adenine_opt_freq E -770.805664460045
  O       4.470079     -1.853431      1.224942
  N       5.806438     -0.041522      1.604256
  N       3.666322     -0.148752      2.528124
  C       4.639453     -0.734208      1.745440
  H       5.952769      0.793127      2.150759
  H       2.804208     -0.676337      2.482733
  C       6.934781     -0.589909      0.864598
  H       7.572181     -1.222834      1.494931
  H       6.554845     -1.196791      0.041579
  H       7.532752      0.230982      0.459706
  C       3.466785      1.298264      2.543176
  H       3.306202      1.665694      1.525825
  H       2.582580      1.524894      3.142792
  H       4.308257      1.831930      2.998370
  N      -1.412767     -1.647172     -0.219246
  N      -2.384587      0.270172     -0.887090
  N      -0.380829      1.660183     -0.817395
  N       1.620039      0.495155     -0.118935
  N       1.647514     -1.770850      0.491223
  C      -0.406198     -0.691835     -0.249081
  C      -1.036795      0.492572     -0.667396
  C       0.975251     -0.675692      0.037584
  C      -2.561721     -1.000076     -0.611759
  C       0.913759      1.569360     -0.531427
  H      -1.343628     -2.618789      0.042846
  H      -3.506648     -1.524536     -0.675551
  H       1.495157      2.481881     -0.650040
  H       2.669018     -1.790874      0.607087
  H       1.201423     -2.673634      0.453564
29
Coordinates from ORCA-job dimethylurea_adenine_opt_freq E -770.806148245226
  O       4.387863     -1.825640      1.251285
  N       5.773358     -0.045498      1.585090
  N       3.682127     -0.129907      2.629848
  C       4.607430     -0.722272      1.786890
  H       5.973511      0.762506      2.153846
  H       2.808877     -0.640319      2.592176
  C       6.847171     -0.598445      0.771673
  H       7.503978     -1.260293      1.350462
  H       6.409437     -1.176510     -0.043231
  H       7.439921      0.220100      0.354505
  C       3.489040      1.325843      2.629870
  H       3.336943      1.695314      1.609759
  H       2.604992      1.558890      3.226747
  H       4.334561      1.851126      3.087858
  N      -1.390605     -1.659447     -0.233567
  N      -2.347756      0.245727     -0.957403
  N      -0.344803      1.638400     -0.867636
  N       1.638573      0.487484     -0.098561
  N       1.666436     -1.757589      0.543975
  C      -0.384004     -0.703435     -0.258007
  C      -1.004916      0.473034     -0.711535
  C       0.991313     -0.679080      0.058818
  C      -2.530590     -1.019613     -0.662951
  C       0.941612      1.554447     -0.547032
  H      -1.327777     -2.625857      0.048396
  H      -3.473853     -1.545506     -0.738932
  H       1.525512      2.466214     -0.660381
  H       2.695057     -1.766520      0.620123
  H       1.233232     -2.666182      0.489531
29
Coordinates from ORCA-job dimethylurea_adenine_opt_freq E -770.806719373572
  O       4.456425     -1.844240      1.285931
  N       5.798298     -0.025435      1.574732
  N       3.721538     -0.143646      2.651123
  C       4.655213     -0.730741      1.806098
  H       5.989898      0.785362      2.143034
  H       2.858504     -0.672760      2.627634
  C       6.877428     -0.562981      0.758515
  H       7.553047     -1.204992      1.338174
  H       6.446256     -1.158491     -0.047195
  H       7.448965      0.264369      0.329312
  C       3.505796      1.313829      2.654483
  H       3.341310      1.691391      1.638889
  H       2.627149      1.532906      3.264453
  H       4.353651      1.836937      3.110244
  N      -1.438181     -1.649401     -0.240926
  N      -2.359395      0.257588     -1.006432
  N      -0.339943      1.626128     -0.907062
  N       1.616380      0.460709     -0.093762
  N       1.616627     -1.770329      0.581232
  C      -0.418398     -0.707463     -0.266448
  C      -1.017025      0.471152     -0.744494
  C       0.952665     -0.695519      0.067850
  C      -2.563234     -1.000586     -0.695478
  C       0.940149      1.531209     -0.565573
  H      -1.393532     -2.611818      0.057700
  H      -3.512685     -1.514478     -0.776434
  H       1.537865      2.433880     -0.679796
  H       2.645917     -1.775681      0.631318
  H       1.185953     -2.679927      0.514492
29
Coordinates from ORCA-job dimethylurea_adenine_opt_freq E -770.807095479630
  O       4.450749     -1.826995      1.288464
  N       5.801226     -0.007458      1.551880
  N       3.755157     -0.137743      2.683519
  C       4.662190     -0.715004      1.803352
  H       6.010537      0.789586      2.133816
  H       2.893829     -0.672494      2.675836
  C       6.867571     -0.546955      0.720562
  H       7.544159     -1.199852      1.287050
  H       6.423341     -1.131787     -0.085932
  H       7.441094      0.279900      0.293162
  C       3.531085      1.315340      2.702549
  H       3.356017      1.702212      1.692152
  H       2.657519      1.520379      3.324381
  H       4.381630      1.834976      3.157790
  N      -1.455668     -1.649308     -0.254352
  N      -2.349443      0.252615     -1.063730
  N      -0.325454      1.610765     -0.943943
  N       1.606844      0.445380     -0.077803
  N       1.583500     -1.781519      0.631914
  C      -0.429046     -0.714798     -0.273838
  C      -1.010963      0.461661     -0.779166
  C       0.934926     -0.707451      0.085138
  C      -2.567447     -0.999600     -0.739244
  C       0.946914      1.514575     -0.576206
  H      -1.424253     -2.607055      0.060606
  H      -3.518936     -1.507978     -0.830343
  H       1.552064      2.411831     -0.691897
  H       2.607025     -1.783024      0.691646
  H       1.160472     -2.693229      0.544251
29
Coordinates from ORCA-job dimethylurea_adenine_opt_freq E -770.807405726804
  O       4.432112     -1.813887      1.309118
  N       5.790601      0.011881      1.518292
  N       3.791667     -0.127342      2.726357
  C       4.665215     -0.703602      1.814189
  H       6.021889      0.801125      2.103059
  H       2.935200     -0.669461      2.750467
  C       6.835824     -0.534186      0.664623
  H       7.522247     -1.190101      1.215925
  H       6.371216     -1.117792     -0.131350
  H       7.403259      0.289695      0.223702
  C       3.565963      1.321808      2.768581
  H       3.377063      1.723166      1.766018
  H       2.698875      1.511182      3.404282
  H       4.420016      1.836392      3.224236
  N      -1.467409     -1.651465     -0.273796
  N      -2.328900      0.241809     -1.136747
  N      -0.301853      1.590078     -0.987434
  N       1.599648      0.429239     -0.052011
  N       1.549718     -1.786951      0.692701
  C      -0.435098     -0.723510     -0.281248
  C      -0.996782      0.447957     -0.822079
  C       0.918253     -0.717668      0.110146
  C      -2.562713     -1.003306     -0.796990
  C       0.960137      1.494608     -0.584305
  H      -1.451293     -2.602721      0.061390
  H      -3.515160     -1.507085     -0.902671
  H       1.572309      2.387140     -0.697099
  H       2.570815     -1.777138      0.751864
  H       1.143820     -2.702892      0.572395
29
Coordinates from ORCA-job dimethylurea_adenine_opt_freq E -770.807645660116
  O       4.408717     -1.806782      1.338450
  N       5.769897      0.027351      1.480482
  N       3.819902     -0.112153      2.761992
  C       4.657941     -0.691435      1.822397
  H       6.022553      0.814944      2.058683
  H       2.970375     -0.660712      2.828443
  C       6.792742     -0.532892      0.608514
  H       7.487076     -1.189734      1.148889
  H       6.306907     -1.118908     -0.172968
  H       7.355660      0.283639      0.148629
  C       3.603292      1.334005      2.834946
  H       3.399198      1.753831      1.842800
  H       2.743428      1.511309      3.484000
  H       4.461681      1.842342      3.290355
  N      -1.468326     -1.656811     -0.294770
  N      -2.304510      0.225389     -1.205582
  N      -0.280186      1.572387     -1.021292
  N       1.594804      0.421692     -0.022793
  N       1.524757     -1.787651      0.742440
  C      -0.434831     -0.730668     -0.287564
  C      -0.980918      0.434455     -0.858807
  C       0.908059     -0.721933      0.134220
  C      -2.548967     -1.014492     -0.854568
  C       0.971226      1.481365     -0.583775
  H      -1.463629     -2.601406      0.059193
  H      -3.499389     -1.518292     -0.976997
  H       1.586041      2.372658     -0.690542
  H       2.546101     -1.767198      0.805787
  H       1.137041     -2.707330      0.591053
29
Coordinates from ORCA-job dimethylurea_adenine_opt_freq E -770.807861062007
  O       4.372792     -1.797778      1.370087
  N       5.733356      0.042783      1.443435
  N       3.842710     -0.098453      2.807218
  C       4.643045     -0.681833      1.841961
  H       6.011433      0.831054      2.009069
  H       2.999798     -0.648281      2.920032
  C       6.720133     -0.523697      0.534015
  H       7.431946     -1.182545      1.048526
  H       6.202501     -1.108603     -0.227574
  H       7.268248      0.289435      0.050874
  C       3.649206      1.346089      2.911574
  H       3.433752      1.785614      1.930485
  H       2.796818      1.521875      3.571169
  H       4.514974      1.843471      3.365368
  N      -1.459723     -1.662461     -0.320818
  N      -2.262489      0.207870     -1.284591
  N      -0.239625      1.551197     -1.058426
  N       1.600698      0.410133      0.013364
  N       1.499316     -1.793834      0.798416
  C      -0.424707     -0.738812     -0.294652
  C      -0.949535      0.418763     -0.900702
  C       0.905626     -0.729065      0.163758
  C      -2.521317     -1.025823     -0.921989
  C       0.997644      1.463154     -0.580373
  H      -1.469997     -2.598623      0.054896
  H      -3.469238     -1.528978     -1.064720
  H       1.616899      2.352161     -0.680327
  H       2.520587     -1.773393      0.886279
  H       1.121789     -2.714449      0.625259
29
Coordinates from ORCA-job dimethylurea_adenine_opt_freq E -770.808073124396
  O       4.348238     -1.798844      1.417225
  N       5.695536      0.051918      1.407760
  N       3.859179     -0.080097      2.844187
  C       4.623507     -0.670091      1.857828
  H       5.994205      0.848354      1.951057
  H       3.026524     -0.629504      3.009950
  C       6.648115     -0.527949      0.470328
  H       7.372398     -1.187576      0.965889
  H       6.101680     -1.114272     -0.269625
  H       7.184724      0.278062     -0.036995
  C       3.696167      1.364162      2.981431
  H       3.467482      1.828671      2.014642
  H       2.854883      1.543678      3.654541
  H       4.574055      1.844598      3.430253
  N      -1.445847     -1.672850     -0.350070
  N      -2.226993      0.187320     -1.350940
  N      -0.211253      1.536158     -1.083469
  N       1.602341      0.407560      0.047208
  N       1.485563     -1.794118      0.833101
  C      -0.414644     -0.745869     -0.303344
  C      -0.925034      0.404575     -0.934339
  C       0.905138     -0.731203      0.185724
  C      -2.493049     -1.043541     -0.983314
  C       1.012471      1.454093     -0.570316
  H      -1.465998     -2.601740      0.042924
  H      -3.436011     -1.550092     -1.145574
  H       1.631032      2.344928     -0.659193
  H       2.507470     -1.774470      0.938737
  H       1.114761     -2.714890      0.646010
29
Coordinates from ORCA-job dimethylurea_adenine_opt_freq E -770.808255023057
  O       4.325217     -1.796530      1.452876
  N       5.663359      0.056989      1.388342
  N       3.868333     -0.066223      2.876894
  C       4.608551     -0.662661      1.878844
  H       5.976184      0.863176      1.908574
  H       3.040903     -0.608899      3.081807
  C       6.580176     -0.524872      0.417157
  H       7.318479     -1.187853      0.886549
  H       6.006225     -1.107305     -0.304717
  H       7.101639      0.280494     -0.106637
  C       3.738929      1.378577      3.034887
  H       3.503723      1.863574      2.079537
  H       2.910217      1.571866      3.719907
  H       4.633017      1.836511      3.475095
  N      -1.432616     -1.682112     -0.376934
  N      -2.193036      0.172352     -1.404034
  N      -0.182769      1.523969     -1.100418
  N       1.607155      0.401151      0.074801
  N       1.475101     -1.800541      0.857225
  C      -0.403830     -0.753322     -0.312229
  C      -0.900745      0.392950     -0.959762
  C       0.907378     -0.737740      0.202192
  C      -2.466567     -1.056601     -1.035094
  C       1.029078      1.443994     -0.560221
  H      -1.463005     -2.604943      0.029473
  H      -3.405568     -1.564652     -1.214625
  H       1.648726      2.335133     -0.639694
  H       2.495170     -1.790487      0.988346
  H       1.097216     -2.719025      0.673476
29
Coordinates from ORCA-job dimethylurea_adenine_opt_freq E -770.808410406711
  O       4.311083     -1.794563      1.484593
  N       5.644929      0.057307      1.378488
  N       3.875201     -0.049962      2.898173
  C       4.598672     -0.654816      1.894552
  H       5.962615      0.876872      1.873768
  H       3.050081     -0.583034      3.133303
  C       6.535371     -0.527855      0.385427
  H       7.280650     -1.195251      0.836981
  H       5.942410     -1.105895     -0.324591
  H       7.048686      0.276541     -0.147731
  C       3.778016      1.395254      3.071319
  H       3.536264      1.900084      2.127493
  H       2.967160      1.603595      3.773053
  H       4.692684      1.825069      3.497820
  N      -1.424477     -1.694298     -0.405883
  N      -2.175355      0.161146     -1.438161
  N      -0.172456      1.517698     -1.104140
  N       1.603343      0.396819      0.095701
  N       1.468190     -1.807141      0.865082
  C      -0.400223     -0.761429     -0.322463
  C      -0.889960      0.384001     -0.974994
  C       0.904832     -0.744935      0.210207
  C      -2.451085     -1.069322     -1.075979
  C       1.031049      1.438979     -0.546591
  H      -1.461124     -2.614600      0.005675
  H      -3.386196     -1.579194     -1.270068
  H       1.650094      2.331556     -0.615338
  H       2.485447     -1.802340      1.013882
  H       1.080739     -2.723318      0.692039
29
Coordinates from ORCA-job dimethylurea_adenine_opt_freq E -770.808548545735
  O       4.293133     -1.785960      1.506947
  N       5.635309      0.056488      1.373376
  N       3.883733     -0.030300      2.914501
  C       4.591182     -0.644813      1.906118
  H       5.954785      0.888811      1.845041
  H       3.056733     -0.551024      3.169017
  C       6.503446     -0.533409      0.363935
  H       7.249795     -1.208980      0.801228
  H       5.894764     -1.103742     -0.339195
  H       7.015413      0.268999     -0.173406
  C       3.817870      1.414547      3.100539
  H       3.568855      1.937711      2.168281
  H       3.029703      1.635773      3.823568
  H       4.754763      1.813367      3.509333
  N      -1.420432     -1.708260     -0.436707
  N      -2.165224      0.151427     -1.465605
  N      -0.171893      1.513378     -1.099476
  N       1.593797      0.391099      0.114656
  N       1.459123     -1.816245      0.869176
  C      -0.401054     -0.771387     -0.333562
  C      -0.886615      0.376003     -0.984343
  C       0.897938     -0.754460      0.215210
  C      -2.441217     -1.082146     -1.114765
  C       1.025350      1.434735     -0.529250
  H      -1.462223     -2.628460     -0.025464
  H      -3.372021     -1.593847     -1.324191
  H       1.643547      2.328757     -0.586331
  H       2.472647     -1.809791      1.035982
  H       1.065432     -2.731299      0.707003
29
Coordinates from ORCA-job dimethylurea_adenine_opt_freq E -770.808682331798
  O       4.271526     -1.770586      1.523862
  N       5.634457      0.054385      1.371861
  N       3.893318     -0.004108      2.925500
  C       4.585086     -0.630885      1.913871
  H       5.953550      0.899646      1.819400
  H       3.058591     -0.509004      3.187101
  C       6.484445     -0.545234      0.353079
  H       7.224805     -1.232572      0.782056
  H       5.862748     -1.105263     -0.347266
  H       7.003529      0.251703     -0.185477
  C       3.860777      1.439735      3.124200
  H       3.602613      1.980754      2.204489
  H       3.101251      1.671101      3.873792
  H       4.820769      1.805140      3.510898
  N      -1.419320     -1.725413     -0.472116
  N      -2.164780      0.143235     -1.484095
  N      -0.183098      1.511308     -1.084298
  N       1.577280      0.384656      0.133305
  N       1.447954     -1.828696      0.867193
  C      -0.406556     -0.783628     -0.346001
  C      -0.891725      0.368519     -0.988101
  C       0.886367     -0.766113      0.217040
  C      -2.437297     -1.096009     -1.151549
  C       1.009796      1.432133     -0.505095
  H      -1.463340     -2.649052     -0.068915
  H      -3.363172     -1.609922     -1.376879
  H       1.625475      2.328676     -0.547653
  H       2.457533     -1.813414      1.050816
  H       1.054058     -2.744121      0.710599
29
Coordinates from ORCA-job dimethylurea_adenine_opt_freq E -770.808818312600
  O       4.248453     -1.748944      1.532816
  N       5.643464      0.050905      1.375045
  N       3.901504      0.027106      2.928993
  C       4.581057     -0.613652      1.917288
  H       5.961049      0.907721      1.800379
  H       3.051529     -0.458106      3.180007
  C       6.481591     -0.563733      0.355565
  H       7.208391     -1.265546      0.784170
  H       5.850837     -1.111440     -0.346769
  H       7.016769      0.223594     -0.181282
  C       3.903402      1.469452      3.139184
  H       3.635015      2.026103      2.231824
  H       3.175631      1.707708      3.917223
  H       4.883910      1.804175      3.501864
  N      -1.421977     -1.743566     -0.507314
  N      -2.174752      0.136791     -1.491830
  N      -0.206564      1.512054     -1.057076
  N       1.555154      0.377760      0.150277
  N       1.436427     -1.844478      0.856426
  C      -0.416492     -0.797053     -0.358578
  C      -0.906402      0.362736     -0.983744
  C       0.871594     -0.779110      0.214428
  C      -2.440361     -1.109725     -1.182090
  C       0.984621      1.431571     -0.473839
  H      -1.464048     -2.673996     -0.119827
  H      -3.360885     -1.626355     -1.422701
  H       1.595505      2.331972     -0.499432
  H       2.442330     -1.815060      1.054837
  H       1.049888     -2.761914      0.695771
29
Coordinates from ORCA-job dimethylurea_adenine_opt_freq E -770.808944967014
  O       4.227919     -1.723557      1.533771
  N       5.660835      0.046444      1.382789
  N       3.906285      0.060673      2.924625
  C       4.579624     -0.594373      1.916929
  H       5.977620      0.911846      1.790336
  H       3.035119     -0.401302      3.147504
  C       6.494159     -0.587758      0.371410
  H       7.200643     -1.305180      0.807864
  H       5.858991     -1.122109     -0.337467
  H       7.052905      0.186166     -0.160838
  C       3.943096      1.501005      3.144515
  H       3.664283      2.070524      2.248471
  H       3.246270      1.744357      3.948802
  H       4.939421      1.812017      3.484005
  N      -1.428118     -1.761135     -0.539641
  N      -2.195249      0.132774     -1.486469
  N      -0.239676      1.514921     -1.020402
  N       1.529559      0.370895      0.164772
  N       1.426052     -1.862185      0.836416
  C      -0.430210     -0.810282     -0.370348
  C      -0.929044      0.358516     -0.972803
  C       0.855063     -0.792038      0.207588
  C      -2.450540     -1.122181     -1.203272
  C       0.952053      1.432682     -0.437478
  H      -1.463133     -2.700906     -0.174650
  H      -3.366205     -1.641580     -1.456201
  H       1.555659      2.338260     -0.444417
  H       2.428995     -1.817027      1.046477
  H       1.054263     -2.782494      0.659329
29
Coordinates from ORCA-job dimethylurea_adenine_opt_freq E -770.809028121972
  O       4.212437     -1.700309      1.531332
  N       5.677089      0.043062      1.390031
  N       3.908136      0.090421      2.918036
  C       4.579193     -0.576407      1.915648
  H       5.996934      0.912126      1.786880
  H       3.018105     -0.349111      3.111108
  C       6.508128     -0.610382      0.389016
  H       7.193162     -1.342313      0.835210
  H       5.870451     -1.131468     -0.327538
  H       7.090668      0.149904     -0.137320
  C       3.977680      1.527989      3.146737
  H       3.689532      2.109123      2.261042
  H       3.305531      1.776995      3.970357
  H       4.984970      1.822159      3.467102
  N      -1.435120     -1.775364     -0.564365
  N      -2.214919      0.128385     -1.480630
  N      -0.270363      1.516978     -0.986895
  N       1.506424      0.365007      0.177811
  N       1.417941     -1.877445      0.815656
  C      -0.443521     -0.821256     -0.379848
  C      -0.951000      0.354786     -0.961889
  C       0.840368     -0.802598      0.200639
  C      -2.461483     -1.132923     -1.218195
  C       0.921571      1.433575     -0.403929
  H      -1.461512     -2.723143     -0.219941
  H      -3.373066     -1.654855     -1.480470
  H       1.517245      2.344353     -0.393757
  H       2.418893     -1.820570      1.034653
  H       1.063166     -2.799746      0.615132
29
Coordinates from ORCA-job dimethylurea_adenine_opt_freq E -770.809073126887
  O       4.203959     -1.683502      1.527958
  N       5.690825      0.039997      1.395880
  N       3.907562      0.113306      2.909470
  C       4.580201     -0.562918      1.913845
  H       6.015936      0.908834      1.788777
  H       3.004382     -0.308101      3.080800
  C       6.522528     -0.629634      0.406102
  H       7.187820     -1.373423      0.862240
  H       5.884891     -1.139226     -0.318701
  H       7.126065      0.119214     -0.112908
  C       4.003079      1.548004      3.145012
  H       3.707643      2.139333      2.268209
  H       3.347841      1.803073      3.980719
  H       5.018039      1.829672      3.450576
  N      -1.441220     -1.785939     -0.581616
  N      -2.233392      0.124645     -1.472567
  N      -0.297195      1.519125     -0.960023
  N       1.487003      0.362552      0.188184
  N       1.413516     -1.887525      0.796130
  C      -0.455137     -0.828674     -0.386549
  C      -0.970312      0.351975     -0.952622
  C       0.828636     -0.809021      0.194487
  C      -2.471475     -1.141898     -1.227463
  C       0.894765      1.435776     -0.377173
  H      -1.458414     -2.739779     -0.253745
  H      -3.379945     -1.666206     -1.495676
  H       1.482861      2.351232     -0.353186
  H       2.413150     -1.823413      1.021349
  H       1.073029     -2.810509      0.574105
29
Coordinates from ORCA-job dimethylurea_adenine_opt_freq E -770.809102314004
  O       4.200808     -1.671307      1.520907
  N       5.705399      0.036205      1.401792
  N       3.905478      0.130631      2.896940
  C       4.583236     -0.553486      1.909807
  H       6.036836      0.901502      1.797190
  H       2.992751     -0.276139      3.051599
  C       6.542270     -0.647411      0.425896
  H       7.187343     -1.401880      0.893272
  H       5.908488     -1.146206     -0.309685
  H       7.166629      0.091628     -0.082404
  C       4.019528      1.562967      3.137212
  H       3.718525      2.162643      2.267701
  H       3.375598      1.823153      3.980430
  H       5.040186      1.835197      3.430632
  N      -1.447076     -1.794071     -0.593574
  N      -2.252614      0.121004     -1.462385
  N      -0.324966      1.522703     -0.935413
  N       1.468761      0.364160      0.195789
  N       1.412214     -1.892884      0.775803
  C      -0.466367     -0.833130     -0.391080
  C      -0.990426      0.350736     -0.941777
  C       0.818504     -0.811632      0.187990
  C      -2.482738     -1.149503     -1.230044
  C       0.867905      1.440580     -0.354677
  H      -1.453761     -2.753110     -0.280872
  H      -3.388545     -1.676517     -1.501871
  H       1.448757      2.360315     -0.319639
  H       2.410717     -1.823273      1.005590
  H       1.083202     -2.815905      0.536486
29
Coordinates from ORCA-job dimethylurea_adenine_opt_freq E -770.809128608136
  O       4.200452     -1.660506      1.508034
  N       5.722486      0.031634      1.407694
  N       3.903191      0.144990      2.879679
  C       4.588137     -0.546163      1.902242
  H       6.062391      0.889160      1.812772
  H       2.982625     -0.248879      3.019786
  C       6.568560     -0.665772      0.449439
  H       7.189729     -1.432113      0.929686
  H       5.942484     -1.152147     -0.300875
  H       7.216664      0.063393     -0.043096
  C       4.030088      1.575532      3.123500
  H       3.724506      2.182089      2.260113
  H       3.394149      1.839386      3.971843
  H       5.055363      1.840413      3.405908
  N      -1.452983     -1.801217     -0.602819
  N      -2.275470      0.117562     -1.446920
  N      -0.356577      1.527739     -0.909841
  N       1.449262      0.369587      0.202560
  N       1.412302     -1.894294      0.754916
  C      -0.478294     -0.835644     -0.394005
  C      -1.012917      0.350438     -0.928940
  C       0.808214     -0.811051      0.181731
  C      -2.494873     -1.157610     -1.229970
  C       0.838134      1.448081     -0.333048
  H      -1.447482     -2.765236     -0.305847
  H      -3.397785     -1.688103     -1.504590
  H       1.411444      2.372110     -0.287973
  H       2.409759     -1.819267      0.988000
  H       1.093081     -2.817141      0.501634
29
Coordinates from ORCA-job dimethylurea_adenine_opt_freq E -770.809158917900
  O       4.201250     -1.648372      1.487375
  N       5.742898      0.026736      1.412921
  N       3.901820      0.158375      2.857132
  C       4.594785     -0.539172      1.889951
  H       6.094853      0.870314      1.836704
  H       2.974032     -0.223072      2.982917
  C       6.601328     -0.686076      0.476945
  H       7.191673     -1.467637      0.971443
  H       5.987029     -1.155971     -0.293312
  H       7.278637      0.031371      0.007109
  C       4.037218      1.587596      3.104437
  H       3.727630      2.200054      2.246419
  H       3.407527      1.853086      3.956988
  H       5.066500      1.846541      3.376237
  N      -1.458559     -1.808674     -0.612013
  N      -2.300839      0.112481     -1.430502
  N      -0.393737      1.533875     -0.881520
  N       1.426437      0.378809      0.210958
  N       1.412480     -1.892078      0.734320
  C      -0.491517     -0.837021     -0.395775
  C      -1.038923      0.350546     -0.913500
  C       0.796485     -0.807651      0.176608
  C      -2.508567     -1.166935     -1.227402
  C       0.803251      1.458264     -0.309337
  H      -1.438653     -2.777877     -0.333164
  H      -3.407837     -1.701970     -1.505100
  H       1.368253      2.386843     -0.254111
  H       2.409003     -1.810637      0.969218
  H       1.102182     -2.814781      0.469668
29
Coordinates from ORCA-job dimethylurea_adenine_opt_freq E -770.809195883804
  O       4.202011     -1.632930      1.458407
  N       5.766627      0.022000      1.416570
  N       3.902083      0.172805      2.829007
  C       4.602819     -0.530927      1.872238
  H       6.133946      0.844630      1.867878
  H       2.966909     -0.195743      2.938726
  C       6.638948     -0.709554      0.507873
  H       7.190013     -1.510000      1.017480
  H       6.040613     -1.158398     -0.287093
  H       7.351298     -0.007451      0.067723
  C       4.043316      1.601020      3.080320
  H       3.730326      2.218427      2.226930
  H       3.419891      1.865798      3.937597
  H       5.076228      1.854827      3.341866
  N      -1.463425     -1.817041     -0.622490
  N      -2.329502      0.105871     -1.411224
  N      -0.437167      1.540773     -0.847912
  N       1.399158      0.391315      0.223667
  N       1.411932     -1.886796      0.715500
  C      -0.506026     -0.837914     -0.396367
  C      -1.068438      0.350552     -0.895126
  C       0.782635     -0.801982      0.174102
  C      -2.521506     -1.178922     -1.227672
  C       0.762222      1.470728     -0.280257
  H      -1.427666     -2.791512     -0.364450
  H      -3.415474     -1.719904     -1.510906
  H       1.317531      2.404344     -0.213136
  H       2.407784     -1.797497      0.949923
  H       1.109552     -2.809549      0.442440
29
Coordinates from ORCA-job dimethylurea_adenine_opt_freq E -770.809244944031
  O       4.201354     -1.609868      1.418702
  N       5.796688      0.016607      1.419840
  N       3.902928      0.194440      2.790565
  C       4.612266     -0.517886      1.847104
  H       6.181455      0.810962      1.906319
  H       2.957962     -0.156538      2.875737
  C       6.684026     -0.741964      0.547933
  H       7.181827     -1.565246      1.075867
  H       6.108307     -1.164623     -0.277513
  H       7.440330     -0.063057      0.146513
  C       4.053200      1.621127      3.047866
  H       3.736850      2.244241      2.199779
  H       3.440455      1.883772      3.913290
  H       5.090605      1.867510      3.297377
  N      -1.466719     -1.828733     -0.640609
  N      -2.364174      0.096173     -1.388195
  N      -0.493670      1.548560     -0.799304
  N       1.362863      0.406648      0.245394
  N       1.411395     -1.880102      0.693144
  C      -0.523587     -0.839770     -0.396754
  C      -1.105897      0.349813     -0.869333
  C       0.764709     -0.795194      0.173716
  C      -2.535878     -1.194863     -1.230439
  C       0.708237      1.485712     -0.236101
  H      -1.411193     -2.809581     -0.412019
  H      -3.421890     -1.743628     -1.523556
  H       1.250226      2.425678     -0.151250
  H       2.406526     -1.780319      0.925510
  H       1.117442     -2.802900      0.412031
29
Coordinates from ORCA-job dimethylurea_adenine_opt_freq E -770.809366981666
  O       4.201171     -1.555604      1.333193
  N       5.859620      0.004167      1.430255
  N       3.901694      0.250371      2.700837
  C       4.631216     -0.484461      1.791506
  H       6.266281      0.744613      1.980553
  H       2.936917     -0.058824      2.720769
  C       6.770080     -0.817168      0.641489
  H       7.150753     -1.678669      1.204882
  H       6.250080     -1.192326     -0.241901
  H       7.610041     -0.194675      0.323723
  C       4.080088      1.672312      2.972706
  H       3.756032      2.309246      2.137638
  H       3.497105      1.931688      3.859288
  H       5.127317      1.899667      3.195067
  N      -1.470780     -1.852605     -0.685343
  N      -2.437985      0.076103     -1.328806
  N      -0.613964      1.559511     -0.677272
  N       1.288041      0.430528      0.297455
  N       1.416754     -1.870287      0.633969
  C      -0.558685     -0.845981     -0.397889
  C      -1.185047      0.345679     -0.804688
  C       0.729671     -0.785871      0.170755
  C      -2.563654     -1.226633     -1.238625
  C       0.594111      1.509250     -0.125889
  H      -1.374001     -2.843798     -0.525752
  H      -3.432030     -1.789622     -1.556564
  H       1.105782      2.460968      0.004098
  H       2.409641     -1.748846      0.863019
  H       1.140390     -2.791760      0.333141
29
Coordinates from ORCA-job dimethylurea_adenine_opt_freq E -770.809557445260
  O       4.206202     -1.506738      1.256028
  N       5.913842     -0.011061      1.451244
  N       3.895133      0.304822      2.612778
  C       4.647770     -0.453391      1.742588
  H       6.323476      0.691524      2.047458
  H       2.917390      0.034883      2.562693
  C       6.837354     -0.885040      0.736136
  H       7.112769     -1.772058      1.320831
  H       6.375727     -1.222483     -0.193728
  H       7.738655     -0.314318      0.499686
  C       4.102875      1.721496      2.898125
  H       3.770821      2.372099      2.076624
  H       3.548478      1.980230      3.803218
  H       5.158305      1.931034      3.093975
  N      -1.474084     -1.869537     -0.724480
  N      -2.503858      0.059837     -1.259781
  N      -0.714796      1.561629     -0.556117
  N       1.231149      0.441374      0.338414
  N       1.431361     -1.864732      0.561603
  C      -0.586646     -0.852353     -0.399064
  C      -1.252327      0.339319     -0.737593
  C       0.705615     -0.782418      0.159538
  C      -2.591021     -1.248928     -1.233753
  C       0.501429      1.519279     -0.022347
  H      -1.341138     -2.864985     -0.631428
  H      -3.446794     -1.820389     -1.570224
  H       0.987411      2.477658      0.150327
  H       2.421302     -1.727117      0.790555
  H       1.170238     -2.782667      0.238306
29
Coordinates from ORCA-job dimethylurea_adenine_opt_freq E -770.809843890106
  O       4.215416     -1.470917      1.190679
  N       5.954485     -0.027836      1.477960
  N       3.885349      0.345846      2.535320
  C       4.660856     -0.431708      1.703291
  H       6.356851      0.650041      2.107005
  H       2.903718      0.104631      2.424288
  C       6.886001     -0.936581      0.817297
  H       7.083122     -1.839165      1.409717
  H       6.475033     -1.246903     -0.145262
  H       7.824605     -0.403395      0.647892
  C       4.112870      1.758275      2.831300
  H       3.775875      2.417277      2.019069
  H       3.577319      2.016652      3.748101
  H       5.172964      1.957081      3.008315
  N      -1.475723     -1.878296     -0.750647
  N      -2.553712      0.048114     -1.193678
  N      -0.787128      1.559463     -0.454545
  N       1.194606      0.446907      0.367196
  N       1.449378     -1.858687      0.493718
  C      -0.605158     -0.855847     -0.397443
  C      -1.301059      0.333640     -0.677743
  C       0.692703     -0.779839      0.147346
  C      -2.612332     -1.262273     -1.220271
  C       0.437333      1.522541      0.060125
  H      -1.316469     -2.873434     -0.710477
  H      -3.460226     -1.838304     -1.568674
  H       0.905443      2.483635      0.264251
  H       2.437281     -1.711143      0.723874
  H       1.197239     -2.772805      0.153612
29
Coordinates from ORCA-job dimethylurea_adenine_opt_freq E -770.810146954715
  O       4.219131     -1.443922      1.142595
  N       5.977832     -0.041218      1.498370
  N       3.877329      0.375618      2.480106
  C       4.667072     -0.415548      1.675202
  H       6.373798      0.620141      2.148744
  H       2.896131      0.152633      2.331060
  C       6.910779     -0.971447      0.869666
  H       7.056211     -1.883837      1.461830
  H       6.533413     -1.262179     -0.112587
  H       7.870508     -0.464015      0.745444
  C       4.117898      1.783787      2.786638
  H       3.777553      2.448737      1.981341
  H       3.593086      2.041240      3.710217
  H       5.180471      1.976528      2.952148
  N      -1.473838     -1.883063     -0.766984
  N      -2.581923      0.039236     -1.149134
  N      -0.829249      1.555044     -0.386060
  N       1.174594      0.448872      0.388987
  N       1.463979     -1.854245      0.447325
  C      -0.614208     -0.858375     -0.394461
  C      -1.328743      0.328307     -0.636759
  C       0.687486     -0.778815      0.140855
  C      -2.622794     -1.270696     -1.210545
  C       0.400097      1.521771      0.116616
  H      -1.299109     -2.876413     -0.759373
  H      -3.465724     -1.849080     -1.566976
  H       0.856725      2.483844      0.341116
  H       2.450688     -1.700695      0.680972
  H       1.217444     -2.765239      0.095261
29
Coordinates from ORCA-job dimethylurea_adenine_opt_freq E -770.810406283007
  O       4.226686     -1.426360      1.106310
  N       5.994147     -0.050694      1.516469
  N       3.871946      0.393340      2.440685
  C       4.673274     -0.405724      1.655454
  H       6.382273      0.600349      2.181839
  H       2.892534      0.181742      2.263972
  C       6.929748     -0.991542      0.907638
  H       7.042796     -1.910209      1.497026
  H       6.576499     -1.268905     -0.087378
  H       7.900787     -0.499070      0.814999
  C       4.119436      1.798657      2.754594
  H       3.777369      2.467021      1.953262
  H       3.599946      2.055195      3.681670
  H       5.183177      1.988654      2.913711
  N      -1.475222     -1.884766     -0.775671
  N      -2.600863      0.034843     -1.117594
  N      -0.854722      1.551521     -0.341126
  N       1.162632      0.448466      0.402312
  N       1.471995     -1.852736      0.414548
  C      -0.621219     -0.859812     -0.391616
  C      -1.346601      0.325093     -0.608830
  C       0.683779     -0.779247      0.135727
  C      -2.631900     -1.274165     -1.201190
  C       0.377993      1.519713      0.152795
  H      -1.292362     -2.876627     -0.787594
  H      -3.472648     -1.853204     -1.561665
  H       0.828304      2.481785      0.389740
  H       2.458610     -1.695590      0.648382
  H       1.228248     -2.760758      0.053148
29
Coordinates from ORCA-job dimethylurea_adenine_opt_freq E -770.810623819992
  O       4.230179     -1.412583      1.078895
  N       6.003812     -0.058275      1.529474
  N       3.867449      0.407293      2.411101
  C       4.676232     -0.397986      1.640357
  H       6.386190      0.585503      2.205140
  H       2.889651      0.204093      2.215431
  C       6.940284     -1.006518      0.933699
  H       7.030799     -1.929506      1.520157
  H       6.603621     -1.274172     -0.069700
  H       7.918625     -0.524969      0.862934
  C       4.120098      1.809897      2.732333
  H       3.776741      2.481333      1.934371
  H       3.603454      2.065127      3.661550
  H       5.184460      1.998411      2.887668
  N      -1.474682     -1.885854     -0.781508
  N      -2.612294      0.031458     -1.095282
  N      -0.870665      1.548365     -0.308940
  N       1.155774      0.447625      0.412847
  N       1.478851     -1.851893      0.391418
  C      -0.624686     -0.860949     -0.388925
  C      -1.357407      0.322458     -0.588740
  C       0.682663     -0.779829      0.132725
  C      -2.636627     -1.276632     -1.194465
  C       0.364199      1.517464      0.179228
  H      -1.286743     -2.876548     -0.805898
  H      -3.475845     -1.856050     -1.557865
  H       0.809998      2.479374      0.425212
  H       2.465266     -1.692229      0.625845
  H       1.237245     -2.757437      0.022556
29
Coordinates from ORCA-job dimethylurea_adenine_opt_freq E -770.810844273873
  O       4.236734     -1.400768      1.052282
  N       6.013542     -0.065238      1.542971
  N       3.863610      0.419716      2.381018
  C       4.680496     -0.391441      1.625482
  H       6.388624      0.572190      2.228658
  H       2.887757      0.224497      2.165348
  C       6.952193     -1.020322      0.961892
  H       7.021407     -1.946642      1.545982
  H       6.633272     -1.280161     -0.049338
  H       7.936593     -0.548480      0.913009
  C       4.120491      1.820198      2.708617
  H       3.775747      2.494707      1.913945
  H       3.606810      2.073828      3.640045
  H       5.185502      2.007277      2.860041
  N      -1.475475     -1.886343     -0.787256
  N      -2.624851      0.028554     -1.071348
  N      -0.886864      1.545030     -0.276026
  N       1.149010      0.446245      0.421747
  N       1.485248     -1.850596      0.366909
  C      -0.628896     -0.861828     -0.386589
  C      -1.368859      0.319991     -0.568013
  C       0.681135     -0.780346      0.128407
  C      -2.642862     -1.278359     -1.186452
  C       0.350566      1.514683      0.205319
  H      -1.282684     -2.875701     -0.824641
  H      -3.480980     -1.857838     -1.552271
  H       0.792349      2.475987      0.460775
  H       2.471543     -1.688353      0.600412
  H       1.245481     -2.753518     -0.009312
29
Coordinates from ORCA-job dimethylurea_adenine_opt_freq E -770.811073793276
  O       4.241813     -1.388794      1.026265
  N       6.021516     -0.072250      1.555502
  N       3.859596      0.432883      2.350670
  C       4.683640     -0.384642      1.610455
  H       6.389538      0.558798      2.250832
  H       2.885917      0.245556      2.116049
  C       6.961446     -1.034973      0.989427
  H       7.009407     -1.964091      1.571210
  H       6.660027     -1.287734     -0.028949
  H       7.951496     -0.573312      0.961795
  C       4.120781      1.831111      2.685123
  H       3.774386      2.508988      1.894180
  H       3.610152      2.082714      3.618913
  H       5.186459      2.016810      2.832413
  N      -1.474874     -1.886839     -0.793178
  N      -2.636348      0.024994     -1.046947
  N      -0.902279      1.541151     -0.242368
  N       1.143281      0.444985      0.430664
  N       1.493078     -1.848416      0.342147
  C      -0.631891     -0.862712     -0.384199
  C      -1.379296      0.317104     -0.546856
  C       0.680780     -0.780496      0.124035
  C      -2.647810     -1.280483     -1.178316
  C       0.337771      1.511645      0.231957
  H      -1.277019     -2.874612     -0.843787
  H      -3.484729     -1.860088     -1.546661
  H       0.775418      2.472187      0.497230
  H       2.479105     -1.683750      0.575263
  H       1.255281     -2.748763     -0.041254
29
Coordinates from ORCA-job dimethylurea_adenine_opt_freq E -770.811311416794
  O       4.248084     -1.377565      1.000419
  N       6.028874     -0.078917      1.568262
  N       3.855763      0.445405      2.320029
  C       4.687047     -0.378308      1.595502
  H       6.389035      0.545883      2.273284
  H       2.884664      0.265677      2.066617
  C       6.970448     -1.048889      1.017619
  H       6.997760     -1.980429      1.596882
  H       6.687062     -1.295216     -0.007495
  H       7.965321     -0.596882      1.011339
  C       4.120953      1.841500      2.661002
  H       3.772871      2.522741      1.873827
  H       3.613500      2.090994      3.597216
  H       5.187355      2.025727      2.803932
  N      -1.474601     -1.886993     -0.798969
  N      -2.647831      0.021493     -1.021804
  N      -0.917203      1.536943     -0.208415
  N       1.138016      0.443484      0.438885
  N       1.500834     -1.845910      0.316773
  C      -0.634883     -0.863514     -0.381881
  C      -1.389525      0.314131     -0.525376
  C       0.680542     -0.780623      0.119172
  C      -2.653050     -1.282294     -1.169562
  C       0.325603      1.508237      0.258394
  H      -1.271872     -2.873001     -0.862977
  H      -3.488987     -1.861833     -1.540222
  H       0.759431      2.467759      0.533464
  H       2.486715     -1.678982      0.549254
  H       1.264714     -2.743649     -0.073556
29
Coordinates from ORCA-job dimethylurea_adenine_opt_freq E -770.811643411355
  O       4.257514     -1.362825      0.966021
  N       6.038327     -0.088036      1.585209
  N       3.851123      0.464386      2.274906
  C       4.691973     -0.369320      1.574174
  H       6.386875      0.527779      2.303854
  H       2.884034      0.294737      1.994725
  C       6.980991     -1.071445      1.060825
  H       6.976096     -2.004870      1.637716
  H       6.725579     -1.310818      0.026734
  H       7.982493     -0.634997      1.086329
  C       4.121849      1.858175      2.623772
  H       3.770062      2.544349      1.842686
  H       3.620988      2.104172      3.564573
  H       5.189508      2.040184      2.758504
  N      -1.472952     -1.887197     -0.808683
  N      -2.665716      0.014371     -0.981334
  N      -0.940918      1.529351     -0.154794
  N       1.130519      0.442066      0.449455
  N       1.514901     -1.838622      0.275928
  C      -0.638506     -0.864465     -0.379388
  C      -1.405241      0.308677     -0.491623
  C       0.681209     -0.779242      0.109891
  C      -2.660510     -1.286192     -1.155394
  C       0.306640      1.502771      0.299055
  H      -1.261448     -2.869560     -0.896018
  H      -3.494804     -1.865935     -1.529413
  H       0.734232      2.460335      0.590247
  H       2.500150     -1.667890      0.507104
  H       1.281670     -2.732970     -0.123448
29
Coordinates from ORCA-job dimethylurea_adenine_opt_freq E -770.812111185537
  O       4.271283     -1.341651      0.917536
  N       6.049368     -0.099889      1.607827
  N       3.845845      0.493120      2.208580
  C       4.698669     -0.355716      1.543012
  H       6.380001      0.500949      2.347407
  H       2.885547      0.336990      1.891898
  C       6.990790     -1.105626      1.124684
  H       6.935340     -2.040530      1.696571
  H       6.779166     -1.335675      0.078640
  H       8.000493     -0.694406      1.199306
  C       4.124540      1.884023      2.567450
  H       3.765957      2.577229      1.796021
  H       3.635345      2.124683      3.515910
  H       5.194204      2.062843      2.688030
  N      -1.468914     -1.887211     -0.823963
  N      -2.690972      0.001175     -0.919340
  N      -0.975067      1.515246     -0.072868
  N       1.120816      0.440023      0.464444
  N       1.537593     -1.824154      0.213641
  C      -0.642349     -0.865925     -0.376331
  C      -1.427251      0.298655     -0.440255
  C       0.683525     -0.776062      0.095112
  C      -2.670042     -1.293196     -1.133943
  C       0.279696      1.492906      0.360654
  H      -1.243554     -2.862371     -0.949122
  H      -3.501798     -1.873211     -1.513147
  H       0.697955      2.446676      0.676778
  H       2.521720     -1.647706      0.444242
  H       1.308732     -2.714221     -0.197159
29
Coordinates from ORCA-job dimethylurea_adenine_opt_freq E -770.813002431333
  O       4.283733     -1.301691      0.828798
  N       6.049050     -0.126638      1.655202
  N       3.829068      0.538354      2.101386
  C       4.697831     -0.333861      1.492578
  H       6.349236      0.457570      2.420653
  H       2.883602      0.406630      1.728881
  C       6.990707     -1.150649      1.213480
  H       6.877658     -2.091190      1.767467
  H       6.835104     -1.361174      0.153598
  H       8.004871     -0.767946      1.352652
  C       4.121469      1.919104      2.487829
  H       3.756789      2.625159      1.731802
  H       3.641208      2.149853      3.443915
  H       5.193038      2.094029      2.594452
  N      -1.457920     -1.884540     -0.839071
  N      -2.711993     -0.015034     -0.828538
  N      -1.002047      1.492111      0.042809
  N       1.121807      0.431169      0.488894
  N       1.573492     -1.809593      0.123033
  C      -0.638874     -0.869192     -0.365668
  C      -1.443232      0.283598     -0.364521
  C       0.696738     -0.776354      0.077252
  C      -2.675287     -1.299013     -1.097236
  C       0.261704      1.473386      0.448098
  H      -1.221687     -2.851297     -1.003503
  H      -3.505861     -1.877115     -1.481860
  H       0.670869      2.420475      0.794724
  H       2.558047     -1.629605      0.354791
  H       1.347520     -2.689577     -0.310280
29
Coordinates from ORCA-job dimethylurea_adenine_opt_freq E -770.813788656068
  O       4.352483     -1.242025      0.660522
  N       6.035936     -0.164483      1.746038
  N       3.807678      0.580838      1.930046
  C       4.710970     -0.309805      1.407892
  H       6.260607      0.388035      2.559248
  H       2.894129      0.482690      1.471498
  C       7.005219     -1.179176      1.351425
  H       6.839932     -2.136509      1.862035
  H       6.937202     -1.351571      0.275636
  H       8.007165     -0.811918      1.588094
  C       4.108249      1.940912      2.370685
  H       3.742223      2.668989      1.635629
  H       3.624169      2.150262      3.331080
  H       5.180678      2.116613      2.472131
  N      -1.460670     -1.871394     -0.844881
  N      -2.733359     -0.020338     -0.702732
  N      -1.013074      1.463404      0.188655
  N       1.133521      0.407832      0.519646
  N       1.599194     -1.809270      0.002583
  C      -0.639773     -0.872204     -0.343204
  C      -1.455005      0.269815     -0.262334
  C       0.711474     -0.786602      0.053287
  C      -2.692122     -1.289429     -1.034627
  C       0.260641      1.440747      0.555650
  H      -1.228298     -2.834564     -1.034270
  H      -3.528268     -1.858762     -1.420109
  H       0.668413      2.376153      0.934153
  H       2.593005     -1.626220      0.211219
  H       1.364322     -2.665050     -0.473380
29
Coordinates from ORCA-job dimethylurea_adenine_opt_freq E -770.812667179941
  O       4.231649     -1.198953      0.660201
  N       5.971391     -0.182324      1.719325
  N       3.800296      0.729589      1.796479
  C       4.644047     -0.249362      1.355783
  H       6.215564      0.386886      2.515013
  H       2.872477      0.665174      1.349908
  C       6.850617     -1.310055      1.434106
  H       6.557548     -2.218921      1.975113
  H       6.830834     -1.532307      0.365246
  H       7.868930     -1.032546      1.718056
  C       4.159765      2.066507      2.266759
  H       3.755099      2.838515      1.596808
  H       3.744867      2.252782      3.263510
  H       5.241492      2.205947      2.315005
  N      -1.380577     -1.881901     -0.904396
  N      -2.722642     -0.105769     -0.569142
  N      -1.036706      1.369808      0.398162
  N       1.164104      0.385985      0.566086
  N       1.713874     -1.735686     -0.131100
  C      -0.585673     -0.893070     -0.342156
  C      -1.443301      0.201529     -0.142293
  C       0.772183     -0.778177      0.021109
  C      -2.640246     -1.339689     -1.008835
  C       0.249129      1.369908      0.724447
  H      -1.114317     -2.813056     -1.186198
  H      -3.464473     -1.909580     -1.418484
  H       0.627710      2.277317      1.191277
  H       2.694219     -1.519811      0.098896
  H       1.508781     -2.591770     -0.617067
29
Coordinates from ORCA-job dimethylurea_adenine_opt_freq E -770.814043224268
  O       4.354961     -1.228968      0.648144
  N       6.039551     -0.160075      1.744211
  N       3.829045      0.653105      1.829790
  C       4.718295     -0.281689      1.371169
  H       6.243914      0.388514      2.565741
  H       2.912422      0.562009      1.368370
  C       6.968484     -1.245557      1.448671
  H       6.707136     -2.176138      1.968721
  H       6.969363     -1.447841      0.375770
  H       7.971227     -0.931902      1.749929
  C       4.151396      2.008712      2.273860
  H       3.753914      2.762047      1.577657
  H       3.725127      2.201538      3.264542
  H       5.230628      2.163836      2.330688
  N      -1.447029     -1.869396     -0.900380
  N      -2.767874     -0.070894     -0.602286
  N      -1.069040      1.399658      0.348344
  N       1.118196      0.392335      0.543842
  N       1.638623     -1.761392     -0.098860
  C      -0.641311     -0.880646     -0.353084
  C      -1.486502      0.227776     -0.174739
  C       0.715125     -0.779171      0.019097
  C      -2.698955     -1.312881     -1.020701
  C       0.215766      1.391060      0.678421
  H      -1.190170     -2.806048     -1.172608
  H      -3.528493     -1.878855     -1.425089
  H       0.606871      2.304925      1.121834
  H       2.624667     -1.548723      0.109308
  H       1.421305     -2.618372     -0.578745
29
Coordinates from ORCA-job dimethylurea_adenine_opt_freq E -770.814018081190
  O       4.304664     -1.231298      0.671185
  N       6.027941     -0.164709      1.712243
  N       3.822696      0.627011      1.909445
  C       4.695260     -0.293466      1.396925
  H       6.271921      0.399805      2.511623
  H       2.880614      0.527707      1.538961
  C       6.978288     -1.194406      1.314018
  H       6.825240     -2.137745      1.854292
  H       6.873127     -1.393927      0.245993
  H       7.989906     -0.828422      1.508271
  C       4.145698      1.960443      2.381833
  H       3.767227      2.719190      1.682291
  H       3.682543      2.151845      3.357760
  H       5.222722      2.118235      2.479257
  N      -1.438366     -1.877384     -0.876841
  N      -2.716143     -0.027104     -0.767176
  N      -1.025895      1.454061      0.182984
  N       1.114052      0.403094      0.567331
  N       1.588668     -1.829212      0.075350
  C      -0.635122     -0.880481     -0.342210
  C      -1.452439      0.262259     -0.285466
  C       0.705206     -0.796921      0.088998
  C      -2.664578     -1.295604     -1.099458
  C       0.237701      1.433134      0.583235
  H      -1.212909     -2.849472     -1.024578
  H      -3.488696     -1.864302     -1.510989
  H       0.633886      2.369107      0.972927
  H       2.579041     -1.622555      0.299379
  H       1.374386     -2.681911     -0.415969
29
Coordinates from ORCA-job dimethylurea_adenine_opt_freq E -770.814544464009
  O       4.333403     -1.236031      0.644658
  N       6.033003     -0.171857      1.730258
  N       3.830533      0.650867      1.823483
  C       4.709701     -0.289455      1.364498
  H       6.244285      0.383825      2.545283
  H       2.895040      0.546385      1.418413
  C       6.968311     -1.244532      1.412971
  H       6.744492     -2.171721      1.956340
  H       6.927191     -1.460964      0.343782
  H       7.977583     -0.911367      1.668379
  C       4.146988      1.991029      2.293223
  H       3.748237      2.747775      1.603788
  H       3.708196      2.169174      3.283102
  H       5.223694      2.160761      2.363637
  N      -1.425211     -1.868175     -0.898886
  N      -2.753157     -0.067716     -0.646956
  N      -1.073980      1.417684      0.315282
  N       1.108009      0.416271      0.562607
  N       1.633926     -1.768884     -0.035571
  C      -0.631505     -0.873711     -0.345106
  C      -1.480844      0.237845     -0.198292
  C       0.718533     -0.769410      0.048235
  C      -2.675662     -1.315067     -1.047187
  C       0.205387      1.417435      0.664363
  H      -1.169507     -2.816552     -1.128452
  H      -3.497014     -1.887320     -1.459370
  H       0.591143      2.344371      1.084800
  H       2.619759     -1.557050      0.181054
  H       1.426106     -2.616640     -0.536720
29
Coordinates from ORCA-job dimethylurea_adenine_opt_freq E -770.814603751907
  O       4.325739     -1.210448      0.645035
  N       6.029733     -0.170766      1.742948
  N       3.845650      0.702304      1.796261
  C       4.709669     -0.263301      1.360205
  H       6.245821      0.396345      2.548757
  H       2.909586      0.616519      1.364731
  C       6.951165     -1.260554      1.442017
  H       6.702226     -2.181784      1.984267
  H       6.923662     -1.479300      0.372839
  H       7.961569     -0.944230      1.713279
  C       4.208138      2.032331      2.276883
  H       3.800124      2.815654      1.625403
  H       3.818917      2.210751      3.287351
  H       5.292702      2.155646      2.312373
  N      -1.434745     -1.875231     -0.929019
  N      -2.771948     -0.087820     -0.638006
  N      -1.099343      1.384326      0.355774
  N       1.086430      0.385892      0.579823
  N       1.623040     -1.775520     -0.050434
  C      -0.646185     -0.888886     -0.354351
  C      -1.500947      0.214383     -0.183574
  C       0.702557     -0.786453      0.044359
  C      -2.688285     -1.326044     -1.064576
  C       0.179971      1.380676      0.706134
  H      -1.173469     -2.817253     -1.177631
  H      -3.506582     -1.893205     -1.489660
  H       0.560724      2.296498      1.154220
  H       2.607238     -1.568589      0.170885
  H       1.423483     -2.604971     -0.584679
29
Coordinates from ORCA-job dimethylurea_adenine_opt_freq E -770.814957891677
  O       4.344135     -1.207093      0.603945
  N       6.031637     -0.175372      1.740059
  N       3.860096      0.725463      1.713603
  C       4.720129     -0.257442      1.320186
  H       6.210921      0.360291      2.576241
  H       2.919768      0.630414      1.302670
  C       6.929311     -1.298773      1.494535
  H       6.629605     -2.204324      2.037915
  H       6.938436     -1.532279      0.428341
  H       7.937148     -1.009376      1.802918
  C       4.210093      2.049722      2.210575
  H       3.784599      2.832498      1.569560
  H       3.829531      2.206170      3.228737
  H       5.291592      2.199872      2.231305
  N      -1.408204     -1.866042     -0.946089
  N      -2.782730     -0.121129     -0.581631
  N      -1.133216      1.356174      0.441821
  N       1.077915      0.403194      0.610077
  N       1.651612     -1.731653     -0.085021
  C      -0.635952     -0.881047     -0.347206
  C      -1.513985      0.195464     -0.130662
  C       0.713656     -0.761778      0.043555
  C      -2.675100     -1.341647     -1.051402
  C       0.150780      1.372636      0.775530
  H      -1.126930     -2.792088     -1.230282
  H      -3.484659     -1.912683     -1.487884
  H       0.517398      2.284567      1.242817
  H       2.634875     -1.517399      0.138875
  H       1.464180     -2.549372     -0.641474
29
Coordinates from ORCA-job dimethylurea_adenine_opt_freq E -770.815178680328
  O       4.340105     -1.250279      0.641429
  N       6.033054     -0.187504      1.744519
  N       3.868522      0.722928      1.678018
  C       4.721824     -0.277849      1.323598
  H       6.222681      0.393859      2.547261
  H       2.918270      0.608888      1.310793
  C       6.940525     -1.307948      1.523160
  H       6.674568     -2.190000      2.120192
  H       6.915734     -1.592921      0.469907
  H       7.953752     -0.989565      1.781635
  C       4.213356      2.034780      2.193498
  H       3.779244      2.821739      1.565431
  H       3.840878      2.174236      3.217339
  H       5.294695      2.189069      2.208610
  N      -1.398001     -1.858647     -0.954645
  N      -2.796403     -0.139825     -0.558784
  N      -1.162446      1.354365      0.464220
  N       1.062319      0.434266      0.607208
  N       1.656614     -1.702482     -0.115723
  C      -0.635532     -0.868243     -0.351778
  C      -1.528604      0.192766     -0.116423
  C       0.716386     -0.734233      0.028260
  C      -2.674590     -1.354387     -1.040110
  C       0.123774      1.389004      0.787060
  H      -1.108183     -2.782712     -1.236897
  H      -3.479329     -1.933937     -1.474275
  H       0.481233      2.304426      1.254740
  H       2.642059     -1.490082      0.090818
  H       1.470135     -2.502740     -0.697444
29
Coordinates from ORCA-job dimethylurea_adenine_opt_freq E -770.815504173274
  O       4.333290     -1.229438      0.625312
  N       6.035929     -0.188267      1.735188
  N       3.893789      0.769511      1.626503
  C       4.726151     -0.257483      1.301856
  H       6.219599      0.381267      2.547951
  H       2.934034      0.659289      1.286065
  C       6.915815     -1.335398      1.539698
  H       6.621800     -2.201553      2.146846
  H       6.892465     -1.634731      0.490564
  H       7.934696     -1.039294      1.802651
  C       4.259485      2.067010      2.162708
  H       3.809895      2.868064      1.565381
  H       3.920969      2.188064      3.201402
  H       5.341697      2.215930      2.148371
  N      -1.384709     -1.860492     -0.981806
  N      -2.805548     -0.163836     -0.570242
  N      -1.198858      1.324623      0.503540
  N       1.034877      0.424622      0.656019
  N       1.654735     -1.693599     -0.094751
  C      -0.640047     -0.874014     -0.351151
  C      -1.546445      0.172734     -0.106457
  C       0.705117     -0.734505      0.050329
  C      -2.665425     -1.367747     -1.073042
  C       0.082980      1.365065      0.843434
  H      -1.083227     -2.778973     -1.270148
  H      -3.459044     -1.947192     -1.527344
  H       0.424866      2.274315      1.334190
  H       2.636270     -1.478008      0.135424
  H       1.491481     -2.468992     -0.716876
29
Coordinates from ORCA-job dimethylurea_adenine_opt_freq E -770.815748967492
  O       4.326455     -1.215808      0.612988
  N       6.025819     -0.196690      1.745961
  N       3.921840      0.826431      1.542106
  C       4.727050     -0.238305      1.277027
  H       6.206489      0.387885      2.548541
  H       2.953163      0.723026      1.220038
  C       6.881240     -1.368351      1.594072
  H       6.563918     -2.207783      2.226478
  H       6.857291     -1.699922      0.554845
  H       7.904854     -1.086694      1.854626
  C       4.314290      2.104573      2.107661
  H       3.844253      2.923598      1.553392
  H       4.022881      2.198575      3.164086
  H       5.396483      2.246088      2.050594
  N      -1.371429     -1.855398     -1.016597
  N      -2.820055     -0.197737     -0.546596
  N      -1.236892      1.276436      0.581323
  N       1.012366      0.406990      0.704613
  N       1.661155     -1.672665     -0.122473
  C      -0.643288     -0.879013     -0.352420
  C      -1.566266      0.142830     -0.071592
  C       0.699406     -0.732395      0.055448
  C      -2.660454     -1.381456     -1.090099
  C       0.043295      1.323278      0.925878
  H      -1.057386     -2.763103     -1.325043
  H      -3.444774     -1.958338     -1.563377
  H       0.368704      2.217606      1.453806
  H       2.641201     -1.457856      0.121581
  H       1.515031     -2.408834     -0.795252
29
Coordinates from ORCA-job dimethylurea_adenine_opt_freq E -770.815904766599
  O       4.329125     -1.217779      0.626775
  N       6.035138     -0.197785      1.744814
  N       3.946621      0.849919      1.512152
  C       4.738005     -0.233311      1.274121
  H       6.231015      0.410249      2.525691
  H       2.970819      0.745750      1.217806
  C       6.881795     -1.377661      1.612333
  H       6.571370     -2.196148      2.274866
  H       6.836967     -1.739199      0.583897
  H       7.911503     -1.094569      1.846065
  C       4.350415      2.116999      2.094211
  H       3.867621      2.942548      1.563437
  H       4.087110      2.193036      3.159443
  H       5.431334      2.258530      2.010105
  N      -1.374050     -1.854698     -1.035908
  N      -2.834727     -0.208181     -0.563113
  N      -1.268379      1.259938      0.596780
  N       0.985331      0.399548      0.732400
  N       1.647594     -1.667847     -0.121731
  C      -0.656490     -0.881035     -0.356532
  C      -1.586519      0.133264     -0.073843
  C       0.682113     -0.732647      0.064411
  C      -2.664866     -1.386279     -1.115808
  C       0.007214      1.306374      0.957123
  H      -1.054817     -2.760460     -1.344862
  H      -3.442450     -1.962822     -1.600484
  H       0.320864      2.192117      1.506345
  H       2.625034     -1.455375      0.137696
  H       1.511951     -2.385506     -0.816578
29
Coordinates from ORCA-job dimethylurea_adenine_opt_freq E -770.816045410222
  O       4.319872     -1.222635      0.638763
  N       6.027307     -0.203859      1.754400
  N       3.968767      0.880266      1.450783
  C       4.739238     -0.228000      1.262972
  H       6.240124      0.443651      2.497799
  H       2.988311      0.777985      1.173493
  C       6.861138     -1.396480      1.665508
  H       6.547654     -2.182071      2.365394
  H       6.803319     -1.801287      0.654005
  H       7.895934     -1.115492      1.878738
  C       4.381987      2.134331      2.053932
  H       3.877676      2.965497      1.554122
  H       4.153457      2.184654      3.128915
  H       5.458781      2.286382      1.934002
  N      -1.369523     -1.844717     -1.061861
  N      -2.847384     -0.230670     -0.532798
  N      -1.291523      1.221998      0.661678
  N       0.974045      0.387087      0.754230
  N       1.656133     -1.643390     -0.171913
  C      -0.659466     -0.881386     -0.360425
  C      -1.600157      0.112328     -0.042058
  C       0.680392     -0.727744      0.054420
  C      -2.666811     -1.390795     -1.119309
  C      -0.014727      1.272458      1.016390
  H      -1.041961     -2.737876     -1.397673
  H      -3.440506     -1.963519     -1.614623
  H       0.290722      2.142995      1.593986
  H       2.630090     -1.438390      0.102671
  H       1.523751     -2.344352     -0.883925
29
Coordinates from ORCA-job dimethylurea_adenine_opt_freq E -770.816187825762
  O       4.321912     -1.233020      0.656178
  N       6.030880     -0.206799      1.760048
  N       3.988426      0.892669      1.415385
  C       4.748873     -0.229339      1.259888
  H       6.265328      0.478253      2.461457
  H       3.005368      0.787275      1.152170
  C       6.859623     -1.404575      1.704770
  H       6.549502     -2.162979      2.435473
  H       6.790126     -1.845186      0.709037
  H       7.897765     -1.121699      1.898347
  C       4.397796      2.140698      2.033633
  H       3.870718      2.969235      1.553870
  H       4.191855      2.170236      3.113735
  H       5.468190      2.315771      1.885007
  N      -1.375134     -1.836218     -1.078700
  N      -2.860001     -0.241456     -0.512321
  N      -1.306943      1.198818      0.701301
  N       0.965358      0.379793      0.760410
  N       1.656909     -1.624390     -0.216922
  C      -0.666834     -0.880843     -0.364516
  C      -1.612266      0.100554     -0.022153
  C       0.675361     -0.724525      0.042147
  C      -2.675346     -1.389139     -1.121564
  C      -0.028563      1.250963      1.049361
  H      -1.042723     -2.717046     -1.441101
  H      -3.448065     -1.957663     -1.623215
  H       0.274117      2.110448      1.644738
  H       2.626722     -1.429094      0.073219
  H       1.517685     -2.333769     -0.918066
29
Coordinates from ORCA-job dimethylurea_adenine_opt_freq E -770.816303568718
  O       4.309346     -1.239851      0.674696
  N       6.027066     -0.208904      1.760366
  N       4.002309      0.907749      1.379274
  C       4.748481     -0.228003      1.255877
  H       6.281198      0.505940      2.423837
  H       3.015782      0.799956      1.131714
  C       6.846458     -1.413871      1.737424
  H       6.533240     -2.146974      2.492240
  H       6.769255     -1.884222      0.755871
  H       7.887660     -1.134327      1.918815
  C       4.410326      2.149720      2.010309
  H       3.858492      2.975826      1.554625
  H       4.228441      2.160035      3.095074
  H       5.472643      2.348691      1.832850
  N      -1.374132     -1.825742     -1.097701
  N      -2.865226     -0.253449     -0.487428
  N      -1.313782      1.171244      0.746078
  N       0.964921      0.369224      0.768324
  N       1.665581     -1.605770     -0.254036
  C      -0.667078     -0.881458     -0.367234
  C      -1.616680      0.086099      0.002262
  C       0.677421     -0.723334      0.032034
  C      -2.677107     -1.385730     -1.123679
  C      -0.032505      1.226689      1.083468
  H      -1.036711     -2.690911     -1.491625
  H      -3.449240     -1.947794     -1.633456
  H       0.269654      2.077009      1.692092
  H       2.630199     -1.419377      0.055475
  H       1.520628     -2.331494     -0.935931
29
Coordinates from ORCA-job dimethylurea_adenine_opt_freq E -770.816470642299
  O       4.308853     -1.255189      0.695714
  N       6.028944     -0.210385      1.763308
  N       4.007301      0.904466      1.365208
  C       4.752106     -0.235008      1.259967
  H       6.298321      0.532002      2.389119
  H       3.019486      0.786996      1.123474
  C       6.853232     -1.411734      1.757070
  H       6.541431     -2.135408      2.521451
  H       6.780304     -1.896255      0.781874
  H       7.892789     -1.125962      1.937525
  C       4.401667      2.146949      2.004587
  H       3.820632      2.963855      1.568492
  H       4.234059      2.142576      3.091525
  H       5.453099      2.380123      1.804105
  N      -1.382279     -1.815157     -1.108186
  N      -2.868386     -0.252948     -0.462558
  N      -1.307127      1.160522      0.769524
  N       0.972989      0.364808      0.755672
  N       1.670650     -1.594111     -0.292628
  C      -0.668700     -0.880594     -0.370616
  C      -1.615803      0.081380      0.020108
  C       0.680640     -0.724184      0.015190
  C      -2.685107     -1.374777     -1.118082
  C      -0.020966      1.218561      1.088084
  H      -1.044384     -2.663307     -1.536910
  H      -3.461207     -1.929301     -1.630095
  H       0.288239      2.066740      1.696096
  H       2.630307     -1.419580      0.035378
  H       1.505548     -2.368108     -0.912777
29
Coordinates from ORCA-job dimethylurea_adenine_opt_freq E -770.816689873359
  O       4.296972     -1.270903      0.719186
  N       6.020877     -0.210874      1.765589
  N       4.008894      0.906481      1.333736
  C       4.746254     -0.239824      1.259842
  H       6.302144      0.558591      2.352043
  H       3.018741      0.777746      1.104234
  C       6.846354     -1.410668      1.782208
  H       6.526985     -2.125071      2.552006
  H       6.786012     -1.907845      0.812240
  H       7.883072     -1.121079      1.971935
  C       4.391121      2.146014      1.985818
  H       3.768947      2.951812      1.586981
  H       4.252879      2.119185      3.076794
  H       5.425438      2.421228      1.751296
  N      -1.383908     -1.798452     -1.125190
  N      -2.865154     -0.256421     -0.423489
  N      -1.291439      1.139674      0.810401
  N       0.990710      0.354440      0.746388
  N       1.685902     -1.577015     -0.342934
  C      -0.662774     -0.879537     -0.374397
  C      -1.607200      0.071003      0.049807
  C       0.691797     -0.726240     -0.004088
  C      -2.687227     -1.360380     -1.109851
  C       0.001148      1.202153      1.102745
  H      -1.045455     -2.620628     -1.601334
  H      -3.468162     -1.903302     -1.626942
  H       0.318997      2.046810      1.711196
  H       2.637280     -1.419453      0.017257
  H       1.497438     -2.410475     -0.871861
29
Coordinates from ORCA-job dimethylurea_adenine_opt_freq E -770.816923168965
  O       4.298903     -1.295663      0.740917
  N       6.014428     -0.208880      1.772676
  N       3.999985      0.893060      1.311905
  C       4.742183     -0.251637      1.262727
  H       6.294715      0.582717      2.329324
  H       3.010015      0.746636      1.085164
  C       6.851840     -1.399413      1.802681
  H       6.521727     -2.120843      2.560998
  H       6.822844     -1.893217      0.829178
  H       7.879639     -1.098449      2.020513
  C       4.362489      2.133396      1.973949
  H       3.693928      2.921779      1.617361
  H       4.257759      2.084579      3.068250
  H       5.375694      2.454201      1.707344
  N      -1.390678     -1.780980     -1.134655
  N      -2.858673     -0.252632     -0.377252
  N      -1.261553      1.131549      0.837861
  N       1.018209      0.348626      0.718461
  N       1.700121     -1.562039     -0.411488
  C      -0.655427     -0.874976     -0.381396
  C      -1.591834      0.068206      0.076542
  C       0.705610     -0.727557     -0.033640
  C      -2.692954     -1.342401     -1.088813
  C       0.038582      1.197345      1.095938
  H      -1.056110     -2.573991     -1.660534
  H      -3.482981     -1.874213     -1.603654
  H       0.370361      2.041993      1.696949
  H       2.638600     -1.426048     -0.008661
  H       1.479214     -2.464174     -0.797032
29
Coordinates from ORCA-job dimethylurea_adenine_opt_freq E -770.817100349286
  O       4.285589     -1.292686      0.735800
  N       6.000019     -0.206560      1.770789
  N       3.986462      0.897458      1.305123
  C       4.726850     -0.248073      1.258440
  H       6.268489      0.576336      2.345654
  H       2.995748      0.751504      1.082335
  C       6.835525     -1.398419      1.796566
  H       6.494398     -2.129746      2.540230
  H       6.820237     -1.878749      0.816044
  H       7.860290     -1.100610      2.032526
  C       4.356796      2.133067      1.970730
  H       3.678455      2.922661      1.636600
  H       4.271391      2.076233      3.067022
  H       5.367799      2.452218      1.694739
  N      -1.379997     -1.781024     -1.127871
  N      -2.847650     -0.252079     -0.369752
  N      -1.246293      1.136439      0.836216
  N       1.032032      0.348706      0.718050
  N       1.712256     -1.562821     -0.421962
  C      -0.643843     -0.872573     -0.380071
  C      -1.579524      0.070870      0.079121
  C       0.716217     -0.726587     -0.033421
  C      -2.682696     -1.343609     -1.079228
  C       0.054314      1.201747      1.092518
  H      -1.044192     -2.574061     -1.653336
  H      -3.473564     -1.877108     -1.591009
  H       0.386805      2.048470      1.690190
  H       2.652208     -1.440393     -0.012787
  H       1.482517     -2.473645     -0.787641
29
Coordinates from ORCA-job dimethylurea_adenine_opt_freq E -770.817241519126
  O       4.297167     -1.301123      0.736872
  N       6.003090     -0.201703      1.770313
  N       3.975750      0.884505      1.316658
  C       4.727645     -0.253931      1.261792
  H       6.259378      0.573254      2.361328
  H       2.986004      0.736207      1.092120
  C       6.843081     -1.390878      1.793210
  H       6.495271     -2.132306      2.523541
  H       6.843202     -1.859907      0.807130
  H       7.863415     -1.090893      2.045308
  C       4.347295      2.122636      1.977515
  H       3.662578      2.910582      1.653907
  H       4.281464      2.063036      3.075212
  H       5.358607      2.435374      1.695107
  N      -1.381239     -1.784822     -1.116823
  N      -2.848104     -0.250333     -0.366641
  N      -1.241120      1.151058      0.819355
  N       1.035840      0.359971      0.700475
  N       1.711477     -1.554512     -0.439606
  C      -0.642724     -0.865548     -0.386265
  C      -1.577809      0.079882      0.070951
  C       0.716495     -0.716798     -0.043722
  C      -2.684742     -1.349372     -1.065218
  C       0.059827      1.216312      1.073863
  H      -1.044302     -2.578403     -1.640771
  H      -3.477472     -1.889928     -1.566582
  H       0.393400      2.064898      1.668180
  H       2.650345     -1.447775     -0.023343
  H       1.472823     -2.472514     -0.782252
29
Coordinates from ORCA-job dimethylurea_adenine_opt_freq E -770.817296545402
  O       4.294135     -1.297907      0.730316
  N       5.997345     -0.201738      1.771706
  N       3.977566      0.890788      1.303369
  C       4.724634     -0.251477      1.256364
  H       6.253528      0.570017      2.366904
  H       2.986400      0.748220      1.082484
  C       6.829328     -1.396570      1.805602
  H       6.474866     -2.129747      2.541117
  H       6.827203     -1.873072      0.823241
  H       7.851732     -1.102208      2.056240
  C       4.356883      2.124454      1.968331
  H       3.667167      2.912564      1.658158
  H       4.314520      2.055221      3.066947
  H       5.365798      2.436408      1.674422
  N      -1.374361     -1.787712     -1.114110
  N      -2.848638     -0.262708     -0.358798
  N      -1.246051      1.145360      0.827314
  N       1.034795      0.366860      0.702050
  N       1.716265     -1.535421     -0.455481
  C      -0.639291     -0.862678     -0.388160
  C      -1.579032      0.075970      0.073912
  C       0.719228     -0.706603     -0.047055
  C      -2.680791     -1.361247     -1.057177
  C       0.053670      1.214619      1.084094
  H      -1.033587     -2.579722     -1.637870
  H      -3.471911     -1.907931     -1.554369
  H       0.381812      2.059464      1.686576
  H       2.652911     -1.441409     -0.033493
  H       1.480515     -2.444826     -0.821020
29
Coordinates from ORCA-job dimethylurea_adenine_opt_freq E -770.817332743019
  O       4.300621     -1.302982      0.727610
  N       5.998604     -0.202079      1.773626
  N       3.975172      0.882984      1.307133
  C       4.726981     -0.256049      1.256734
  H       6.251918      0.568365      2.371922
  H       2.984951      0.740556      1.080019
  C       6.834798     -1.394264      1.808355
  H       6.482354     -2.128344      2.544005
  H       6.834323     -1.870994      0.826146
  H       7.856298     -1.096865      2.059048
  C       4.352060      2.117780      1.971536
  H       3.658069      2.902999      1.663197
  H       4.316454      2.045761      3.070200
  H       5.358790      2.435618      1.675365
  N      -1.376289     -1.789454     -1.108672
  N      -2.849533     -0.263012     -0.354957
  N      -1.245118      1.150281      0.821899
  N       1.036875      0.375375      0.692549
  N       1.716314     -1.528300     -0.466063
  C      -0.639689     -0.860230     -0.389492
  C      -1.579170      0.078731      0.072302
  C       0.720393     -0.701061     -0.053128
  C      -2.682976     -1.364017     -1.049492
  C       0.054529      1.221586      1.076006
  H      -1.036067     -2.581438     -1.632820
  H      -3.475127     -1.913796     -1.541572
  H       0.382335      2.067871      1.676609
  H       2.649619     -1.439773     -0.037234
  H       1.479150     -2.438280     -0.829216
29
Coordinates from ORCA-job dimethylurea_adenine_opt_freq E -770.817360180665
  O       4.300587     -1.304542      0.729474
  N       5.999842     -0.201669      1.772160
  N       3.975401      0.881275      1.309344
  C       4.727637     -0.256782      1.257306
  H       6.252326      0.565646      2.374905
  H       2.985168      0.741960      1.078359
  C       6.834532     -1.395144      1.812910
  H       6.483970     -2.123231      2.555508
  H       6.828706     -1.878992      0.834286
  H       7.857612     -1.097812      2.056980
  C       4.355678      2.116196      1.971228
  H       3.660600      2.901756      1.666268
  H       4.328437      2.043651      3.069978
  H       5.360802      2.435162      1.670185
  N      -1.376781     -1.791245     -1.106865
  N      -2.851793     -0.267712     -0.351819
  N      -1.249109      1.148466      0.822776
  N       1.036442      0.382205      0.688083
  N       1.716377     -1.522236     -0.470422
  C      -0.640741     -0.859419     -0.389842
  C      -1.581665      0.077008      0.072961
  C       0.720955     -0.696048     -0.057152
  C      -2.684303     -1.368671     -1.045906
  C       0.050250      1.222985      1.075039
  H      -1.036153     -2.583449     -1.630409
  H      -3.476104     -1.920919     -1.535773
  H       0.376241      2.069195      1.676816
  H       2.649991     -1.435458     -0.042790
  H       1.481735     -2.425204     -0.851971
29
Coordinates from ORCA-job dimethylurea_adenine_opt_freq E -770.817402021447
  O       4.295922     -1.307478      0.734916
  N       5.998844     -0.202052      1.769547
  N       3.973871      0.879961      1.310076
  C       4.725148     -0.258006      1.258819
  H       6.252447      0.565302      2.371945
  H       2.984112      0.742607      1.074060
  C       6.832305     -1.396337      1.817523
  H       6.485902     -2.116402      2.569928
  H       6.818956     -1.890020      0.843945
  H       7.857307     -1.097919      2.051815
  C       4.356666      2.114259      1.970609
  H       3.651704      2.896623      1.680724
  H       4.348282      2.037439      3.069375
  H       5.354143      2.443446      1.654818
  N      -1.375663     -1.790540     -1.108648
  N      -2.851995     -0.273372     -0.343952
  N      -1.249605      1.143859      0.828661
  N       1.039930      0.389114      0.679352
  N       1.719519     -1.515535     -0.478869
  C      -0.639567     -0.858559     -0.390958
  C      -1.581442      0.073574      0.077212
  C       0.724182     -0.691477     -0.064539
  C      -2.684007     -1.371464     -1.042325
  C       0.050602      1.223371      1.073237
  H      -1.035288     -2.578939     -1.638081
  H      -3.475873     -1.924472     -1.531249
  H       0.376815      2.070294      1.674113
  H       2.649191     -1.431408     -0.042067
  H       1.484232     -2.418898     -0.858371
29
Coordinates from ORCA-job dimethylurea_adenine_opt_freq E -770.817451332452
  O       4.292710     -1.305805      0.735143
  N       6.001089     -0.201418      1.762562
  N       3.966609      0.874813      1.333486
  C       4.722117     -0.258476      1.264066
  H       6.251119      0.556349      2.378890
  H       2.978807      0.741330      1.085944
  C       6.835819     -1.395245      1.803336
  H       6.501224     -2.113308      2.563129
  H       6.808108     -1.891768      0.831660
  H       7.863831     -1.095003      2.021593
  C       4.355538      2.110434      1.986241
  H       3.646627      2.892761      1.705783
  H       4.359857      2.036046      3.085155
  H       5.348803      2.441007      1.658731
  N      -1.373804     -1.794997     -1.103946
  N      -2.851512     -0.272245     -0.353184
  N      -1.251276      1.153048      0.812277
  N       1.040968      0.401205      0.667326
  N       1.718238     -1.522991     -0.462175
  C      -0.639184     -0.858110     -0.390408
  C      -1.581697      0.077368      0.068009
  C       0.724845     -0.688715     -0.065106
  C      -2.682155     -1.375330     -1.043404
  C       0.048972      1.235790      1.054851
  H      -1.033927     -2.589776     -1.624082
  H      -3.472891     -1.931916     -1.530115
  H       0.375398      2.088766      1.647205
  H       2.649205     -1.435356     -0.028190
  H       1.483202     -2.421488     -0.853162
29
Coordinates from ORCA-job dimethylurea_adenine_opt_freq E -770.817518344963
  O       4.287004     -1.306176      0.743899
  N       6.001434     -0.198846      1.757809
  N       3.964037      0.875365      1.341740
  C       4.718447     -0.257404      1.268447
  H       6.250345      0.558007      2.376000
  H       2.976954      0.744153      1.088789
  C       6.832568     -1.394729      1.805375
  H       6.506171     -2.101178      2.579639
  H       6.790227     -1.904473      0.841257
  H       7.864133     -1.094110      2.005849
  C       4.360919      2.108918      1.991694
  H       3.631725      2.884946      1.747287
  H       4.403306      2.027011      3.089414
  H       5.336360      2.456831      1.629803
  N      -1.372570     -1.793912     -1.108181
  N      -2.852094     -0.277730     -0.347084
  N      -1.250680      1.149449      0.815076
  N       1.044953      0.406518      0.653881
  N       1.717530     -1.523406     -0.469558
  C      -0.638413     -0.857611     -0.392934
  C      -1.581471      0.073728      0.070757
  C       0.726254     -0.686554     -0.073932
  C      -2.681653     -1.377738     -1.042238
  C       0.051440      1.236868      1.047270
  H      -1.033246     -2.585598     -1.633338
  H      -3.472221     -1.934248     -1.529346
  H       0.380082      2.091745      1.635760
  H       2.649755     -1.435941     -0.037279
  H       1.475342     -2.426915     -0.844239
29
Coordinates from ORCA-job dimethylurea_adenine_opt_freq E -770.817602972667
  O       4.285561     -1.300090      0.738997
  N       6.004015     -0.197249      1.752957
  N       3.955859      0.870023      1.375002
  C       4.715414     -0.257223      1.275206
  H       6.249091      0.551766      2.382501
  H       2.971924      0.743864      1.111166
  C       6.839213     -1.390726      1.782453
  H       6.531851     -2.099000      2.562973
  H       6.777014     -1.899410      0.819038
  H       7.874181     -1.087233      1.960529
  C       4.359492      2.103675      2.019525
  H       3.614478      2.873031      1.801749
  H       4.431766      2.017497      3.115288
  H       5.319618      2.463643      1.629383
  N      -1.371983     -1.800116     -1.102952
  N      -2.850600     -0.269922     -0.367070
  N      -1.248348      1.167446      0.783507
  N       1.045200      0.414139      0.638773
  N       1.712379     -1.539268     -0.446517
  C      -0.638522     -0.857695     -0.395421
  C      -1.580354      0.082668      0.052163
  C       0.723731     -0.688748     -0.072154
  C      -2.680052     -1.379389     -1.047445
  C       0.054004      1.253867      1.017494
  H      -1.034493     -2.602854     -1.612243
  H      -3.470104     -1.939082     -1.531777
  H       0.384701      2.116638      1.593139
  H       2.646087     -1.446026     -0.017698
  H       1.465517     -2.447255     -0.806951
29
Coordinates from ORCA-job dimethylurea_adenine_opt_freq E -770.817712055633
  O       4.289497     -1.294519      0.731241
  N       6.007069     -0.195306      1.754105
  N       3.948439      0.860600      1.411843
  C       4.714756     -0.259227      1.283330
  H       6.246263      0.547158      2.393724
  H       2.968065      0.741828      1.135301
  C       6.849785     -1.383532      1.762219
  H       6.565968     -2.094725      2.549154
  H       6.765598     -1.890821      0.799922
  H       7.887581     -1.075112      1.914306
  C       4.357990      2.094666      2.052379
  H       3.589591      2.850713      1.872031
  H       4.474074      1.999023      3.143305
  H       5.293334      2.476446      1.623973
  N      -1.375966     -1.807852     -1.094629
  N      -2.850107     -0.259178     -0.387937
  N      -1.243243      1.190627      0.742223
  N       1.044923      0.420033      0.620089
  N       1.704886     -1.554111     -0.431337
  C      -0.640420     -0.857455     -0.400920
  C      -1.579108      0.095004      0.028634
  C       0.719652     -0.691380     -0.073353
  C      -2.682483     -1.381162     -1.048390
  C       0.059011      1.273524      0.980391
  H      -1.042071     -2.624647     -1.583478
  H      -3.473977     -1.944930     -1.525602
  H       0.392133      2.144187      1.542336
  H       2.642717     -1.453645     -0.013796
  H       1.452685     -2.469238     -0.769451
29
Coordinates from ORCA-job dimethylurea_adenine_opt_freq E -770.817799744907
  O       4.295125     -1.291878      0.724371
  N       6.010581     -0.194673      1.757090
  N       3.940565      0.845719      1.451024
  C       4.715429     -0.264217      1.292770
  H       6.244794      0.541015      2.406314
  H       2.963945      0.735993      1.160976
  C       6.864136     -1.374923      1.741278
  H       6.606418     -2.090811      2.533090
  H       6.758522     -1.879752      0.779908
  H       7.903391     -1.059432      1.867153
  C       4.352762      2.082379      2.086404
  H       3.563004      2.823070      1.938360
  H       4.511210      1.978399      3.170735
  H       5.263527      2.486072      1.625477
  N      -1.382951     -1.817316     -1.082165
  N      -2.849633     -0.245678     -0.411760
  N      -1.237486      1.217383      0.693349
  N       1.043564      0.426690      0.601975
  N       1.698826     -1.565068     -0.416638
  C      -0.643355     -0.857337     -0.406913
  C      -1.577761      0.109752      0.001084
  C       0.715773     -0.693010     -0.074552
  C      -2.687284     -1.382668     -1.047135
  C       0.063628      1.295708      0.939391
  H      -1.053375     -2.650110     -1.546294
  H      -3.481345     -1.951404     -1.514056
  H       0.398264      2.174348      1.487630
  H       2.639315     -1.455373     -0.008269
  H       1.447050     -2.485905     -0.738985
29
Coordinates from ORCA-job dimethylurea_adenine_opt_freq E -770.817869122575
  O       4.295755     -1.291481      0.721008
  N       6.010267     -0.196587      1.759991
  N       3.932843      0.833199      1.479172
  C       4.713692     -0.269007      1.300485
  H       6.243296      0.533942      2.415377
  H       2.958796      0.731485      1.177562
  C       6.872302     -1.370200      1.725793
  H       6.634007     -2.089985      2.520243
  H       6.751470     -1.872815      0.765073
  H       7.911901     -1.049036      1.833114
  C       4.346150      2.073070      2.109193
  H       3.543879      2.803051      1.981936
  H       4.533441      1.964945      3.188138
  H       5.241675      2.489033      1.628976
  N      -1.386740     -1.825064     -1.070195
  N      -2.847554     -0.236712     -0.428282
  N      -1.232845      1.237314      0.656414
  N       1.042807      0.433280      0.591010
  N       1.698531     -1.568267     -0.407015
  C      -0.643884     -0.857754     -0.409414
  C      -1.575253      0.120288     -0.018811
  C       0.715829     -0.692664     -0.074700
  C      -2.689503     -1.384915     -1.043820
  C       0.066730      1.313123      0.909708
  H      -1.059644     -2.669304     -1.514987
  H      -3.485542     -1.958125     -1.501779
  H       0.401467      2.197654      1.448238
  H       2.641082     -1.449386     -0.006732
  H       1.451683     -2.492114     -0.724084
29
Coordinates from ORCA-job dimethylurea_adenine_opt_freq E -770.817887211705
  O       4.300326     -1.298416      0.726925
  N       6.014418     -0.197217      1.760222
  N       3.926880      0.816757      1.504973
  C       4.715531     -0.276487      1.310443
  H       6.248401      0.531666      2.417143
  H       2.955864      0.718938      1.191936
  C       6.886246     -1.363161      1.714008
  H       6.667975     -2.082919      2.514276
  H       6.752254     -1.868830      0.756668
  H       7.924907     -1.033400      1.802429
  C       4.338997      2.060982      2.127910
  H       3.521741      2.778487      2.024953
  H       4.557753      1.949879      3.200539
  H       5.216136      2.494814      1.629294
  N      -1.393615     -1.830214     -1.060310
  N      -2.848542     -0.227097     -0.443631
  N      -1.231186      1.254527      0.624702
  N       1.041176      0.440396      0.578716
  N       1.695636     -1.570072     -0.400163
  C      -0.647796     -0.857373     -0.411022
  C      -1.575928      0.129850     -0.035956
  C       0.713252     -0.691526     -0.076682
  C      -2.694573     -1.384251     -1.042980
  C       0.067448      1.328211      0.882119
  H      -1.068005     -2.681534     -1.492546
  H      -3.492153     -1.960723     -1.494075
  H       0.403426      2.218165      1.410921
  H       2.637624     -1.445204      0.001080
  H       1.452446     -2.497279     -0.710278
29
Coordinates from ORCA-job dimethylurea_adenine_opt_freq E -770.817903528083
  O       4.290011     -1.298083      0.728010
  N       6.007860     -0.201909      1.758825
  N       3.920008      0.814513      1.513481
  C       4.708395     -0.277515      1.313162
  H       6.248119      0.525917      2.414647
  H       2.949374      0.720806      1.195324
  C       6.880956     -1.366598      1.704069
  H       6.667805     -2.088802      2.503456
  H       6.742345     -1.869616      0.745945
  H       7.919601     -1.035794      1.788160
  C       4.334941      2.060126      2.131853
  H       3.518515      2.777962      2.036452
  H       4.560564      1.949917      3.203159
  H       5.213386      2.488696      1.630761
  N      -1.387627     -1.834671     -1.052602
  N      -2.843608     -0.226597     -0.453007
  N      -1.231348      1.261495      0.612311
  N       1.040275      0.445956      0.582993
  N       1.701952     -1.565917     -0.390255
  C      -0.643722     -0.858622     -0.405696
  C      -1.572799      0.131925     -0.041694
  C       0.717832     -0.689382     -0.070225
  C      -2.688265     -1.387629     -1.044313
  C       0.065716      1.336126      0.875892
  H      -1.059358     -2.688713     -1.477402
  H      -3.484221     -1.967038     -1.494474
  H       0.399579      2.228334      1.402315
  H       2.645500     -1.434930      0.005345
  H       1.464857     -2.492988     -0.704875
29
Coordinates from ORCA-job dimethylurea_adenine_opt_freq E -770.817922169470
  O       4.293358     -1.301680      0.731760
  N       6.010933     -0.200863      1.757356
  N       3.920182      0.810829      1.516594
  C       4.710626     -0.279488      1.315045
  H       6.252168      0.529497      2.410061
  H       2.950676      0.715837      1.196056
  C       6.886052     -1.364104      1.703975
  H       6.676753     -2.083850      2.506585
  H       6.745790     -1.870741      0.748045
  H       7.924129     -1.030476      1.783969
  C       4.335016      2.057036      2.133172
  H       3.512058      2.769882      2.050762
  H       4.573259      1.945222      3.201739
  H       5.204200      2.495026      1.624055
  N      -1.389678     -1.833754     -1.053379
  N      -2.845458     -0.224270     -0.456595
  N      -1.232879      1.263089      0.610172
  N       1.039263      0.446508      0.581063
  N       1.698437     -1.567877     -0.387918
  C      -0.646312     -0.858111     -0.405134
  C      -1.574899      0.133201     -0.043412
  C       0.714918     -0.689693     -0.069933
  C      -2.689864     -1.385471     -1.047766
  C       0.064502      1.337052      0.873085
  H      -1.060931     -2.686618     -1.480184
  H      -3.485338     -1.964457     -1.499329
  H       0.399480      2.229855      1.397826
  H       2.641339     -1.438360      0.010996
  H       1.458859     -2.496250     -0.697050
29
Coordinates from ORCA-job dimethylurea_adenine_opt_freq E -770.817932251272
  O       4.293726     -1.304296      0.735894
  N       6.013131     -0.199968      1.753707
  N       3.918846      0.807171      1.523243
  C       4.711057     -0.281170      1.317362
  H       6.257552      0.533663      2.401521
  H       2.950483      0.711696      1.200299
  C       6.890120     -1.361742      1.698659
  H       6.685404     -2.080318      2.503467
  H       6.747442     -1.870445      0.744210
  H       7.927654     -1.025319      1.774099
  C       4.335025      2.053990      2.136564
  H       3.505367      2.761432      2.071581
  H       4.588639      1.940191      3.201501
  H       5.193512      2.501000      1.617204
  N      -1.389455     -1.833830     -1.052993
  N      -2.845598     -0.220312     -0.467254
  N      -1.234591      1.267000      0.603449
  N       1.037428      0.447339      0.582340
  N       1.694518     -1.572434     -0.376611
  C      -0.648001     -0.857942     -0.402792
  C      -1.576356      0.135640     -0.048360
  C       0.711842     -0.690742     -0.064861
  C      -2.688700     -1.382961     -1.055562
  C       0.062495      1.339662      0.869168
  H      -1.059513     -2.686350     -1.479553
  H      -3.482650     -1.961649     -1.510186
  H       0.398035      2.233619      1.391598
  H       2.637506     -1.443824      0.023343
  H       1.451723     -2.502131     -0.679422
29
Coordinates from ORCA-job dimethylurea_adenine_opt_freq E -770.817938104425
  O       4.292272     -1.305701      0.739136
  N       6.013730     -0.199848      1.751239
  N       3.916881      0.804360      1.530471
  C       4.710221     -0.282506      1.319737
  H       6.261622      0.536689      2.394320
  H       2.949346      0.709878      1.205205
  C       6.892296     -1.360215      1.692386
  H       6.691190     -2.079556      2.497392
  H       6.747687     -1.868582      0.738033
  H       7.929458     -1.021987      1.764854
  C       4.334508      2.051978      2.140726
  H       3.500288      2.755101      2.089549
  H       4.600627      1.936416      3.202419
  H       5.184706      2.504829      1.612812
  N      -1.388445     -1.834732     -1.051661
  N      -2.844541     -0.216822     -0.477501
  N      -1.235083      1.271378      0.595121
  N       1.036058      0.448328      0.584104
  N       1.692107     -1.576604     -0.365345
  C      -0.648353     -0.857925     -0.401189
  C      -1.576470      0.138319     -0.054198
  C       0.710263     -0.691658     -0.059719
  C      -2.686824     -1.381520     -1.061634
  C       0.061284      1.342878      0.864866
  H      -1.057855     -2.687994     -1.476229
  H      -3.479702     -1.960351     -1.517967
  H       0.396626      2.237965      1.385485
  H       2.635518     -1.448146      0.033562
  H       1.447225     -2.507002     -0.664360
29
Coordinates from ORCA-job dimethylurea_adenine_opt_freq E -770.817943964916
  O       4.290357     -1.307479      0.743360
  N       6.013998     -0.199643      1.749188
  N       3.913542      0.799742      1.541944
  C       4.708742     -0.284540      1.323700
  H       6.265491      0.539650      2.387551
  H       2.947148      0.707677      1.212889
  C       6.895244     -1.357536      1.683493
  H       6.698543     -2.079901      2.486856
  H       6.748988     -1.863306      0.727965
  H       7.931800     -1.016998      1.753624
  C       4.332664      2.049038      2.147722
  H       3.493210      2.746645      2.111846
  H       4.614112      1.931782      3.205165
  H       5.172840      2.508222      1.609209
  N      -1.387958     -1.836419     -1.048861
  N      -2.842564     -0.211765     -0.489893
  N      -1.233852      1.278007      0.581970
  N       1.035383      0.449644      0.584686
  N       1.689513     -1.582401     -0.351759
  C      -0.648268     -0.857776     -0.400624
  C      -1.575481      0.142511     -0.062868
  C       0.709205     -0.692908     -0.054473
  C      -2.685097     -1.379881     -1.067178
  C       0.061458      1.347817      0.856951
  H      -1.057651     -2.691832     -1.469293
  H      -3.477491     -1.959089     -1.523889
  H       0.396562      2.244651      1.374696
  H       2.633519     -1.453616      0.045073
  H       1.442682     -2.513326     -0.647436
29
Coordinates from ORCA-job dimethylurea_adenine_opt_freq E -770.817949033217
  O       4.288858     -1.309376      0.747901
  N       6.014076     -0.199312      1.748269
  N       3.910296      0.795233      1.552825
  C       4.707349     -0.286485      1.328045
  H       6.268115      0.541825      2.383358
  H       2.944925      0.705566      1.220065
  C       6.897979     -1.354684      1.675893
  H       6.704057     -2.081289      2.476085
  H       6.751918     -1.856449      0.718163
  H       7.933841     -1.012161      1.746297
  C       4.330377      2.046486      2.154248
  H       3.486747      2.739366      2.129790
  H       4.624611      1.928520      3.207988
  H       5.162080      2.510583      1.606713
  N      -1.388342     -1.837792     -1.046366
  N      -2.840712     -0.207277     -0.498814
  N      -1.231482      1.283833      0.570159
  N       1.035752      0.450503      0.583698
  N       1.687459     -1.587896     -0.341413
  C      -0.647935     -0.857463     -0.401504
  C      -1.573909      0.146391     -0.070523
  C       0.708947     -0.694165     -0.051462
  C      -2.684445     -1.378464     -1.070037
  C       0.062996      1.352059      0.848956
  H      -1.059057     -2.695335     -1.463254
  H      -3.477142     -1.957991     -1.525818
  H       0.398168      2.250472      1.363907
  H       2.631792     -1.458795      0.053931
  H       1.439321     -2.518934     -0.635486
29
Coordinates from ORCA-job dimethylurea_adenine_opt_freq E -770.817952257473
  O       4.287583     -1.310767      0.751773
  N       6.013868     -0.198926      1.747973
  N       3.908170      0.792817      1.559209
  C       4.706210     -0.287490      1.331162
  H       6.269354      0.543099      2.381388
  H       2.943265      0.704388      1.224520
  C       6.899117     -1.352950      1.671697
  H       6.704284     -2.083812      2.467760
  H       6.756047     -1.850251      0.711133
  H       7.934416     -1.009678      1.746210
  C       4.328883      2.045535      2.157470
  H       3.483108      2.735927      2.138853
  H       4.630606      1.927832      3.209017
  H       5.155628      2.511945      1.604302
  N      -1.388750     -1.838360     -1.045216
  N      -2.839471     -0.204844     -0.502431
  N      -1.229377      1.286719      0.564201
  N       1.036655      0.450523      0.582689
  N       1.686444     -1.591638     -0.336057
  C      -0.647366     -0.857104     -0.402951
  C      -1.572488      0.148479     -0.074459
  C       0.709353     -0.695135     -0.050515
  C      -2.684333     -1.377569     -1.070696
  C       0.064742      1.353974      0.844551
  H      -1.060340     -2.696783     -1.460992
  H      -3.477550     -1.957143     -1.525508
  H       0.400157      2.253186      1.357953
  H       2.630760     -1.462627      0.058971
  H       1.437663     -2.522378     -0.630393
29
Coordinates from ORCA-job dimethylurea_adenine_opt_freq E -770.817954617307
  O       4.286625     -1.311700      0.754790
  N       6.013567     -0.198541      1.747919
  N       3.907233      0.792361      1.561197
  C       4.705458     -0.287664      1.332854
  H       6.269803      0.543812      2.380636
  H       2.942275      0.703945      1.226409
  C       6.898847     -1.352464      1.670701
  H       6.699630     -2.087188      2.462078
  H       6.761304     -1.845282      0.706971
  H       7.933695     -1.009611      1.752659
  C       4.328430      2.045995      2.157334
  H       3.481966      2.735632      2.140795
  H       4.633758      1.929123      3.207877
  H       5.152830      2.512969      1.601071
  N      -1.388948     -1.838210     -1.045371
  N      -2.838955     -0.204332     -0.501938
  N      -1.228135      1.286998      0.563610
  N       1.037501      0.449857      0.582374
  N       1.686252     -1.593495     -0.334700
  C      -0.646808     -0.856771     -0.404331
  C      -1.571585      0.148924     -0.075085
  C       0.709965     -0.695791     -0.050740
  C      -2.684489     -1.377187     -1.070075
  C       0.065996      1.353830      0.843883
  H      -1.060871     -2.696150     -1.462424
  H      -3.478136     -1.956621     -1.524308
  H       0.401692      2.253088      1.357029
  H       2.630338     -1.464837      0.060884
  H       1.437402     -2.523722     -0.630484
29
Coordinates from ORCA-job dimethylurea_adenine_opt_freq E -770.817959086922
  O       4.286054     -1.312378      0.757276
  N       6.013484     -0.197985      1.747594
  N       3.906899      0.792662      1.561406
  C       4.705050     -0.287440      1.333830
  H       6.270154      0.544184      2.380363
  H       2.941555      0.703378      1.227804
  C       6.898197     -1.352400      1.670636
  H       6.692405     -2.091242      2.456429
  H       6.768113     -1.840147      0.703245
  H       7.932498     -1.010518      1.762537
  C       4.328600      2.046979      2.155677
  H       3.482170      2.736781      2.139320
  H       4.635573      1.931431      3.205873
  H       5.151979      2.513607      1.597571
  N      -1.389137     -1.837884     -1.045867
  N      -2.838796     -0.204297     -0.500733
  N      -1.227535      1.286372      0.564959
  N       1.037924      0.448663      0.583027
  N       1.686129     -1.594701     -0.334147
  C      -0.646536     -0.856587     -0.405191
  C      -1.571134      0.148755     -0.074543
  C       0.710240     -0.696543     -0.050754
  C      -2.684696     -1.376820     -1.069666
  C       0.066690      1.352785      0.844967
  H      -1.060969     -2.694834     -1.464888
  H      -3.478550     -1.955990     -1.523866
  H       0.402737      2.251778      1.358353
  H       2.629979     -1.466272      0.062240
  H       1.437561     -2.524368     -0.631836
29
Coordinates from ORCA-job dimethylurea_adenine_opt_freq E -770.817959997091
  O       4.285819     -1.312647      0.758519
  N       6.013449     -0.197618      1.747256
  N       3.907082      0.793523      1.560104
  C       4.704926     -0.287030      1.333912
  H       6.270404      0.544255      2.380265
  H       2.941197      0.703028      1.228343
  C       6.897356     -1.352781      1.671114
  H       6.685136     -2.094964      2.451987
  H       6.774213     -1.836193      0.700604
  H       7.931144     -1.012022      1.772205
  C       4.329277      2.048123      2.153226
  H       3.483515      2.738758      2.135596
  H       4.635955      1.933887      3.203679
  H       5.152950      2.513687      1.594671
  N      -1.389032     -1.837545     -1.046478
  N      -2.838850     -0.204582     -0.499882
  N      -1.227765      1.285313      0.567253
  N       1.037685      0.447453      0.584790
  N       1.686115     -1.595041     -0.333779
  C      -0.646529     -0.856651     -0.405051
  C      -1.571188      0.148213     -0.073417
  C       0.710133     -0.697174     -0.050077
  C      -2.684626     -1.376557     -1.069951
  C       0.066491      1.351421      0.847351
  H      -1.060409     -2.693514     -1.467149
  H      -3.478341     -1.955450     -1.524745
  H       0.402690      2.249961      1.361432
  H       2.629868     -1.466644      0.063066
  H       1.437975     -2.524238     -0.633228
29
Coordinates from ORCA-job dimethylurea_adenine_opt_freq E -770.817957901986
  O       4.285979     -1.312878      0.759099
  N       6.013606     -0.197395      1.746950
  N       3.907243      0.793825      1.559498
  C       4.705025     -0.286902      1.333908
  H       6.270833      0.544271      2.380083
  H       2.940975      0.702430      1.229183
  C       6.897176     -1.352898      1.670889
  H       6.680557     -2.097705      2.448003
  H       6.779025     -1.832920      0.698047
  H       7.930495     -1.012778      1.778530
  C       4.329903      2.048642      2.151629
  H       3.484635      2.739875      2.132962
  H       4.636335      1.935544      3.202308
  H       5.153843      2.513305      1.592735
  N      -1.388979     -1.837474     -1.046645
  N      -2.838908     -0.204306     -0.500889
  N      -1.228341      1.284989      0.568050
  N       1.036927      0.446586      0.586867
  N       1.685821     -1.595296     -0.332270
  C      -0.646856     -0.856908     -0.404206
  C      -1.571532      0.148047     -0.073153
  C       0.709575     -0.697751     -0.048647
  C      -2.684424     -1.376141     -1.071201
  C       0.065770      1.350687      0.849054
  H      -1.059945     -2.693221     -1.467444
  H      -3.477817     -1.954814     -1.526843
  H       0.401958      2.248944      1.363637
  H       2.629672     -1.466609      0.064467
  H       1.438091     -2.524182     -0.632986
29
Coordinates from ORCA-job dimethylurea_adenine_opt_freq E -770.817958524120
  O       4.285910     -1.313093      0.759573
  N       6.013583     -0.197380      1.746759
  N       3.907469      0.794352      1.558398
  C       4.705017     -0.286805      1.333696
  H       6.271212      0.544364      2.379610
  H       2.940753      0.702229      1.229655
  C       6.896756     -1.353252      1.670686
  H       6.675783     -2.100640      2.444042
  H       6.783444     -1.829861      0.695558
  H       7.929635     -1.013936      1.784712
  C       4.330659      2.049342      2.149630
  H       3.486278      2.741555      2.129005
  H       4.635890      1.937472      3.200813
  H       5.155602      2.512404      1.590913
  N      -1.388551     -1.837339     -1.047002
  N      -2.838845     -0.204140     -0.502238
  N      -1.229205      1.284422      0.569267
  N       1.035954      0.445810      0.589696
  N       1.685730     -1.595249     -0.330472
  C      -0.647082     -0.857283     -0.402941
  C      -1.571939      0.147753     -0.072708
  C       0.709066     -0.698214     -0.046720
  C      -2.683856     -1.375727     -1.072925
  C       0.064656      1.349832      0.851546
  H      -1.059122     -2.693108     -1.467435
  H      -3.476786     -1.954113     -1.529740
  H       0.400523      2.247711      1.366993
  H       2.629718     -1.466401      0.065967
  H       1.438388     -2.523735     -0.632720
