29
Coordinates from ORCA-job dimethylurea_adenine_opt_freq E -770.817958524120
  O           4.28591034367717     -1.31309313388560      0.75957333511234
  N           6.01358293732698     -0.19737976521143      1.74675938979249
  N           3.90746916786689      0.79435216362200      1.55839755814570
  C           4.70501687410776     -0.28680452450548      1.33369648127901
  H           6.27121167760538      0.54436428953937      2.37960958443494
  H           2.94075327085255      0.70222861946522      1.22965546223429
  C           6.89675593343288     -1.35325214154720      1.67068555924780
  H           6.67578310717701     -2.10064022468360      2.44404152172044
  H           6.78344383355733     -1.82986077416246      0.69555791255547
  H           7.92963531204999     -1.01393606753790      1.78471193551928
  C           4.33065851277085      2.04934236659222      2.14962989876669
  H           3.48627798807530      2.74155548538659      2.12900490569931
  H           4.63588954678815      1.93747165064209      3.20081252694512
  H           5.15560231852201      2.51240395358015      1.59091257347041
  N          -1.38855076076982     -1.83733935459475     -1.04700189519346
  N          -2.83884539164113     -0.20414007585443     -0.50223840963886
  N          -1.22920536682016      1.28442150661231      0.56926697261489
  N           1.03595353317210      0.44580999027133      0.58969568205654
  N           1.68573011398026     -1.59524865867225     -0.33047162737756
  C          -0.64708169820704     -0.85728280460253     -0.40294107946844
  C          -1.57193902416951      0.14775274827510     -0.07270825689508
  C           0.70906615555080     -0.69821362091327     -0.04671981693734
  C          -2.68385596778076     -1.37572710056622     -1.07292532913669
  C           0.06465615911896      1.34983155840870      0.85154613637413
  H          -1.05912167073504     -2.69310818592189     -1.46743539924011
  H          -3.47678564416078     -1.95411283356171     -1.52974011099570
  H           0.40052258951003      2.24771074823463      1.36699304641589
  H           2.62971767623104     -1.46640095171359      0.06596665806753
  H           1.43838847291052     -2.52373486269537     -0.63272021556911
