21
Coordinates from ORCA-job formamide_adenine_opt_freq E -636.902668305607
  O           4.51850939891386     -1.81457647476266      1.04080178735153
  N           6.08019167356241     -0.25264324239281      1.60804695037892
  C           4.85826063418196     -0.63839353837295      1.16900500148518
  H           6.32036753746680      0.72308282219297      1.69375712806245
  H           6.76986253624529     -0.95189187983595      1.84833024314737
  H           4.17033329325765      0.18875722953014      0.92750923742687
  N          -1.38774689272822     -1.49859961539847     -0.21362968625109
  N          -2.30150183821426      0.55927817799968     -0.18771294899983
  N          -0.23111183303816      1.80302301395102      0.15865810650952
  N           1.74479518579406      0.42168663348324      0.31652290830903
  N           1.73334494518622     -1.90454687050979      0.15601619728375
  C          -0.33957949888203     -0.61036061128053     -0.01834790983371
  C          -0.93309820902259      0.66402717776824     -0.00429852558804
  C           1.05371715521281     -0.72244803748523      0.16342566212896
  C          -2.52309530110068     -0.72753231509291     -0.31345011630819
  C           1.07280027155985      1.59376874580216      0.30077373597887
  H          -1.34129072511426     -2.49722396444287     -0.34811537469646
  H          -3.49401841719306     -1.17747992379685     -0.47799643587689
  H           1.69245526991035      2.47936231712414      0.42780082483476
  H           2.71891204983493     -1.89757889926671      0.43617744248141
  H           1.23185876416699     -2.76348074521385      0.32067377217557
