21
Coordinates from ORCA-job formamide_adenine_opt_freq E -636.885464866415
  O       4.826421     -2.204726      1.500893
  N       5.433974      0.014452      1.500893
  C       4.516007     -1.015263      1.500493
  H       5.142922      0.986271      1.500593
  H       6.431618     -0.169929      1.500893
  H       3.456324     -0.759975      1.499783
  N      -1.199000     -1.399700      0.000000
  N      -2.075200      0.649900      0.000000
  N       0.033700      1.859400     -0.000100
  N       1.999800      0.415000      0.000000
  N       1.824100     -1.976000      0.000000
  C      -0.135900     -0.542100      0.000100
  C      -0.705600      0.724100      0.000100
  C       1.235900     -0.700400      0.000000
  C      -2.338600     -0.639400      0.000000
  C       1.360700      1.609200      0.000000
  H      -1.156600     -2.410300     -0.000200
  H      -3.322500     -1.086400     -0.000100
  H       2.003400      2.483100     -0.000100
  H       2.832200     -2.052800      0.000300
  H       1.250300     -2.808200      0.000400
21
Coordinates from ORCA-job formamide_adenine_opt_freq E -636.890224186017
  O       4.871209     -2.196342      1.491864
  N       5.419886      0.024469      1.508715
  C       4.539999     -1.012771      1.505329
  H       5.103337      0.982156      1.511684
  H       6.414825     -0.147090      1.496943
  H       3.472472     -0.760558      1.506351
  N      -1.231103     -1.416423     -0.000886
  N      -2.074517      0.665980      0.002654
  N       0.056046      1.849108      0.001641
  N       1.999331      0.394085      0.002582
  N       1.841232     -1.965370     -0.004263
  C      -0.145345     -0.560837     -0.001347
  C      -0.698249      0.728645      0.001627
  C       1.243543     -0.719700     -0.001312
  C      -2.352357     -0.620928      0.001194
  C       1.365449      1.588989      0.000399
  H      -1.216486     -2.425469     -0.001782
  H      -3.346431     -1.047659      0.001912
  H       2.017261      2.458946     -0.006902
  H       2.849899     -2.043292     -0.003938
  H       1.283966     -2.799710     -0.008517
21
Coordinates from ORCA-job formamide_adenine_opt_freq E -636.891748812405
  O       4.922240     -2.194922      1.483052
  N       5.412976      0.037293      1.520122
  C       4.569379     -1.016556      1.515052
  H       5.064888      0.983857      1.521531
  H       6.410903     -0.118894      1.492900
  H       3.498073     -0.763597      1.521038
  N      -1.259838     -1.423213     -0.003931
  N      -2.076240      0.677937      0.005305
  N       0.070802      1.837578      0.000352
  N       1.994715      0.376330      0.002360
  N       1.850796     -1.958599     -0.008978
  C      -0.157595     -0.575403     -0.004476
  C      -0.694827      0.728161      0.001173
  C       1.243426     -0.736804     -0.005017
  C      -2.364995     -0.602552      0.002351
  C       1.369096      1.574605     -0.001611
  H      -1.270550     -2.431639     -0.006180
  H      -3.366808     -1.012655      0.004604
  H       2.030698      2.439240     -0.009933
  H       2.859439     -2.039937     -0.008417
  H       1.307389     -2.804000     -0.017350
21
Coordinates from ORCA-job formamide_adenine_opt_freq E -636.892234465664
  O       4.956617     -2.197016      1.478831
  N       5.421698      0.043946      1.528821
  C       4.592729     -1.022525      1.524009
  H       5.056817      0.983848      1.524665
  H       6.420910     -0.102634      1.490587
  H       3.521382     -0.765818      1.536366
  N      -1.274259     -1.421979     -0.006703
  N      -2.081786      0.682647      0.002783
  N       0.069608      1.834253     -0.001679
  N       1.987481      0.370185      0.002049
  N       1.848888     -1.959429     -0.010558
  C      -0.167509     -0.578796     -0.006876
  C      -0.698630      0.727565     -0.001026
  C       1.236197     -0.742540     -0.007297
  C      -2.374653     -0.594947     -0.000475
  C       1.367001      1.571392     -0.002179
  H      -1.294774     -2.430211     -0.008948
  H      -3.378830     -1.000021      0.001495
  H       2.033636      2.432217     -0.009345
  H       2.857100     -2.043283     -0.010367
  H       1.314344     -2.810625     -0.020206
21
Coordinates from ORCA-job formamide_adenine_opt_freq E -636.892820889440
  O       5.013851     -2.198816      1.471206
  N       5.449493      0.051881      1.544161
  C       4.635939     -1.032038      1.539795
  H       5.062325      0.982736      1.528159
  H       6.449990     -0.080880      1.484729
  H       3.566459     -0.766385      1.567376
  N      -1.294215     -1.417509     -0.013286
  N      -2.093954      0.688372     -0.006308
  N       0.060026      1.831768     -0.005579
  N       1.971786      0.362474      0.003258
  N       1.835635     -1.962592     -0.010342
  C      -0.185093     -0.580355     -0.010866
  C      -0.709420      0.726888     -0.006970
  C       1.218008     -0.747701     -0.009038
  C      -2.391495     -0.586804     -0.009692
  C       1.358815      1.568000     -0.001585
  H      -1.324589     -2.425663     -0.015065
  H      -3.397325     -0.988166     -0.009767
  H       2.032075      2.422868     -0.004167
  H       2.842704     -2.049781     -0.011631
  H       1.312951     -2.822070     -0.020440
21
Coordinates from ORCA-job formamide_adenine_opt_freq E -636.893155392882
  O       5.053989     -2.197096      1.464715
  N       5.482666      0.054560      1.556320
  C       4.671551     -1.035178      1.550834
  H       5.087420      0.982056      1.532861
  H       6.482715     -0.072089      1.477720
  H       3.604475     -0.762128      1.593809
  N      -1.307499     -1.414505     -0.019677
  N      -2.105648      0.690852     -0.017331
  N       0.048341      1.831530     -0.008334
  N       1.957969      0.358043      0.006535
  N       1.817664     -1.965842     -0.007865
  C      -0.199248     -0.579831     -0.013584
  C      -0.721232      0.726776     -0.012446
  C       1.200766     -0.749325     -0.007977
  C      -2.405234     -0.584456     -0.021067
  C       1.348379      1.565369      0.000584
  H      -1.339908     -2.422733     -0.020759
  H      -3.410921     -0.985776     -0.024705
  H       2.024142      2.417722      0.002166
  H       2.824227     -2.053456     -0.010960
  H       1.299351     -2.828261     -0.016892
21
Coordinates from ORCA-job formamide_adenine_opt_freq E -636.893489943209
  O       5.095569     -2.191431      1.455650
  N       5.531936      0.055959      1.571200
  C       4.715182     -1.032442      1.561625
  H       5.137172      0.983913      1.544535
  H       6.529742     -0.068805      1.466181
  H       3.651487     -0.751724      1.626150
  N      -1.324129     -1.412621     -0.029268
  N      -2.121467      0.692470     -0.032658
  N       0.032908      1.831108     -0.011133
  N       1.941217      0.352326      0.012897
  N       1.791758     -1.971047     -0.003245
  C      -0.217097     -0.579451     -0.016849
  C      -0.737991      0.726682     -0.019468
  C       1.179057     -0.751411     -0.004665
  C      -2.422946     -0.583810     -0.037510
  C       1.333482      1.560404      0.004642
  H      -1.355366     -2.420981     -0.029978
  H      -3.428064     -0.985756     -0.046772
  H       2.009857      2.412063      0.010974
  H       2.798121     -2.055718     -0.008458
  H       1.273537     -2.833498     -0.009901
21
Coordinates from ORCA-job formamide_adenine_opt_freq E -636.893837847461
  O       5.135999     -2.181093      1.442914
  N       5.594233      0.058116      1.588104
  C       4.765441     -1.022021      1.570731
  H       5.208638      0.990380      1.566079
  H       6.587493     -0.069480      1.449432
  H       3.705772     -0.734582      1.662480
  N      -1.346729     -1.412469     -0.041933
  N      -2.140507      0.694081     -0.050597
  N       0.016499      1.828595     -0.013060
  N       1.922302      0.343100      0.022256
  N       1.761630     -1.979048      0.002995
  C      -0.239036     -0.581059     -0.021000
  C      -0.758320      0.725954     -0.026981
  C       1.154483     -0.756553      0.000107
  C      -2.444949     -0.582747     -0.058306
  C       1.316259      1.551631      0.010769
  H      -1.376081     -2.420896     -0.043052
  H      -3.450111     -0.983795     -0.075198
  H       1.992308      2.403715      0.022013
  H       2.768206     -2.056277     -0.003608
  H       1.240437     -2.839324     -0.000198
21
Coordinates from ORCA-job formamide_adenine_opt_freq E -636.894123151956
  O       5.170230     -2.166588      1.426918
  N       5.660485      0.062497      1.604519
  C       4.816448     -1.004569      1.576963
  H       5.290468      1.001448      1.595803
  H       6.647012     -0.072413      1.429401
  H       3.761089     -0.711984      1.698659
  N      -1.374516     -1.413734     -0.057041
  N      -2.160055      0.696439     -0.067980
  N       0.002169      1.823119     -0.013585
  N       1.902623      0.329929      0.033134
  N       1.733221     -1.989875      0.010001
  C      -0.263258     -0.585566     -0.026225
  C      -0.778795      0.724050     -0.034130
  C       1.129840     -0.766016      0.004765
  C      -2.469184     -0.579555     -0.079888
  C       1.299916      1.539681      0.018371
  H      -1.403941     -2.422079     -0.060240
  H      -3.475657     -0.976805     -0.104978
  H       1.976346      2.391768      0.034625
  H       2.740482     -2.055701      0.003912
  H       1.209046     -2.847817      0.010947
21
Coordinates from ORCA-job formamide_adenine_opt_freq E -636.894304420474
  O       5.192215     -2.151128      1.409556
  N       5.716158      0.068342      1.615825
  C       4.857669     -0.985158      1.579591
  H       5.362847      1.013715      1.625256
  H       6.695439     -0.076897      1.410042
  H       3.806618     -0.688555      1.728547
  N      -1.401000     -1.415235     -0.071016
  N      -2.175908      0.699286     -0.081634
  N      -0.008076      1.816186     -0.012359
  N       1.885074      0.316040      0.043363
  N       1.712670     -2.001011      0.017164
  C      -0.284741     -0.591612     -0.031191
  C      -0.794728      0.721217     -0.039347
  C       1.109278     -0.777533      0.008501
  C      -2.490399     -0.574715     -0.098891
  C       1.287556      1.528013      0.026303
  H      -1.433328     -2.423393     -0.077428
  H      -3.499004     -0.966332     -0.131578
  H       1.966180      2.378464      0.047404
  H       2.720779     -2.054774      0.013511
  H       1.188666     -2.858689      0.022330
21
Coordinates from ORCA-job formamide_adenine_opt_freq E -636.894421967606
  O       5.201441     -2.137320      1.391279
  N       5.757399      0.073226      1.620430
  C       4.885730     -0.967955      1.579280
  H       5.419532      1.023721      1.649504
  H       6.730096     -0.084295      1.392778
  H       3.839345     -0.666857      1.751547
  N      -1.421309     -1.416365     -0.082766
  N      -2.187247      0.701523     -0.092751
  N      -0.015682      1.810014     -0.010451
  N       1.870946      0.304962      0.052743
  N       1.699835     -2.009731      0.025224
  C      -0.300953     -0.597063     -0.034832
  C      -0.805577      0.718239     -0.043134
  C       1.093837     -0.787655      0.012440
  C      -2.506127     -0.570463     -0.114162
  C       1.278583      1.519221      0.033976
  H      -1.457585     -2.424302     -0.093022
  H      -3.516633     -0.956985     -0.153347
  H       1.960452      2.366923      0.059524
  H       2.708639     -2.053265      0.025115
  H       1.179244     -2.869344      0.034573
21
Coordinates from ORCA-job formamide_adenine_opt_freq E -636.894557435473
  O       5.199235     -2.122021      1.365388
  N       5.797293      0.076211      1.618414
  C       4.908275     -0.949265      1.575745
  H       5.479339      1.032150      1.674560
  H       6.762105     -0.099323      1.370624
  H       3.869095     -0.640092      1.775518
  N      -1.439265     -1.417796     -0.094986
  N      -2.197991      0.702620     -0.105709
  N      -0.024447      1.804124     -0.007384
  N       1.856626      0.295651      0.065282
  N       1.689655     -2.016777      0.038245
  C      -0.315873     -0.602361     -0.037353
  C      -0.815543      0.714750     -0.046739
  C       1.079168     -0.797056      0.019562
  C      -2.520220     -0.567562     -0.132790
  C       1.269015      1.511966      0.044157
  H      -1.479785     -2.425482     -0.109996
  H      -3.532193     -0.949678     -0.180444
  H       1.954804      2.356151      0.074913
  H       2.699093     -2.049738      0.043528
  H       1.175580     -2.880243      0.053415
21
Coordinates from ORCA-job formamide_adenine_opt_freq E -636.894809195900
  O       5.173298     -2.099145      1.317583
  N       5.848488      0.074346      1.604125
  C       4.928047     -0.922602      1.565361
  H       5.567504      1.037297      1.709557
  H       6.799720     -0.134555      1.330613
  H       3.904183     -0.594634      1.810059
  N      -1.457438     -1.421047     -0.112865
  N      -2.211599      0.700817     -0.128869
  N      -0.038865      1.797672     -0.002106
  N       1.838010      0.288102      0.088551
  N       1.680125     -2.021536      0.065006
  C      -0.332739     -0.608478     -0.038688
  C      -0.828251      0.709595     -0.052017
  C       1.061781     -0.806321      0.035684
  C      -2.535395     -0.567920     -0.162582
  C       1.254294      1.505909      0.062342
  H      -1.502056     -2.428395     -0.135899
  H      -3.548025     -0.946622     -0.224751
  H       1.944647      2.345732      0.101028
  H       2.690190     -2.040082      0.080755
  H       1.178047     -2.891901      0.091060
21
Coordinates from ORCA-job formamide_adenine_opt_freq E -636.895165146521
  O       5.123844     -2.083358      1.269872
  N       5.872260      0.063652      1.580027
  C       4.922727     -0.905756      1.551120
  H       5.627363      1.029627      1.733434
  H       6.811662     -0.177679      1.292802
  H       3.915913     -0.555354      1.833209
  N      -1.458534     -1.424980     -0.123518
  N      -2.218139      0.694662     -0.148328
  N      -0.051055      1.796715      0.001987
  N       1.828892      0.292664      0.110353
  N       1.682426     -2.017352      0.093066
  C      -0.337085     -0.610146     -0.036335
  C      -0.834478      0.706284     -0.055665
  C       1.056323     -0.806123      0.054118
  C      -2.537987     -0.574678     -0.187124
  C       1.242982      1.509152      0.077988
  H      -1.502782     -2.432213     -0.152408
  H      -3.549019     -0.955450     -0.261978
  H       1.934170      2.347790      0.121922
  H       2.692805     -2.027246      0.119572
  H       1.191678     -2.893980      0.129834
21
Coordinates from ORCA-job formamide_adenine_opt_freq E -636.895543257555
  O       5.087371     -2.079486      1.236393
  N       5.875788      0.048785      1.562720
  C       4.909796     -0.905111      1.542752
  H       5.648580      1.014288      1.743197
  H       6.808981     -0.207906      1.269276
  H       3.916102     -0.535395      1.846262
  N      -1.448521     -1.427733     -0.125339
  N      -2.220032      0.687315     -0.161982
  N      -0.060105      1.800881      0.001001
  N       1.827293      0.304048      0.124066
  N       1.686637     -2.006225      0.111510
  C      -0.333528     -0.607116     -0.032343
  C      -0.837162      0.705948     -0.058925
  C       1.057661     -0.797480      0.068360
  C      -2.533195     -0.584579     -0.200345
  C       1.235450      1.517488      0.085170
  H      -1.488621     -2.435185     -0.154828
  H      -3.541038     -0.971896     -0.282080
  H       1.924020      2.358153      0.130545
  H       2.696354     -2.016309      0.144456
  H       1.202136     -2.886253      0.154080
21
Coordinates from ORCA-job formamide_adenine_opt_freq E -636.895946953743
  O       5.050258     -2.079175      1.203652
  N       5.878599      0.028502      1.549333
  C       4.895542     -0.909538      1.536440
  H       5.668189      0.993006      1.754828
  H       6.806301     -0.236401      1.246809
  H       3.916230     -0.517947      1.859332
  N      -1.434591     -1.430976     -0.124317
  N      -2.222247      0.677791     -0.175757
  N      -0.070503      1.807952     -0.003901
  N       1.827191      0.320270      0.136438
  N       1.689945     -1.992606      0.127280
  C      -0.327995     -0.601772     -0.028298
  C      -0.841559      0.706938     -0.063806
  C       1.060758     -0.784074      0.081385
  C      -2.526597     -0.597889     -0.210930
  C       1.226482      1.529020      0.088993
  H      -1.466453     -2.438836     -0.151722
  H      -3.530001     -0.994795     -0.297642
  H       1.908341      2.375348      0.134499
  H       2.699643     -2.005651      0.166790
  H       1.206435     -2.872937      0.174541
21
Coordinates from ORCA-job formamide_adenine_opt_freq E -636.896492266704
  O       4.989196     -2.070807      1.158641
  N       5.886470      0.003475      1.531160
  C       4.877041     -0.907261      1.525192
  H       5.708899      0.965177      1.777031
  H       6.803997     -0.278710      1.214203
  H       3.919416     -0.486592      1.877314
  N      -1.421045     -1.436487     -0.125832
  N      -2.225561      0.665422     -0.193408
  N      -0.083387      1.813504     -0.008593
  N       1.825102      0.338104      0.153184
  N       1.696852     -1.977029      0.148802
  C      -0.322803     -0.597786     -0.024617
  C      -0.847276      0.706287     -0.069900
  C       1.064815     -0.770711      0.097167
  C      -2.519822     -0.613602     -0.225638
  C       1.214666      1.541439      0.095551
  H      -1.443656     -2.444638     -0.152731
  H      -3.518585     -1.020131     -0.319250
  H       1.888509      2.394306      0.142365
  H       2.706513     -1.990144      0.199062
  H       1.214624     -2.857586      0.204245
21
Coordinates from ORCA-job formamide_adenine_opt_freq E -636.897336135573
  O       4.892615     -2.058891      1.097584
  N       5.892792     -0.039524      1.514735
  C       4.845611     -0.906556      1.510475
  H       5.764935      0.914903      1.814993
  H       6.796931     -0.336056      1.173649
  H       3.921224     -0.443893      1.898560
  N      -1.398984     -1.446167     -0.123614
  N      -2.229481      0.644824     -0.213802
  N      -0.100665      1.822184     -0.020379
  N       1.824640      0.368448      0.171149
  N       1.711368     -1.951842      0.171683
  C      -0.312345     -0.591565     -0.020937
  C      -0.855745      0.705429     -0.080017
  C       1.076330     -0.747624      0.113551
  C      -2.507779     -0.638940     -0.238484
  C       1.198284      1.562493      0.097918
  H      -1.403845     -2.454646     -0.146408
  H      -3.499675     -1.060556     -0.336719
  H       1.854973      2.429246      0.144208
  H       2.721411     -1.967818      0.238817
  H       1.221370     -2.827218      0.236988
21
Coordinates from ORCA-job formamide_adenine_opt_freq E -636.898119281405
  O       4.766048     -2.016377      1.023569
  N       5.908088     -0.088142      1.478578
  C       4.808287     -0.889083      1.484449
  H       5.859918      0.846114      1.855272
  H       6.786672     -0.431883      1.115941
  H       3.935158     -0.368134      1.925785
  N      -1.377131     -1.458642     -0.130593
  N      -2.235470      0.619691     -0.243514
  N      -0.125163      1.826269     -0.024453
  N       1.817275      0.397051      0.200973
  N       1.727584     -1.919967      0.211189
  C      -0.304205     -0.588143     -0.016660
  C      -0.865199      0.699963     -0.089474
  C       1.084303     -0.726554      0.139863
  C      -2.495448     -0.668106     -0.266159
  C       1.175074      1.581861      0.112587
  H      -1.366224     -2.466989     -0.156979
  H      -3.479530     -1.104455     -0.377615
  H       1.819210      2.457878      0.162721
  H       2.733911     -1.930665      0.301263
  H       1.240809     -2.795458      0.297205
21
Coordinates from ORCA-job formamide_adenine_opt_freq E -636.898626970879
  O       4.654035     -1.994910      0.975838
  N       5.892233     -0.135249      1.461719
  C       4.757270     -0.882035      1.465963
  H       5.902025      0.778579      1.888871
  H       6.757783     -0.502116      1.090187
  H       3.917900     -0.324999      1.924538
  N      -1.348135     -1.469453     -0.125842
  N      -2.234527      0.596297     -0.251767
  N      -0.139872      1.835258     -0.033108
  N       1.820942      0.435140      0.209881
  N       1.757118     -1.894513      0.226588
  C      -0.286669     -0.582260     -0.015094
  C      -0.867720      0.697758     -0.095360
  C       1.105475     -0.701469      0.147566
  C      -2.476682     -0.695307     -0.267632
  C       1.161823      1.609628      0.110954
  H      -1.317187     -2.477381     -0.150853
  H      -3.454147     -1.146406     -0.378738
  H       1.787225      2.499680      0.158386
  H       2.766372     -1.908009      0.336843
  H       1.258704     -2.762001      0.325009
21
Coordinates from ORCA-job formamide_adenine_opt_freq E -636.898896807769
  O       4.615578     -1.960436      0.959355
  N       5.944046     -0.137131      1.452791
  C       4.785070     -0.854973      1.462167
  H       5.990397      0.766519      1.898931
  H       6.789780     -0.530614      1.062716
  H       3.973294     -0.277101      1.946732
  N      -1.365068     -1.473974     -0.143591
  N      -2.247488      0.593884     -0.268877
  N      -0.153367      1.828380     -0.026242
  N       1.802746      0.424693      0.226963
  N       1.740690     -1.896871      0.247451
  C      -0.303917     -0.589064     -0.018718
  C      -0.880213      0.691931     -0.099562
  C       1.085793     -0.708564      0.157300
  C      -2.490765     -0.697264     -0.295014
  C       1.148087      1.601519      0.127125
  H      -1.335692     -2.481696     -0.177268
  H      -3.468081     -1.145469     -0.418785
  H       1.778497      2.487216      0.184143
  H       2.756504     -1.898808      0.364531
  H       1.248073     -2.765945      0.361800
21
Coordinates from ORCA-job formamide_adenine_opt_freq E -636.899408643950
  O       4.650802     -1.943821      0.976869
  N       5.966306     -0.142042      1.478196
  C       4.801144     -0.825498      1.473183
  H       6.037652      0.766055      1.912358
  H       6.803795     -0.545412      1.077630
  H       3.975563     -0.263730      1.937464
  N      -1.387725     -1.479462     -0.149771
  N      -2.257949      0.594855     -0.256629
  N      -0.156215      1.818697     -0.026679
  N       1.792308      0.417890      0.213485
  N       1.744241     -1.901787      0.230632
  C      -0.316624     -0.600117     -0.029599
  C      -0.886083      0.685669     -0.099596
  C       1.082419     -0.717760      0.137989
  C      -2.506700     -0.691694     -0.285381
  C       1.144492      1.598844      0.119741
  H      -1.360245     -2.486928     -0.187579
  H      -3.490021     -1.129994     -0.402139
  H       1.776396      2.482983      0.179350
  H       2.761482     -1.896443      0.359637
  H       1.238927     -2.764075      0.344786
21
Coordinates from ORCA-job formamide_adenine_opt_freq E -636.899711247201
  O       4.610055     -1.912035      0.967351
  N       5.981767     -0.153594      1.460728
  C       4.796456     -0.803830      1.464683
  H       6.088742      0.742928      1.910236
  H       6.796826     -0.596662      1.057135
  H       3.987354     -0.224808      1.943017
  N      -1.385692     -1.482696     -0.159150
  N      -2.261794      0.588557     -0.268525
  N      -0.168763      1.816836     -0.020389
  N       1.784004      0.422801      0.227676
  N       1.748723     -1.896777      0.247381
  C      -0.318835     -0.601850     -0.028485
  C      -0.889096      0.681590     -0.099646
  C       1.078305     -0.717708      0.149414
  C      -2.506296     -0.698222     -0.301793
  C       1.132696      1.602310      0.132352
  H      -1.357787     -2.489887     -0.204883
  H      -3.487700     -1.138219     -0.428018
  H       1.767343      2.483693      0.196454
  H       2.761707     -1.881471      0.384484
  H       1.255952     -2.764727      0.373925
21
Coordinates from ORCA-job formamide_adenine_opt_freq E -636.899875466848
  O       4.582294     -1.868874      0.956863
  N       6.041402     -0.176976      1.467154
  C       4.824385     -0.777243      1.461445
  H       6.190670      0.709797      1.924210
  H       6.830299     -0.640930      1.036959
  H       4.043400     -0.169980      1.959595
  N      -1.397195     -1.488961     -0.171483
  N      -2.278557      0.579883     -0.286149
  N      -0.190891      1.813494     -0.020462
  N       1.764251      0.422852      0.243203
  N       1.732499     -1.891154      0.257560
  C      -0.334486     -0.605053     -0.031974
  C      -0.907411      0.676511     -0.106564
  C       1.060669     -0.716122      0.156970
  C      -2.519162     -0.708001     -0.324120
  C       1.110070      1.600687      0.142868
  H      -1.363623     -2.495816     -0.220774
  H      -3.498067     -1.150820     -0.459073
  H       1.742018      2.483597      0.212969
  H       2.741255     -1.863720      0.407203
  H       1.240144     -2.756939      0.397548
21
Coordinates from ORCA-job formamide_adenine_opt_freq E -636.900062937901
  O       4.576412     -1.850253      0.969115
  N       6.070104     -0.192545      1.471578
  C       4.837361     -0.759336      1.469201
  H       6.239789      0.700858      1.907540
  H       6.835906     -0.681638      1.028957
  H       4.061028     -0.149160      1.962702
  N      -1.398430     -1.489360     -0.176611
  N      -2.287312      0.575960     -0.295325
  N      -0.207809      1.817159     -0.018196
  N       1.752765      0.431578      0.252160
  N       1.728172     -1.891898      0.258782
  C      -0.341288     -0.603021     -0.031119
  C      -0.917062      0.676613     -0.107999
  C       1.049879     -0.713529      0.163535
  C      -2.523766     -0.713616     -0.336298
  C       1.093747      1.606666      0.150058
  H      -1.363341     -2.496137     -0.228022
  H      -3.499685     -1.160725     -0.476860
  H       1.725616      2.489470      0.221867
  H       2.734343     -1.857271      0.415979
  H       1.247536     -2.763584      0.402904
21
Coordinates from ORCA-job formamide_adenine_opt_freq E -636.900251354018
  O       4.567087     -1.829666      0.966227
  N       6.098676     -0.221399      1.485328
  C       4.850898     -0.748629      1.474019
  H       6.287714      0.674413      1.908233
  H       6.849520     -0.719522      1.026715
  H       4.091270     -0.121480      1.967927
  N      -1.399789     -1.493786     -0.179471
  N      -2.299056      0.566958     -0.304215
  N      -0.225290      1.819825     -0.022864
  N       1.740709      0.442834      0.256467
  N       1.724929     -1.880613      0.255792
  C      -0.347647     -0.601266     -0.032684
  C      -0.931141      0.675712     -0.113041
  C       1.043541     -0.704825      0.165250
  C      -2.529111     -0.724111     -0.341642
  C       1.076063      1.614025      0.150561
  H      -1.359043     -2.500376     -0.230093
  H      -3.501944     -1.177502     -0.483172
  H       1.701067      2.501856      0.224379
  H       2.730526     -1.844088      0.425275
  H       1.244986     -2.752129      0.404957
21
Coordinates from ORCA-job formamide_adenine_opt_freq E -636.900420979166
  O       4.555767     -1.798489      0.960234
  N       6.149532     -0.263812      1.509215
  C       4.880039     -0.732929      1.478225
  H       6.363623      0.637404      1.908642
  H       6.880339     -0.775815      1.033463
  H       4.147321     -0.075270      1.972378
  N      -1.405974     -1.500096     -0.184661
  N      -2.319778      0.554060     -0.314804
  N      -0.253599      1.822535     -0.028242
  N       1.719814      0.457750      0.261508
  N       1.716783     -1.865091      0.251006
  C      -0.360710     -0.599087     -0.035614
  C      -0.954948      0.673819     -0.119885
  C       1.030717     -0.693045      0.166567
  C      -2.540108     -0.738849     -0.352749
  C       1.047979      1.623765      0.151652
  H      -1.357956     -2.506369     -0.234646
  H      -3.508486     -1.200799     -0.497096
  H       1.663313      2.518301      0.229147
  H       2.721981     -1.825898      0.438299
  H       1.238317     -2.735854      0.411309
21
Coordinates from ORCA-job formamide_adenine_opt_freq E -636.900492399866
  O       4.552996     -1.778819      0.957648
  N       6.183266     -0.292580      1.527630
  C       4.900155     -0.722210      1.478943
  H       6.413276      0.613551      1.907051
  H       6.901675     -0.819661      1.049234
  H       4.183327     -0.042718      1.968494
  N      -1.409932     -1.503886     -0.188759
  N      -2.334499      0.545179     -0.320364
  N      -0.274977      1.824245     -0.030117
  N       1.704896      0.469584      0.261920
  N       1.713216     -1.854602      0.245316
  C      -0.369555     -0.597167     -0.037695
  C      -0.971163      0.672377     -0.122635
  C       1.022402     -0.684893      0.165811
  C      -2.547928     -0.748802     -0.357093
  C       1.027409      1.631981      0.151624
  H      -1.357420     -2.509878     -0.239824
  H      -3.513453     -1.216366     -0.502736
  H       1.637044      2.530297      0.230093
  H       2.716343     -1.814328      0.444579
  H       1.236888     -2.725074      0.414826
21
Coordinates from ORCA-job formamide_adenine_opt_freq E -636.900544147458
  O       4.551779     -1.764905      0.954824
  N       6.207657     -0.314613      1.543517
  C       4.914782     -0.713366      1.475662
  H       6.450523      0.594636      1.907461
  H       6.918736     -0.858839      1.073172
  H       4.209016     -0.015132      1.956178
  N      -1.412506     -1.507021     -0.191539
  N      -2.346801      0.537765     -0.318749
  N      -0.293071      1.825482     -0.029131
  N       1.693125      0.480353      0.258275
  N       1.712547     -1.846221      0.238690
  C      -0.376012     -0.595705     -0.039511
  C      -0.983473      0.670875     -0.122435
  C       1.016828     -0.678066      0.163136
  C      -2.553637     -0.756946     -0.359251
  C       1.010690      1.639966      0.150163
  H      -1.356163     -2.512723     -0.244401
  H      -3.517160     -1.228518     -0.505641
  H       1.616685      2.540642      0.228079
  H       2.713391     -1.805899      0.447720
  H       1.237029     -2.715534      0.417731
21
Coordinates from ORCA-job formamide_adenine_opt_freq E -636.900591358400
  O       4.555930     -1.757043      0.952016
  N       6.225956     -0.329959      1.559371
  C       4.926966     -0.706306      1.468856
  H       6.477690      0.581569      1.911495
  H       6.935269     -0.892852      1.108625
  H       4.226898      0.008043      1.934421
  N      -1.414645     -1.509431     -0.194166
  N      -2.357197      0.531959     -0.313675
  N      -0.308330      1.826242     -0.025952
  N       1.683997      0.489229      0.250201
  N       1.712551     -1.839842      0.229134
  C      -0.381169     -0.594677     -0.041716
  C      -0.993114      0.669417     -0.119461
  C       1.012666     -0.672486      0.157714
  C      -2.559008     -0.763275     -0.355736
  C       0.997230      1.646851      0.147197
  H      -1.354998     -2.514790     -0.250122
  H      -3.521461     -1.237371     -0.501381
  H       1.601573      2.548596      0.222974
  H       2.710962     -1.800671      0.446410
  H       1.236200     -2.706973      0.417744
21
Coordinates from ORCA-job formamide_adenine_opt_freq E -636.900646846302
  O       4.559002     -1.753822      0.947422
  N       6.234859     -0.340924      1.573642
  C       4.932971     -0.700439      1.457370
  H       6.493184      0.570602      1.920792
  H       6.946951     -0.924643      1.154844
  H       4.234316      0.028875      1.900710
  N      -1.414035     -1.511584     -0.194446
  N      -2.365159      0.526615     -0.300701
  N      -0.320206      1.827196     -0.020863
  N       1.679063      0.497804      0.237814
  N       1.714904     -1.834256      0.216282
  C      -0.383239     -0.593677     -0.043900
  C      -0.999440      0.668093     -0.114078
  C       1.011723     -0.666937      0.149600
  C      -2.561724     -0.769095     -0.348635
  C       0.987432      1.653476      0.142330
  H      -1.350616     -2.516528     -0.253753
  H      -3.523525     -1.245225     -0.492071
  H       1.590764      2.555981      0.214925
  H       2.710984     -1.797414      0.441602
  H       1.235755     -2.697866      0.415061
21
Coordinates from ORCA-job formamide_adenine_opt_freq E -636.900737471443
  O       4.564805     -1.754328      0.940045
  N       6.237433     -0.346835      1.591159
  C       4.936109     -0.693793      1.437620
  H       6.498356      0.562909      1.940501
  H       6.957354     -0.957012      1.227249
  H       4.233302      0.052470      1.843166
  N      -1.412321     -1.513518     -0.193239
  N      -2.371365      0.522111     -0.279785
  N      -0.328789      1.827829     -0.012446
  N       1.678015      0.504341      0.217701
  N       1.718065     -1.830289      0.194379
  C      -0.383522     -0.593226     -0.047318
  C      -1.003364      0.666663     -0.104651
  C       1.012772     -0.662200      0.135251
  C      -2.564059     -0.774054     -0.331996
  C       0.981368      1.658526      0.134904
  H      -1.345020     -2.517873     -0.258238
  H      -3.526083     -1.251311     -0.469957
  H       1.585038      2.561035      0.203120
  H       2.711635     -1.796714      0.430096
  H       1.234237     -2.688502      0.406389
21
Coordinates from ORCA-job formamide_adenine_opt_freq E -636.900877339252
  O       4.573987     -1.763723      0.930357
  N       6.221547     -0.342626      1.609991
  C       4.928091     -0.687550      1.408377
  H       6.474043      0.564102      1.972336
  H       6.954324     -0.981654      1.331789
  H       4.210352      0.073230      1.752054
  N      -1.406736     -1.514132     -0.186562
  N      -2.370984      0.520396     -0.242508
  N      -0.326900      1.828239      0.000274
  N       1.686747      0.506602      0.187221
  N       1.725073     -1.830907      0.158233
  C      -0.377891     -0.593204     -0.051377
  C      -0.999892      0.665974     -0.089593
  C       1.020174     -0.660044      0.112036
  C      -2.562157     -0.775891     -0.302340
  C       0.985740      1.660147      0.123704
  H      -1.336723     -2.517785     -0.259275
  H      -3.525748     -1.252865     -0.429364
  H       1.590947      2.562076      0.186235
  H       2.715182     -1.802011      0.407485
  H       1.234792     -2.682145      0.384879
21
Coordinates from ORCA-job formamide_adenine_opt_freq E -636.900731028945
  O       4.570185     -1.781346      0.878027
  N       6.145656     -0.292890      1.670498
  C       4.894380     -0.669636      1.294812
  H       6.319887      0.604389      2.097743
  H       6.894951     -0.986503      1.686735
  H       4.139906      0.134066      1.412890
  N      -1.394158     -1.511384     -0.159801
  N      -2.342501      0.532543     -0.113947
  N      -0.273986      1.820072      0.048144
  N       1.737350      0.473144      0.094318
  N       1.739517     -1.862354      0.019973
  C      -0.353171     -0.602137     -0.064228
  C      -0.964649      0.663872     -0.035957
  C       1.047936     -0.680101      0.029130
  C      -2.550058     -0.761840     -0.190281
  C       1.041148      1.633684      0.097187
  H      -1.330034     -2.512406     -0.268217
  H      -3.523501     -1.227783     -0.275153
  H       1.658724      2.528525      0.150769
  H       2.722242     -1.835938      0.328559
  H       1.234145     -2.689746      0.302747
21
Coordinates from ORCA-job formamide_adenine_opt_freq E -636.865748659515
  O       4.606229     -1.814602      0.890356
  N       6.085741     -0.278981      1.602095
  C       4.886340     -0.753674      1.403218
  H       6.159791      0.663715      1.977217
  H       6.744540     -0.768193      1.336704
  H       4.167022     -0.081683      1.733585
  N      -1.389084     -1.494699     -0.144265
  N      -2.299215      0.557142     -0.201908
  N      -0.227013      1.821922      0.006958
  N       1.745515      0.455108      0.181523
  N       1.742440     -1.864731      0.113804
  C      -0.339934     -0.594813     -0.031247
  C      -0.933338      0.676489     -0.068040
  C       1.053701     -0.693776      0.103707
  C      -2.524008     -0.735087     -0.253666
  C       1.075232      1.620424      0.123719
  H      -1.353948     -2.498820     -0.216165
  H      -3.495483     -1.198444     -0.363086
  H       1.693339      2.513842      0.185515
  H       2.728867     -1.824550      0.315595
  H       1.287232     -2.730360      0.308328
21
Coordinates from ORCA-job formamide_adenine_opt_freq E -636.899470540583
  O       4.607267     -1.838886      0.915803
  N       6.106409     -0.310383      1.638601
  C       4.859053     -0.735187      1.389381
  H       6.243610      0.645809      1.970218
  H       6.852412     -0.954612      1.443297
  H       4.096806      0.000926      1.639294
  N      -1.372853     -1.503665     -0.147867
  N      -2.333163      0.529824     -0.175499
  N      -0.278214      1.832861      0.016453
  N       1.735889      0.506319      0.148704
  N       1.760701     -1.832805      0.087535
  C      -0.338086     -0.583211     -0.040383
  C      -0.960360      0.675191     -0.059563
  C       1.064859     -0.659507      0.080263
  C      -2.529425     -0.765780     -0.234333
  C       1.036999      1.661172      0.110056
  H      -1.315147     -2.506810     -0.228620
  H      -3.496002     -1.245967     -0.334931
  H       1.642754      2.564151      0.165660
  H       2.742540     -1.813462      0.311855
  H       1.287917     -2.689748      0.308023
21
Coordinates from ORCA-job formamide_adenine_opt_freq E -636.887391182112
  O       4.549972     -1.703564      0.964198
  N       6.269782     -0.351676      1.774596
  C       4.981984     -0.639350      1.368351
  H       6.508676      0.477772      2.069059
  H       6.986986     -1.059268      1.706399
  H       4.280671      0.178373      1.488179
  N      -1.430924     -1.524898     -0.165862
  N      -2.396727      0.508275     -0.107812
  N      -0.339733      1.819386      0.025507
  N       1.678507      0.505817      0.056588
  N       1.721904     -1.835096     -0.019913
  C      -0.396558     -0.602148     -0.089041
  C      -1.022405      0.656469     -0.051781
  C       1.013658     -0.656156     -0.021386
  C      -2.587883     -0.785358     -0.180360
  C       0.974990      1.658853      0.066522
  H      -1.347273     -2.525076     -0.269587
  H      -3.555100     -1.260811     -0.244279
  H       1.568498      2.567794      0.125560
  H       2.748531     -1.791079      0.240665
  H       1.206410     -2.662031      0.268347
21
Coordinates from ORCA-job formamide_adenine_opt_freq E -636.893888945977
  O       4.539670     -1.763552      0.915671
  N       6.261086     -0.345138      1.697522
  C       4.920155     -0.655794      1.353268
  H       6.550124      0.561518      2.121758
  H       6.996171     -1.009338      1.591655
  H       4.166587      0.144529      1.547870
  N      -1.417325     -1.520989     -0.167404
  N      -2.379728      0.520305     -0.152595
  N      -0.318005      1.823788      0.012368
  N       1.699091      0.491256      0.108923
  N       1.717759     -1.843257      0.029002
  C      -0.381667     -0.602001     -0.077556
  C      -1.004833      0.661620     -0.064586
  C       1.023716     -0.662923      0.022227
  C      -2.576788     -0.776340     -0.208791
  C       0.993683      1.647538      0.086291
  H      -1.332165     -2.524392     -0.258484
  H      -3.545845     -1.249721     -0.285040
  H       1.589744      2.555882      0.149387
  H       2.723678     -1.802171      0.303303
  H       1.188857     -2.674590      0.279159
21
Coordinates from ORCA-job formamide_adenine_opt_freq E -636.887933288099
  O       4.595021     -1.788203      0.938479
  N       6.051997     -0.356713      1.669436
  C       4.859303     -0.702626      1.352804
  H       6.185300      0.638517      2.016344
  H       6.804871     -1.041963      1.548946
  H       4.124865      0.077098      1.502718
  N      -1.364396     -1.503523     -0.139769
  N      -2.330509      0.525704     -0.120510
  N      -0.278695      1.827057      0.034901
  N       1.735329      0.505255      0.110360
  N       1.783913     -1.827633      0.031467
  C      -0.329130     -0.582894     -0.045225
  C      -0.957261      0.672184     -0.038875
  C       1.075287     -0.662739      0.048403
  C      -2.522082     -0.767742     -0.195552
  C       1.041047      1.659183      0.096401
  H      -1.318401     -2.503805     -0.237572
  H      -3.488707     -1.250224     -0.283196
  H       1.649610      2.558078      0.145076
  H       2.760446     -1.814239      0.269828
  H       1.336157     -2.684541      0.299484
21
Coordinates from ORCA-job formamide_adenine_opt_freq E -636.900904288178
  O       4.569625     -1.821357      0.905762
  N       6.120314     -0.306957      1.660906
  C       4.860536     -0.699744      1.350934
  H       6.294056      0.621795      2.022132
  H       6.879294     -0.965008      1.543833
  H       4.089053      0.081020      1.533762
  N      -1.379461     -1.506102     -0.152328
  N      -2.335627      0.533721     -0.148344
  N      -0.273965      1.827476      0.032495
  N       1.740799      0.487008      0.134979
  N       1.754339     -1.847398      0.051200
  C      -0.341569     -0.591847     -0.048965
  C      -0.958749      0.670831     -0.047481
  C       1.059367     -0.670937      0.060557
  C      -2.537764     -0.762117     -0.213386
  C       1.041559      1.645524      0.110313
  H      -1.320730     -2.508794     -0.246390
  H      -3.508298     -1.236608     -0.306002
  H       1.654235      2.543857      0.164723
  H       2.732754     -1.821696      0.297946
  H       1.274197     -2.696436      0.297299
21
Coordinates from ORCA-job formamide_adenine_opt_freq E -636.900620653808
  O       4.551644     -1.741006      0.927812
  N       6.181686     -0.350945      1.719535
  C       4.899875     -0.648384      1.338587
  H       6.413975      0.567759      2.075984
  H       6.917602     -1.041776      1.651928
  H       4.172090      0.159049      1.459808
  N      -1.404104     -1.516319     -0.156050
  N      -2.361598      0.521824     -0.116607
  N      -0.300413      1.819137      0.028498
  N       1.710353      0.488284      0.097873
  N       1.745188     -1.843354     -0.001343
  C      -0.365634     -0.599782     -0.070917
  C      -0.987339      0.661718     -0.048043
  C       1.040498     -0.670399      0.016861
  C      -2.559655     -0.771717     -0.189531
  C       1.013734      1.645137      0.088631
  H      -1.337992     -2.517880     -0.255628
  H      -3.528621     -1.245034     -0.260931
  H       1.616462      2.548058      0.146827
  H       2.745524     -1.805130      0.279196
  H       1.250691     -2.683010      0.271458
21
Coordinates from ORCA-job formamide_adenine_opt_freq E -636.900499735392
  O       4.525421     -1.783609      0.866100
  N       6.054829     -0.257715      1.623914
  C       4.818987     -0.672790      1.307418
  H       6.251216      0.617836      2.070274
  H       6.828615     -0.917257      1.567166
  H       4.058880      0.097392      1.468901
  N      -1.385023     -1.504827     -0.159489
  N      -2.306888      0.548664     -0.130623
  N      -0.228097      1.811280      0.052926
  N       1.761965      0.449316      0.138464
  N       1.767427     -1.880610      0.052383
  C      -0.330982     -0.607918     -0.057907
  C      -0.928605      0.664008     -0.036768
  C       1.073076     -0.702032      0.049093
  C      -2.528177     -0.740626     -0.200990
  C       1.082487      1.616815      0.125672
  H      -1.336175     -2.506451     -0.266968
  H      -3.506311     -1.195580     -0.287554
  H       1.704996      2.506454      0.189790
  H       2.763494     -1.843587      0.319967
  H       1.272829     -2.722532      0.312180
21
Coordinates from ORCA-job formamide_adenine_opt_freq E -636.900911549486
  O       4.543509     -1.815612      0.887541
  N       6.062217     -0.295259      1.632075
  C       4.814064     -0.686874      1.319063
  H       6.223636      0.622831      2.007845
  H       6.826812     -0.951243      1.563156
  H       4.034112      0.100604      1.460804
  N      -1.363340     -1.504046     -0.153248
  N      -2.311237      0.539817     -0.139432
  N      -0.243703      1.824393      0.050955
  N       1.765359      0.473924      0.150889
  N       1.770329     -1.861252      0.054837
  C      -0.320890     -0.594390     -0.045660
  C      -0.933727      0.671097     -0.036128
  C       1.079610     -0.682215      0.068138
  C      -2.518918     -0.755200     -0.210642
  C       1.071183      1.635764      0.129954
  H      -1.309567     -2.506775     -0.256544
  H      -3.491925     -1.226069     -0.306554
  H       1.687613      2.531913      0.191005
  H       2.742631     -1.837926      0.324431
  H       1.286198     -2.707252      0.311463
21
Coordinates from ORCA-job formamide_adenine_opt_freq E -636.901472786662
  O       4.538888     -1.763212      0.908910
  N       6.126957     -0.313436      1.670903
  C       4.855745     -0.650448      1.319772
  H       6.329587      0.602087      2.056993
  H       6.867185     -0.998420      1.611280
  H       4.105073      0.146201      1.435826
  N      -1.387855     -1.509760     -0.159231
  N      -2.332785      0.534784     -0.123681
  N      -0.264390      1.818013      0.046965
  N       1.739320      0.468528      0.128002
  N       1.750794     -1.863979      0.025969
  C      -0.345013     -0.600678     -0.059770
  C      -0.957151      0.665153     -0.040648
  C       1.056247     -0.686026      0.042701
  C      -2.540226     -0.759020     -0.201895
  C       1.049272      1.630699      0.116345
  H      -1.330969     -2.511394     -0.266523
  H      -3.512166     -1.227572     -0.286042
  H       1.662673      2.527287      0.177572
  H       2.740008     -1.827441      0.303047
  H       1.262771     -2.705133      0.297454
21
Coordinates from ORCA-job formamide_adenine_opt_freq E -636.901635003608
  O       4.573510     -1.782231      0.899738
  N       6.115482     -0.287555      1.677619
  C       4.866858     -0.663714      1.320029
  H       6.293975      0.628836      2.058995
  H       6.871083     -0.959733      1.617887
  H       4.105980      0.123475      1.438155
  N      -1.396235     -1.504942     -0.155899
  N      -2.329253      0.544544     -0.125974
  N      -0.253066      1.815318      0.050317
  N       1.743834      0.455070      0.127515
  N       1.745270     -1.875223      0.020806
  C      -0.347759     -0.602747     -0.055680
  C      -0.952358      0.666546     -0.036133
  C       1.053441     -0.695267      0.043977
  C      -2.544691     -0.747374     -0.198565
  C       1.059743      1.620714      0.118398
  H      -1.346469     -2.506584     -0.261842
  H      -3.519786     -1.209595     -0.284650
  H       1.678814      2.513512      0.178101
  H       2.734959     -1.837742      0.283959
  H       1.260633     -2.719077      0.287193
21
Coordinates from ORCA-job formamide_adenine_opt_freq E -636.901672030275
  O       4.555645     -1.783714      0.887191
  N       6.090154     -0.292511      1.665961
  C       4.840619     -0.665155      1.307865
  H       6.267750      0.621755      2.042940
  H       6.850261     -0.959476      1.624067
  H       4.079855      0.127607      1.416891
  N      -1.385270     -1.505584     -0.153662
  N      -2.320520      0.543044     -0.125843
  N      -0.245054      1.815866      0.052169
  N       1.753099      0.458347      0.136752
  N       1.757637     -1.873022      0.026678
  C      -0.336819     -0.601748     -0.052474
  C      -0.944127      0.666875     -0.033783
  C       1.066011     -0.693431      0.050358
  C      -2.534386     -0.748943     -0.199691
  C       1.067594      1.623113      0.123992
  H      -1.334286     -2.507493     -0.259833
  H      -3.509227     -1.212526     -0.287641
  H       1.683687      2.518155      0.186960
  H       2.743451     -1.840448      0.300645
  H       1.267889     -2.714481      0.294407
21
Coordinates from ORCA-job formamide_adenine_opt_freq E -636.901735281589
  O       4.558576     -1.781585      0.892765
  N       6.096628     -0.293245      1.675205
  C       4.846103     -0.660710      1.308841
  H       6.275720      0.627016      2.045416
  H       6.851817     -0.965037      1.633600
  H       4.086296      0.131854      1.407399
  N      -1.387710     -1.505666     -0.153243
  N      -2.321997      0.543557     -0.122006
  N      -0.246083      1.815824      0.052738
  N       1.751128      0.456855      0.134237
  N       1.753660     -1.874978      0.020505
  C      -0.339325     -0.602061     -0.051797
  C      -0.945810      0.666989     -0.033335
  C       1.062733     -0.694694      0.048632
  C      -2.536384     -0.748741     -0.197864
  C       1.066612      1.622167      0.123063
  H      -1.337492     -2.507714     -0.260483
  H      -3.511133     -1.212322     -0.285001
  H       1.683344      2.516809      0.184885
  H       2.740516     -1.840925      0.289794
  H       1.266769     -2.717163      0.290599
21
Coordinates from ORCA-job formamide_adenine_opt_freq E -636.901816948172
  O       4.563881     -1.779252      0.892684
  N       6.094649     -0.287685      1.688035
  C       4.849299     -0.654248      1.300379
  H       6.271556      0.639355      2.046865
  H       6.847439     -0.962670      1.661132
  H       4.090602      0.140961      1.372732
  N      -1.391316     -1.504715     -0.151798
  N      -2.319791      0.547261     -0.117039
  N      -0.240345      1.813616      0.057989
  N       1.752630      0.448514      0.133925
  N       1.749173     -1.882774      0.010338
  C      -0.340697     -0.604147     -0.049595
  C      -0.943586      0.666792     -0.029118
  C       1.060651     -0.700896      0.046925
  C      -2.537690     -0.744550     -0.194587
  C       1.071828      1.615955      0.126289
  H      -1.344285     -2.506606     -0.260933
  H      -3.513454     -1.205532     -0.281540
  H       1.690886      2.508857      0.188981
  H       2.737911     -1.847562      0.275702
  H       1.264624     -2.724443      0.286582
21
Coordinates from ORCA-job formamide_adenine_opt_freq E -636.901992851462
  O       4.565370     -1.777442      0.885300
  N       6.065446     -0.268752      1.711238
  C       4.838200     -0.640146      1.270692
  H       6.236478      0.673516      2.037234
  H       6.814532     -0.947734      1.731858
  H       4.083491      0.160082      1.270470
  N      -1.393556     -1.501502     -0.148580
  N      -2.305489      0.557887     -0.102575
  N      -0.216202      1.807209      0.075106
  N       1.764938      0.425825      0.140034
  N       1.745440     -1.904218     -0.009010
  C      -0.336052     -0.609592     -0.041616
  C      -0.929121      0.666370     -0.015793
  C       1.064290     -0.718216      0.047125
  C      -2.533383     -0.732135     -0.186527
  C       1.094348      1.598949      0.140351
  H      -1.355238     -2.503167     -0.264506
  H      -3.512308     -1.185643     -0.274558
  H       1.719566      2.487202      0.207483
  H       2.737872     -1.869032      0.247279
  H       1.265344     -2.743231      0.282942
21
Coordinates from ORCA-job formamide_adenine_opt_freq E -636.902120641595
  O       4.564280     -1.779572      0.877553
  N       6.024293     -0.246959      1.731159
  C       4.821626     -0.629615      1.235213
  H       6.189015      0.708161      2.019584
  H       6.770545     -0.924730      1.810104
  H       4.073871      0.174785      1.156341
  N      -1.392768     -1.497478     -0.145914
  N      -2.288274      0.568760     -0.086445
  N      -0.188665      1.800200      0.097047
  N       1.781007      0.402677      0.146575
  N       1.744602     -1.925765     -0.025699
  C      -0.327885     -0.614811     -0.033671
  C      -0.911323      0.665814      0.001190
  C       1.072145     -0.735438      0.046918
  C      -2.526355     -0.718879     -0.178165
  C       1.120213      1.581231      0.156991
  H      -1.362514     -2.498388     -0.269540
  H      -3.508865     -1.164415     -0.268399
  H       1.751599      2.464687      0.229846
  H       2.740847     -1.893668      0.220210
  H       1.266572     -2.760368      0.283048
21
Coordinates from ORCA-job formamide_adenine_opt_freq E -636.902178205915
  O       4.557505     -1.782146      0.876607
  N       5.999367     -0.238120      1.738624
  C       4.810557     -0.625886      1.215295
  H       6.165770      0.723252      1.996478
  H       6.742396     -0.915104      1.850437
  H       4.070536      0.181908      1.094636
  N      -1.389708     -1.495473     -0.147626
  N      -2.279328      0.572708     -0.079121
  N      -0.176336      1.796906      0.110893
  N       1.789271      0.393887      0.153036
  N       1.746566     -1.934515     -0.027181
  C      -0.322122     -0.616704     -0.029206
  C      -0.902111      0.665223      0.010905
  C       1.078297     -0.742192      0.049614
  C      -2.521035     -0.713484     -0.176748
  C       1.131875      1.574229      0.168591
  H      -1.361822     -2.495797     -0.276742
  H      -3.504833     -1.155622     -0.270065
  H       1.765728      2.455629      0.244950
  H       2.744838     -1.906780      0.210085
  H       1.268555     -2.765689      0.290482
21
Coordinates from ORCA-job formamide_adenine_opt_freq E -636.902225790135
  O       4.551504     -1.785375      0.882551
  N       5.994149     -0.239622      1.738112
  C       4.808456     -0.627194      1.208798
  H       6.166993      0.724314      1.975088
  H       6.735022     -0.916962      1.863141
  H       4.073000      0.184601      1.075910
  N      -1.387166     -1.495318     -0.151461
  N      -2.278989      0.571446     -0.078392
  N      -0.177432      1.796793      0.118164
  N       1.789862      0.395826      0.156744
  N       1.748193     -1.933524     -0.019301
  C      -0.320452     -0.616239     -0.028229
  C      -0.901563      0.664706      0.015160
  C       1.080673     -0.740871      0.052592
  C      -2.519437     -0.714297     -0.180827
  C       1.130959      1.575463      0.174365
  H      -1.357152     -2.495115     -0.283228
  H      -3.502993     -1.156562     -0.278031
  H       1.764617      2.456897      0.252067
  H       2.747677     -1.910147      0.210753
  H       1.268046     -2.762589      0.299972
21
Coordinates from ORCA-job formamide_adenine_opt_freq E -636.902256662329
  O       4.544106     -1.787790      0.892743
  N       5.996950     -0.244159      1.732921
  C       4.809303     -0.628354      1.206470
  H       6.180087      0.722063      1.949609
  H       6.734024     -0.924474      1.864612
  H       4.077639      0.187219      1.071088
  N      -1.384715     -1.495907     -0.158156
  N      -2.281199      0.568526     -0.080912
  N      -0.183188      1.797604      0.123711
  N       1.787531      0.400797      0.162546
  N       1.748776     -1.929778     -0.005280
  C      -0.320503     -0.615295     -0.028562
  C      -0.903754      0.664003      0.016681
  C       1.080789     -0.737400      0.057897
  C      -2.518758     -0.717130     -0.188352
  C       1.125573      1.579040      0.180583
  H      -1.351055     -2.495224     -0.292668
  H      -3.501270     -1.160390     -0.290314
  H       1.758748      2.460680      0.259221
  H       2.748936     -1.909964      0.219070
  H       1.265944     -2.757837      0.311038
21
Coordinates from ORCA-job formamide_adenine_opt_freq E -636.902285969754
  O       4.539910     -1.789333      0.903707
  N       6.002536     -0.246408      1.727254
  C       4.812997     -0.628028      1.203408
  H       6.195220      0.722365      1.925951
  H       6.734883     -0.930144      1.866294
  H       4.084633      0.190024      1.064001
  N      -1.383945     -1.496426     -0.164419
  N      -2.283566      0.566503     -0.084522
  N      -0.188075      1.798000      0.129681
  N       1.784964      0.403591      0.169593
  N       1.747134     -1.927803      0.008089
  C      -0.321774     -0.614904     -0.029031
  C      -0.906207      0.663342      0.017972
  C       1.079075     -0.735337      0.063737
  C      -2.519176     -0.719092     -0.197078
  C       1.120821      1.580974      0.188060
  H      -1.347225     -2.495178     -0.301326
  H      -3.500916     -1.162738     -0.304704
  H       1.753994      2.462477      0.268291
  H       2.747698     -1.910000      0.229953
  H       1.260988     -2.755655      0.319038
21
Coordinates from ORCA-job formamide_adenine_opt_freq E -636.902329324142
  O       4.535795     -1.790051      0.918086
  N       6.011135     -0.246794      1.717583
  C       4.818873     -0.625787      1.197870
  H       6.215864      0.725083      1.893076
  H       6.736191     -0.935776      1.866421
  H       4.095231      0.194432      1.051266
  N      -1.384026     -1.496950     -0.173717
  N      -2.285902      0.564989     -0.092201
  N      -0.193011      1.797889      0.136982
  N       1.781534      0.404775      0.183653
  N       1.743582     -1.927164      0.027302
  C      -0.324033     -0.614944     -0.029579
  C      -0.909075      0.662578      0.017681
  C       1.075589     -0.734437      0.074214
  C      -2.519838     -0.720483     -0.210263
  C       1.115675      1.581593      0.201139
  H      -1.344299     -2.495080     -0.314096
  H      -3.500494     -1.163936     -0.325634
  H       1.749022      2.462625      0.285256
  H       2.743619     -1.910540      0.251880
  H       1.252533     -2.755792      0.327029
21
Coordinates from ORCA-job formamide_adenine_opt_freq E -636.902395029339
  O       4.532914     -1.791047      0.935408
  N       6.022223     -0.245239      1.703233
  C       4.827157     -0.622901      1.188708
  H       6.239621      0.729606      1.852555
  H       6.738360     -0.939798      1.866098
  H       4.109624      0.199200      1.028989
  N      -1.385048     -1.497450     -0.183838
  N      -2.288239      0.564122     -0.105182
  N      -0.197615      1.797465      0.145639
  N       1.777339      0.404568      0.205267
  N       1.738749     -1.927523      0.051592
  C      -0.326934     -0.615148     -0.029640
  C      -0.912480      0.662088      0.016326
  C       1.070945     -0.734440      0.089360
  C      -2.520790     -0.721268     -0.228912
  C       1.110411      1.581102      0.220089
  H      -1.342636     -2.494870     -0.327535
  H      -3.500257     -1.164361     -0.354931
  H       1.743185      2.461931      0.311108
  H       2.736809     -1.911564      0.286784
  H       1.240628     -2.758242      0.332830
21
Coordinates from ORCA-job formamide_adenine_opt_freq E -636.902478345547
  O       4.529807     -1.793696      0.956545
  N       6.034097     -0.242629      1.682939
  C       4.836108     -0.621066      1.175802
  H       6.264406      0.734213      1.802897
  H       6.739646     -0.942589      1.866114
  H       4.126636      0.202408      0.994856
  N      -1.385932     -1.497875     -0.195346
  N      -2.290086      0.563713     -0.124215
  N      -0.202413      1.797095      0.153800
  N       1.771968      0.404253      0.236020
  N       1.734433     -1.927228      0.081771
  C      -0.329664     -0.615066     -0.029246
  C      -0.916154      0.662089      0.012023
  C       1.066051     -0.734562      0.109928
  C      -2.520964     -0.721727     -0.251752
  C       1.104412      1.580505      0.245156
  H      -1.341508     -2.494773     -0.342521
  H      -3.498659     -1.164830     -0.389313
  H       1.735105      2.461730      0.346720
  H       2.728018     -1.911557      0.337360
  H       1.228657     -2.762180      0.334410
21
Coordinates from ORCA-job formamide_adenine_opt_freq E -636.902550801231
  O       4.528021     -1.799418      0.977788
  N       6.044438     -0.241450      1.662528
  C       4.844293     -0.623289      1.163841
  H       6.283019      0.735807      1.759913
  H       6.741276     -0.943819      1.868728
  H       4.142736      0.200619      0.957145
  N      -1.386491     -1.498214     -0.202534
  N      -2.292079      0.563190     -0.144061
  N      -0.207694      1.797690      0.159080
  N       1.765978      0.406119      0.265420
  N       1.732977     -1.924061      0.107873
  C      -0.331624     -0.614077     -0.027976
  C      -0.920111      0.662850      0.007005
  C       1.062619     -0.733119      0.128797
  C      -2.520900     -0.722607     -0.272554
  C       1.097852      1.581709      0.267866
  H      -1.341235     -2.494887     -0.350891
  H      -3.496846     -1.167078     -0.419790
  H       1.724651      2.464447      0.380227
  H       2.720711     -1.909056      0.386523
  H       1.222376     -2.765128      0.329020
21
Coordinates from ORCA-job formamide_adenine_opt_freq E -636.902598159021
  O       4.527027     -1.807044      0.995833
  N       6.050906     -0.242451      1.647990
  C       4.849087     -0.629091      1.158032
  H       6.291661      0.734237      1.734002
  H       6.742927     -0.943994      1.873947
  H       4.153415      0.194323      0.928888
  N      -1.386388     -1.498278     -0.205286
  N      -2.294008      0.562480     -0.157834
  N      -0.212901      1.799152      0.159412
  N       1.760676      0.410168      0.284556
  N       1.734790     -1.918299      0.122752
  C      -0.332575     -0.612458     -0.026592
  C      -0.923385      0.663891      0.002037
  C       1.061347     -0.730208      0.140281
  C      -2.520740     -0.723786     -0.283913
  C       1.091877      1.584765      0.281243
  H      -1.341627     -2.495238     -0.352833
  H      -3.495237     -1.170468     -0.434722
  H       1.714728      2.469282      0.401039
  H       2.717740     -1.904893      0.416815
  H       1.224646     -2.765860      0.318300
21
Coordinates from ORCA-job formamide_adenine_opt_freq E -636.902627396300
  O       4.526089     -1.812680      1.008917
  N       6.056047     -0.244818      1.639493
  C       4.851873     -0.634420      1.158428
  H       6.295554      0.731287      1.723320
  H       6.746699     -0.944406      1.876664
  H       4.159566      0.188833      0.916213
  N      -1.386588     -1.498240     -0.204898
  N      -2.296136      0.561655     -0.165233
  N      -0.217575      1.800679      0.158440
  N       1.756555      0.414400      0.292858
  N       1.736928     -1.912810      0.128642
  C      -0.333578     -0.611137     -0.024821
  C      -0.926040      0.664543     -0.000103
  C       1.060789     -0.727258      0.145047
  C      -2.521321     -0.724939     -0.289506
  C       1.087054      1.588070      0.286318
  H      -1.342594     -2.495584     -0.349926
  H      -3.495032     -1.173550     -0.441952
  H       1.707559      2.473745      0.409279
  H       2.718382     -1.901742      0.426020
  H       1.229735     -2.765399      0.310749
21
Coordinates from ORCA-job formamide_adenine_opt_freq E -636.902644546716
  O       4.523762     -1.816188      1.020703
  N       6.061840     -0.248092      1.631941
  C       4.853464     -0.638397      1.161894
  H       6.300505      0.727642      1.716026
  H       6.752010     -0.946335      1.874866
  H       4.163446      0.185403      0.913908
  N      -1.386498     -1.498279     -0.205595
  N      -2.298302      0.560531     -0.170581
  N      -0.222566      1.802080      0.157109
  N       1.752730      0.418570      0.298151
  N       1.738096     -1.907929      0.133635
  C      -0.334868     -0.610186     -0.022994
  C      -0.928497      0.664709     -0.001689
  C       1.059788     -0.724426      0.148603
  C      -2.521907     -0.726269     -0.293723
  C       1.082133      1.591329      0.288984
  H      -1.342438     -2.496082     -0.347565
  H      -3.494755     -1.176261     -0.447458
  H       1.701534      2.477548      0.413122
  H       2.720175     -1.899129      0.426953
  H       1.234316     -2.764008      0.307660
21
Coordinates from ORCA-job formamide_adenine_opt_freq E -636.902655774309
  O       4.521151     -1.816286      1.030327
  N       6.070300     -0.251215      1.622434
  C       4.855713     -0.639447      1.166428
  H       6.309005      0.724385      1.708601
  H       6.760528     -0.949586      1.864454
  H       4.166856      0.186051      0.920726
  N      -1.387027     -1.498503     -0.208044
  N      -2.300400      0.559547     -0.177063
  N      -0.227325      1.802911      0.157110
  N       1.748830      0.421240      0.304209
  N       1.736869     -1.905047      0.141618
  C      -0.337033     -0.609973     -0.020884
  C      -0.931007      0.664443     -0.002544
  C       1.057378     -0.722651      0.153690
  C      -2.522783     -0.727333     -0.301082
  C       1.077273      1.593421      0.292389
  H      -1.342042     -2.496718     -0.346468
  H      -3.494805     -1.177797     -0.458868
  H       1.696610      2.479555      0.417221
  H       2.720808     -1.897641      0.427854
  H       1.235068     -2.763126      0.311840
21
Coordinates from ORCA-job formamide_adenine_opt_freq E -636.902668305607
  O       4.518509     -1.814576      1.040802
  N       6.080192     -0.252643      1.608047
  C       4.858261     -0.638394      1.169005
  H       6.320368      0.723083      1.693757
  H       6.769863     -0.951892      1.848330
  H       4.170333      0.188757      0.927509
  N      -1.387747     -1.498600     -0.213630
  N      -2.301502      0.559278     -0.187713
  N      -0.231112      1.803023      0.158658
  N       1.744795      0.421687      0.316523
  N       1.733345     -1.904547      0.156016
  C      -0.339579     -0.610361     -0.018348
  C      -0.933098      0.664027     -0.004299
  C       1.053717     -0.722448      0.163426
  C      -2.523095     -0.727532     -0.313450
  C       1.072800      1.593769      0.300774
  H      -1.341291     -2.497224     -0.348115
  H      -3.494018     -1.177480     -0.477996
  H       1.692455      2.479362      0.427801
  H       2.718912     -1.897579      0.436177
  H       1.231859     -2.763481      0.320674
