26
Coordinates from ORCA-job methylurea_adenine_opt_freq E -731.538985982212
  O           4.03382716703057     -1.80885147300192      1.10538935292270
  N           5.91959093500413     -0.79813919236482      1.89297774764344
  N           3.97089173357252      0.43707407378042      1.52100125619248
  C           4.59525251014675     -0.76786290574749      1.49714602016859
  H           6.28989158234782     -0.08263493618154      2.50058153392598
  H           6.28969061587260     -1.72831212980991      2.02295444688351
  H           2.99559125563935      0.43425818609833      1.20080863845136
  C           4.59140332395739      1.70067895613406      1.87661911906937
  H           3.87379913231634      2.50136594922483      1.68651750733392
  H           4.86402867726473      1.74937435361170      2.94112347441424
  H           5.48649599172352      1.90032646813130      1.27357225393955
  N          -1.60290357943087     -1.73098770086209     -0.90506156469897
  N          -2.80633015419189      0.14955776215495     -0.61753056377592
  N          -1.02306424495831      1.50460691690282      0.35056167119330
  N           1.08952089851686      0.35448598598239      0.56853887372744
  N           1.45131530811543     -1.85559656710089     -0.08101901060181
  C          -0.74160283385281     -0.80020677793652     -0.34247947358639
  C          -1.51408412542678      0.36158356300975     -0.17247531810205
  C           0.61264046712737     -0.79801917382992      0.05375038374244
  C          -2.81281697817756     -1.09188982272218     -1.04312328970379
  C           0.25738783492422      1.41490130899124      0.68202092141353
  H          -1.39500890365992     -2.67143607497140     -1.20506000957302
  H          -3.67021015971980     -1.59852366103062     -1.46755179165649
  H           0.70895311076839      2.30940934401631      1.10700899265638
  H           2.38889352269683     -1.82141879183445      0.34668481721433
  H           1.07527991239296     -2.76779166064434     -0.28401998919417
