26
Coordinates from ORCA-job methylurea_adenine_opt_freq E -731.244966698469
  O       4.826421     -2.204726      1.500893
  N       5.433974      0.014452      1.500893
  N       3.211653     -0.565706      1.500893
  C       4.516007     -1.015263      1.500493
  H       5.142922      0.986271      1.500593
  H       6.431618     -0.169929      1.500893
  H       2.431576     -1.214178      1.500993
  C       2.891280      0.868958      1.500748
  H       2.812094      1.223454      0.473050
  H       1.943506      1.029646      2.014563
  H       3.680682      1.417573      2.014524
  N      -1.199000     -1.399700      0.000000
  N      -2.075200      0.649900      0.000000
  N       0.033700      1.859400     -0.000100
  N       1.999800      0.415000      0.000000
  N       1.824100     -1.976000      0.000000
  C      -0.135900     -0.542100      0.000100
  C      -0.705600      0.724100      0.000100
  C       1.235900     -0.700400      0.000000
  C      -2.338600     -0.639400      0.000000
  C       1.360700      1.609200      0.000000
  H      -1.156600     -2.410300     -0.000200
  H      -3.322500     -1.086400     -0.000100
  H       2.003400      2.483100     -0.000100
  H       2.832200     -2.052800      0.000300
  H       1.250300     -2.808200      0.000400
26
Coordinates from ORCA-job methylurea_adenine_opt_freq E -731.318842000999
  O       4.838781     -2.218803      1.492988
  N       5.543629     -0.036587      1.519225
  N       3.273043     -0.544475      1.534385
  C       4.572366     -1.016120      1.516070
  H       5.313094      0.945950      1.535562
  H       6.524624     -0.282228      1.503977
  H       2.501221     -1.208952      1.524571
  C       2.925847      0.890090      1.551923
  H       2.830258      1.262624      0.510354
  H       1.985762      1.042841      2.080284
  H       3.723349      1.431009      2.077595
  N      -1.243400     -1.418709     -0.004387
  N      -2.141705      0.627602     -0.045150
  N      -0.039790      1.857196     -0.066050
  N       1.961336      0.433710     -0.025923
  N       1.812686     -1.931077      0.001287
  C      -0.185837     -0.544060     -0.019415
  C      -0.771320      0.717770     -0.044647
  C       1.198240     -0.679944     -0.018996
  C      -2.390884     -0.664831     -0.020830
  C       1.278140      1.626760     -0.051178
  H      -1.193561     -2.428010      0.013733
  H      -3.371145     -1.120429     -0.014970
  H       1.900759      2.515987     -0.054186
  H       2.822129     -1.986137      0.003306
  H       1.260810     -2.775225      0.009411
26
Coordinates from ORCA-job methylurea_adenine_opt_freq E -731.372490455619
  O       4.832624     -2.226662      1.471828
  N       5.611635     -0.073697      1.534628
  N       3.322571     -0.516916      1.560060
  C       4.605790     -1.012843      1.522891
  H       5.425645      0.916093      1.571780
  H       6.576076     -0.367581      1.504500
  H       2.556642     -1.187525      1.538277
  C       2.969777      0.911330      1.599397
  H       2.861908      1.291817      0.558408
  H       2.035808      1.061120      2.138883
  H       3.773880      1.441718      2.136651
  N      -1.283900     -1.439093     -0.006012
  N      -2.192393      0.609108     -0.080560
  N      -0.089906      1.847251     -0.120613
  N       1.927760      0.443559     -0.052499
  N       1.807367     -1.894665     -0.001048
  C      -0.227817     -0.552830     -0.035481
  C      -0.820766      0.708264     -0.081479
  C       1.166966     -0.668626     -0.036945
  C      -2.432984     -0.684102     -0.035214
  C       1.217770      1.629755     -0.096462
  H      -1.233879     -2.447314      0.027629
  H      -3.412353     -1.142377     -0.022897
  H       1.830921      2.527251     -0.100306
  H       2.818352     -1.923893     -0.000471
  H       1.280938     -2.753190      0.013989
26
Coordinates from ORCA-job methylurea_adenine_opt_freq E -731.427503811509
  O       4.808973     -2.231306      1.435861
  N       5.698107     -0.127042      1.544798
  N       3.385528     -0.469610      1.600774
  C       4.642818     -1.005402      1.529636
  H       5.579094      0.870149      1.610955
  H       6.634935     -0.491973      1.485625
  H       2.626184     -1.143242      1.565127
  C       3.031620      0.949267      1.671134
  H       2.902948      1.335054      0.644950
  H       2.105111      1.089966      2.227678
  H       3.837581      1.467142      2.219384
  N      -1.333329     -1.467137     -0.010725
  N      -2.255699      0.580257     -0.130760
  N      -0.156293      1.833103     -0.191929
  N       1.871592      0.460113     -0.086544
  N       1.798843     -1.852806     -0.002956
  C      -0.281184     -0.567821     -0.057695
  C      -0.882858      0.692197     -0.131560
  C       1.123394     -0.657239     -0.060399
  C      -2.483373     -0.712511     -0.058192
  C       1.145081      1.633338     -0.155233
  H      -1.284057     -2.473877      0.043261
  H      -3.461280     -1.174882     -0.038282
  H       1.752515      2.537241     -0.162511
  H       2.811396     -1.844115     -0.002444
  H       1.310785     -2.732913      0.018983
26
Coordinates from ORCA-job methylurea_adenine_opt_freq E -731.467078115894
  O       4.775214     -2.232394      1.404377
  N       5.770187     -0.180219      1.547448
  N       3.445089     -0.418968      1.658848
  C       4.671026     -1.000088      1.541616
  H       5.717160      0.820863      1.640607
  H       6.673702     -0.613618      1.450425
  H       2.688841     -1.088730      1.623118
  C       3.106244      0.994127      1.746509
  H       2.948054      1.381520      0.748994
  H       2.190336      1.124416      2.326529
  H       3.913540      1.502798      2.294233
  N      -1.372093     -1.493555     -0.019342
  N      -2.313341      0.546951     -0.178533
  N      -0.228124      1.823404     -0.257802
  N       1.802465      0.487087     -0.119027
  N       1.784950     -1.825681     -0.012160
  C      -0.326732     -0.582640     -0.080140
  C      -0.939486      0.675554     -0.178718
  C       1.082543     -0.649546     -0.084194
  C      -2.525101     -0.744763     -0.082471
  C       1.076097      1.644771     -0.212406
  H      -1.322295     -2.498747      0.052144
  H      -3.500132     -1.214078     -0.055046
  H       1.680769      2.551780     -0.235418
  H       2.798004     -1.790253     -0.016012
  H       1.331514     -2.724041      0.005355
26
Coordinates from ORCA-job methylurea_adenine_opt_freq E -731.490488385597
  O       4.749102     -2.234567      1.376029
  N       5.825300     -0.227066      1.543585
  N       3.495409     -0.382501      1.724154
  C       4.693991     -1.002692      1.550227
  H       5.823448      0.772193      1.663716
  H       6.698743     -0.709367      1.407177
  H       2.732612     -1.042792      1.698141
  C       3.184737      1.033711      1.818621
  H       2.998012      1.427817      0.835275
  H       2.280909      1.159701      2.421505
  H       3.996998      1.539234      2.355451
  N      -1.397387     -1.513128     -0.033774
  N      -2.362913      0.514423     -0.220799
  N      -0.300332      1.818222     -0.309154
  N       1.733608      0.515234     -0.151300
  N       1.766998     -1.803641     -0.015315
  C      -0.361250     -0.591656     -0.101904
  C      -0.988459      0.661932     -0.218524
  C       1.047969     -0.641767     -0.101796
  C      -2.557673     -0.777161     -0.109811
  C       1.011542      1.657724     -0.262008
  H      -1.342465     -2.516833      0.051095
  H      -3.527787     -1.256951     -0.077330
  H       1.611489      2.566784     -0.304453
  H       2.779514     -1.758035     -0.024795
  H       1.336319     -2.712866     -0.005079
26
Coordinates from ORCA-job methylurea_adenine_opt_freq E -731.503385229084
  O       4.740962     -2.233361      1.340178
  N       5.865337     -0.255913      1.531777
  N       3.538660     -0.365419      1.788954
  C       4.717297     -1.008027      1.554088
  H       5.892716      0.738745      1.681531
  H       6.718791     -0.759011      1.350547
  H       2.762058     -1.011419      1.769726
  C       3.259287      1.056963      1.890522
  H       3.051509      1.460279      0.904057
  H       2.366575      1.187868      2.509703
  H       4.079608      1.562595      2.411962
  N      -1.419404     -1.525400     -0.051189
  N      -2.404212      0.489755     -0.263645
  N      -0.359798      1.814940     -0.354168
  N       1.678505      0.532081     -0.179464
  N       1.746217     -1.787413     -0.004707
  C      -0.390889     -0.596331     -0.123014
  C      -1.029640      0.652211     -0.255670
  C       1.016847     -0.636566     -0.112632
  C      -2.586848     -0.802179     -0.140810
  C       0.958536      1.665797     -0.303968
  H      -1.358039     -2.527633      0.045688
  H      -3.552332     -1.291212     -0.107055
  H       1.551883      2.577651     -0.360654
  H       2.758631     -1.741384     -0.014379
  H       1.326178     -2.701665      0.001559
26
Coordinates from ORCA-job methylurea_adenine_opt_freq E -731.509318671776
  O       4.734313     -2.230918      1.310974
  N       5.886831     -0.271926      1.517447
  N       3.566188     -0.359328      1.836303
  C       4.730798     -1.012164      1.552590
  H       5.929337      0.718063      1.690572
  H       6.729718     -0.778980      1.301373
  H       2.775989     -0.988639      1.821652
  C       3.311232      1.067892      1.943288
  H       3.094752      1.476980      0.954673
  H       2.426626      1.208640      2.571430
  H       4.139445      1.573976      2.450811
  N      -1.433989     -1.533060     -0.063765
  N      -2.430520      0.473540     -0.296402
  N      -0.395789      1.812270     -0.386724
  N       1.647882      0.539923     -0.195969
  N       1.732078     -1.777214      0.009132
  C      -0.410762     -0.598763     -0.137637
  C      -1.056659      0.645259     -0.282907
  C       0.996265     -0.632927     -0.117544
  C      -2.606180     -0.818829     -0.164828
  C       0.925077      1.670362     -0.331332
  H      -1.366470     -2.534002      0.042177
  H      -3.568408     -1.314085     -0.131927
  H       1.511432      2.585637     -0.396046
  H       2.744788     -1.733083     -0.001179
  H       1.314458     -2.692671      0.012774
26
Coordinates from ORCA-job methylurea_adenine_opt_freq E -731.515491395252
  O       4.699409     -2.220325      1.253739
  N       5.904081     -0.294880      1.476899
  N       3.603855     -0.347921      1.919532
  C       4.736394     -1.014334      1.544101
  H       5.975353      0.685303      1.691099
  H       6.725647     -0.803559      1.193475
  H       2.790859     -0.946986      1.913417
  C       3.386531      1.085387      2.028527
  H       3.163851      1.499687      1.039391
  H       2.514000      1.247256      2.667844
  H       4.228359      1.590223      2.513224
  N      -1.450428     -1.546508     -0.085106
  N      -2.461792      0.447793     -0.352044
  N      -0.438714      1.804749     -0.434205
  N       1.612819      0.549645     -0.210538
  N       1.713490     -1.764220      0.043271
  C      -0.434846     -0.604049     -0.157897
  C      -1.090013      0.632198     -0.324572
  C       0.971712     -0.627716     -0.116396
  C      -2.628184     -0.844899     -0.207948
  C       0.883324      1.674162     -0.366031
  H      -1.373476     -2.545200      0.034889
  H      -3.585935     -1.348883     -0.180764
  H       1.460011      2.594044     -0.442595
  H       2.726533     -1.725258      0.030344
  H       1.295595     -2.679754      0.037281
26
Coordinates from ORCA-job methylurea_adenine_opt_freq E -731.520666308469
  O       4.601940     -2.183977      1.146548
  N       5.893346     -0.317855      1.390441
  N       3.646191     -0.329272      2.043765
  C       4.711088     -1.003636      1.513159
  H       6.020084      0.638654      1.674874
  H       6.670041     -0.822974      0.995973
  H       2.804270     -0.886005      2.048761
  C       3.473644      1.109616      2.146973
  H       3.251675      1.526842      1.159790
  H       2.615819      1.301647      2.797010
  H       4.334407      1.607601      2.604471
  N      -1.458035     -1.565362     -0.112961
  N      -2.482348      0.413826     -0.434100
  N      -0.470763      1.789505     -0.495002
  N       1.587522      0.557484     -0.210017
  N       1.694133     -1.754705      0.111160
  C      -0.450370     -0.613705     -0.179375
  C      -1.113906      0.612188     -0.379676
  C       0.955342     -0.624451     -0.100087
  C      -2.639717     -0.878245     -0.273094
  C       0.850359      1.672452     -0.400359
  H      -1.371714     -2.560577      0.027610
  H      -3.592631     -1.391770     -0.259616
  H       1.419004      2.595832     -0.490579
  H       2.708396     -1.729666      0.099605
  H       1.270660     -2.667494      0.083665
26
Coordinates from ORCA-job methylurea_adenine_opt_freq E -731.524353355224
  O       4.472896     -2.095112      0.980878
  N       5.854037     -0.302872      1.271048
  N       3.704293     -0.321630      2.185040
  C       4.668908     -0.964664      1.456107
  H       6.053982      0.604845      1.656931
  H       6.563552     -0.775203      0.734532
  H       2.835213     -0.837312      2.191836
  C       3.564078      1.121721      2.286986
  H       3.345247      1.542714      1.301629
  H       2.722048      1.338466      2.948613
  H       4.444905      1.607149      2.720286
  N      -1.468277     -1.580604     -0.141914
  N      -2.485449      0.387469     -0.542017
  N      -0.473984      1.765307     -0.571461
  N       1.577101      0.544833     -0.192476
  N       1.658870     -1.763997      0.214331
  C      -0.460674     -0.627906     -0.199523
  C      -1.120082      0.589827     -0.449035
  C       0.942331     -0.635313     -0.067498
  C      -2.645548     -0.900894     -0.355444
  C       0.843049      1.652124     -0.434533
  H      -1.382811     -2.571253      0.028182
  H      -3.597312     -1.416701     -0.360900
  H       1.414694      2.572465     -0.536718
  H       2.676709     -1.768435      0.224107
  H       1.220656     -2.669069      0.159952
26
Coordinates from ORCA-job methylurea_adenine_opt_freq E -731.525831844651
  O       4.468419     -2.007679      0.859141
  N       5.856065     -0.236016      1.203488
  N       3.781344     -0.339155      2.266976
  C       4.685515     -0.912335      1.405416
  H       6.090355      0.623457      1.672347
  H       6.531079     -0.655607      0.584389
  H       2.906319     -0.847458      2.265816
  C       3.630255      1.108032      2.381171
  H       3.403684      1.537013      1.401277
  H       2.801442      1.322918      3.058853
  H       4.522157      1.587427      2.798685
  N      -1.510556     -1.580168     -0.161008
  N      -2.494949      0.388138     -0.634308
  N      -0.466157      1.742363     -0.641311
  N       1.560683      0.508524     -0.176729
  N       1.592417     -1.790509      0.302311
  C      -0.491246     -0.639649     -0.214540
  C      -1.130166      0.577396     -0.509956
  C       0.907932     -0.660147     -0.038592
  C      -2.674119     -0.893731     -0.421662
  C       0.844954      1.616330     -0.466111
  H      -1.440019     -2.566644      0.037621
  H      -3.631073     -1.399569     -0.440765
  H       1.432564      2.525763     -0.576989
  H       2.616371     -1.827303      0.325756
  H       1.135166     -2.685442      0.227660
26
Coordinates from ORCA-job methylurea_adenine_opt_freq E -731.526330987782
  O       4.379358     -1.973479      0.833361
  N       5.814835     -0.236253      1.133747
  N       3.809613     -0.335809      2.334081
  C       4.651531     -0.900161      1.398720
  H       6.104185      0.593772      1.623657
  H       6.438705     -0.648700      0.458877
  H       2.925583     -0.828549      2.348636
  C       3.665472      1.119365      2.447232
  H       3.437317      1.556464      1.468955
  H       2.844011      1.336029      3.132634
  H       4.565520      1.587658      2.860725
  N      -1.511517     -1.588475     -0.168002
  N      -2.489594      0.372906     -0.684164
  N      -0.459577      1.728025     -0.681298
  N       1.559428      0.501650     -0.163380
  N       1.595122     -1.781859      0.340187
  C      -0.491941     -0.647649     -0.220177
  C      -1.126444      0.564629     -0.542843
  C       0.905165     -0.663150     -0.023237
  C      -2.671351     -0.905954     -0.454999
  C       0.847739      1.605580     -0.480693
  H      -1.444107     -2.571569      0.047467
  H      -3.627929     -1.412262     -0.481038
  H       1.437747      2.514015     -0.588245
  H       2.623382     -1.810687      0.322990
  H       1.146178     -2.679588      0.245743
26
Coordinates from ORCA-job methylurea_adenine_opt_freq E -731.526900324450
  O       4.450428     -1.970449      0.838745
  N       5.837246     -0.192714      1.104590
  N       3.862061     -0.345212      2.354673
  C       4.701309     -0.889367      1.397774
  H       6.125153      0.632083      1.604370
  H       6.459080     -0.593112      0.420642
  H       2.990365     -0.859510      2.383703
  C       3.691403      1.112137      2.482112
  H       3.447309      1.562476      1.513007
  H       2.878140      1.307398      3.183333
  H       4.593648      1.578677      2.892631
  N      -1.552136     -1.583554     -0.174803
  N      -2.504410      0.378553     -0.736059
  N      -0.462186      1.716433     -0.721057
  N       1.536769      0.480132     -0.152630
  N       1.555326     -1.790488      0.380883
  C      -0.523420     -0.652663     -0.226645
  C      -1.141628      0.560599     -0.576333
  C       0.870512     -0.676344     -0.009290
  C      -2.701122     -0.894940     -0.489550
  C       0.840237      1.586371     -0.496122
  H      -1.497990     -2.563295      0.058907
  H      -3.662012     -1.392664     -0.522080
  H       1.440796      2.487963     -0.603191
  H       2.584161     -1.814021      0.332325
  H       1.109394     -2.688538      0.269003
26
Coordinates from ORCA-job methylurea_adenine_opt_freq E -731.527275448905
  O       4.446304     -1.944950      0.820152
  N       5.829732     -0.157648      1.053563
  N       3.905442     -0.343533      2.375968
  C       4.711323     -0.869306      1.380503
  H       6.141176      0.648717      1.569744
  H       6.436314     -0.555345      0.354502
  H       3.039039     -0.867666      2.425240
  C       3.725632      1.108452      2.526264
  H       3.466303      1.573044      1.567888
  H       2.921306      1.283794      3.242825
  H       4.631598      1.570444      2.934143
  N      -1.574292     -1.583182     -0.185972
  N      -2.505203      0.376273     -0.790683
  N      -0.458190      1.704652     -0.754837
  N       1.522766      0.466374     -0.134377
  N       1.525038     -1.802904      0.428862
  C      -0.539455     -0.658937     -0.231891
  C      -1.144671      0.553668     -0.608058
  C       0.849732     -0.687634      0.008976
  C      -2.713385     -0.892634     -0.530860
  C       0.838892      1.572771     -0.503616
  H      -1.530862     -2.559384      0.064365
  H      -3.676525     -1.385191     -0.573604
  H       1.445670      2.469866     -0.611404
  H       2.549437     -1.821979      0.384664
  H       1.085312     -2.701810      0.296580
26
Coordinates from ORCA-job methylurea_adenine_opt_freq E -731.527685289270
  O       4.432500     -1.931469      0.823857
  N       5.806674     -0.122182      0.977347
  N       3.957318     -0.332799      2.395916
  C       4.715259     -0.850962      1.362034
  H       6.153537      0.662543      1.504763
  H       6.400133     -0.537382      0.276792
  H       3.104621     -0.872703      2.490745
  C       3.776681      1.110905      2.583073
  H       3.491696      1.599460      1.643768
  H       2.987451      1.258865      3.322430
  H       4.689032      1.565698      2.986256
  N      -1.598453     -1.586268     -0.204714
  N      -2.506476      0.367268     -0.861366
  N      -0.457546      1.688667     -0.794527
  N       1.501551      0.454204     -0.105012
  N       1.489834     -1.808802      0.486022
  C      -0.559368     -0.666697     -0.236784
  C      -1.150260      0.542765     -0.647837
  C       0.822163     -0.696251      0.035064
  C      -2.726022     -0.896574     -0.587476
  C       0.832503      1.558307     -0.507362
  H      -1.566482     -2.557495      0.065885
  H      -3.690156     -1.385640     -0.645406
  H       1.443803      2.452474     -0.610770
  H       2.510486     -1.808987      0.435594
  H       1.067955     -2.710992      0.320645
26
Coordinates from ORCA-job methylurea_adenine_opt_freq E -731.527959381019
  O       4.402960     -1.909962      0.814119
  N       5.768553     -0.084197      0.904896
  N       3.997062     -0.322971      2.411173
  C       4.710437     -0.834042      1.346193
  H       6.154120      0.672643      1.446677
  H       6.348100     -0.511513      0.199322
  H       3.157737     -0.873742      2.549321
  C       3.829715      1.112980      2.635694
  H       3.522612      1.624261      1.715800
  H       3.055301      1.243905      3.393998
  H       4.749469      1.559893      3.031606
  N      -1.615667     -1.589537     -0.222571
  N      -2.501096      0.357645     -0.926994
  N      -0.450397      1.672733     -0.827229
  N       1.487207      0.441869     -0.074680
  N       1.455318     -1.818130      0.535371
  C      -0.573183     -0.673905     -0.240119
  C      -1.150189      0.532174     -0.681820
  C       0.800962     -0.704950      0.060659
  C      -2.731451     -0.901624     -0.641558
  C       0.832434      1.542778     -0.506491
  H      -1.594353     -2.555491      0.067433
  H      -3.695669     -1.388353     -0.715609
  H       1.447751      2.434556     -0.605146
  H       2.476227     -1.810092      0.492917
  H       1.044474     -2.720974      0.345974
26
Coordinates from ORCA-job methylurea_adenine_opt_freq E -731.528204968705
  O       4.371402     -1.897837      0.816418
  N       5.729336     -0.059983      0.840011
  N       4.024849     -0.306194      2.418634
  C       4.691088     -0.814488      1.326181
  H       6.159737      0.659794      1.399397
  H       6.302290     -0.514101      0.144966
  H       3.200767     -0.863736      2.606120
  C       3.884872      1.123019      2.681705
  H       3.555753      1.659357      1.783970
  H       3.128042      1.245101      3.459361
  H       4.815134      1.558746      3.065662
  N      -1.626956     -1.596861     -0.242910
  N      -2.499339      0.343681     -0.981361
  N      -0.450949      1.660211     -0.849894
  N       1.471535      0.437303     -0.046109
  N       1.428170     -1.822697      0.565778
  C      -0.585426     -0.680135     -0.244414
  C      -1.154075      0.521686     -0.709017
  C       0.782976     -0.708825      0.080089
  C      -2.734602     -0.913375     -0.689986
  C       0.825084      1.533689     -0.499813
  H      -1.611577     -2.558053      0.062955
  H      -3.696750     -1.401672     -0.779163
  H       1.440200      2.426475     -0.590700
  H       2.451190     -1.809719      0.532979
  H       1.025683     -2.725434      0.358077
26
Coordinates from ORCA-job methylurea_adenine_opt_freq E -731.528403605902
  O       4.340750     -1.886905      0.815164
  N       5.693586     -0.043923      0.799439
  N       4.033794     -0.294294      2.424771
  C       4.673860     -0.804406      1.320267
  H       6.157900      0.647881      1.368677
  H       6.255773     -0.509629      0.102261
  H       3.218265     -0.849991      2.647344
  C       3.925968      1.132866      2.710537
  H       3.585699      1.687034      1.828055
  H       3.183642      1.261414      3.501323
  H       4.867829      1.554957      3.080497
  N      -1.630515     -1.603866     -0.260922
  N      -2.495515      0.334509     -1.013727
  N      -0.448536      1.652893     -0.857941
  N       1.464628      0.432802     -0.025488
  N       1.412231     -1.829330      0.576909
  C      -0.590709     -0.685153     -0.248605
  C      -1.154087      0.514517     -0.723950
  C       0.774697     -0.713392      0.091483
  C      -2.733228     -0.922296     -0.722728
  C       0.822542      1.526987     -0.489509
  H      -1.618494     -2.562182      0.053978
  H      -3.693524     -1.412056     -0.823053
  H       1.437369      2.420893     -0.572785
  H       2.437792     -1.823454      0.560722
  H       1.006716     -2.729923      0.366218
26
Coordinates from ORCA-job methylurea_adenine_opt_freq E -731.528561361142
  O       4.325788     -1.890267      0.827591
  N       5.678989     -0.048931      0.789663
  N       4.025673     -0.282538      2.425215
  C       4.659933     -0.803147      1.324262
  H       6.157705      0.634144      1.358621
  H       6.234946     -0.521896      0.091943
  H       3.210524     -0.828278      2.669592
  C       3.949620      1.146092      2.717390
  H       3.606864      1.711514      1.842955
  H       3.220623      1.291087      3.517723
  H       4.904655      1.551077      3.071492
  N      -1.629066     -1.611384     -0.276184
  N      -2.497255      0.329055     -1.019925
  N      -0.453857      1.653414     -0.847296
  N       1.460395      0.432725     -0.015506
  N       1.410575     -1.833536      0.564014
  C      -0.592743     -0.688568     -0.253369
  C      -1.157676      0.511676     -0.722796
  C       0.773018     -0.716123      0.091021
  C      -2.732187     -0.930341     -0.737587
  C       0.815665      1.527561     -0.474643
  H      -1.615808     -2.569620      0.038817
  H      -3.690328     -1.422766     -0.845071
  H       1.428353      2.423876     -0.549536
  H       2.437434     -1.837255      0.559977
  H       0.996595     -2.731620      0.360573
26
Coordinates from ORCA-job methylurea_adenine_opt_freq E -731.528699367506
  O       4.315663     -1.893641      0.843657
  N       5.673041     -0.057678      0.788789
  N       4.018248     -0.268599      2.425336
  C       4.651172     -0.802548      1.331657
  H       6.158665      0.626103      1.350768
  H       6.222760     -0.537470      0.091155
  H       3.199924     -0.801580      2.684728
  C       3.972570      1.161215      2.719621
  H       3.628373      1.737113      1.852267
  H       3.260881      1.322374      3.532192
  H       4.943146      1.544410      3.055002
  N      -1.630194     -1.619819     -0.295336
  N      -2.501919      0.325776     -1.021140
  N      -0.462085      1.654445     -0.831614
  N       1.453651      0.430193     -0.006831
  N       1.408735     -1.839791      0.549885
  C      -0.596915     -0.693532     -0.260007
  C      -1.163326      0.508881     -0.719342
  C       0.768995     -0.721526      0.088136
  C      -2.734292     -0.936898     -0.751623
  C       0.806457      1.527596     -0.457342
  H      -1.616385     -2.579250      0.015908
  H      -3.690878     -1.430731     -0.866309
  H       1.417814      2.425676     -0.522601
  H       2.435632     -1.848255      0.557869
  H       0.988702     -2.736510      0.354111
26
Coordinates from ORCA-job methylurea_adenine_opt_freq E -731.528857834896
  O       4.297690     -1.891315      0.863740
  N       5.670627     -0.069727      0.788033
  N       4.014350     -0.245167      2.426315
  C       4.641516     -0.797455      1.339893
  H       6.164250      0.619045      1.336164
  H       6.210404     -0.562345      0.091885
  H       3.188941     -0.759444      2.699491
  C       4.009024      1.184316      2.724625
  H       3.660976      1.775455      1.868654
  H       3.326408      1.362502      3.557976
  H       5.001229      1.534306      3.032219
  N      -1.636007     -1.632149     -0.325088
  N      -2.509374      0.321381     -1.027095
  N      -0.474939      1.653761     -0.808545
  N       1.440394      0.422859      0.007795
  N       1.400753     -1.851630      0.537162
  C      -0.605835     -0.702833     -0.270435
  C      -1.172838      0.503829     -0.715192
  C       0.758713     -0.732319      0.085638
  C      -2.739854     -0.945468     -0.776561
  C       0.792029      1.524812     -0.430850
  H      -1.623522     -2.593754     -0.020615
  H      -3.694473     -1.440048     -0.903834
  H       1.402594      2.424385     -0.481684
  H       2.426870     -1.859082      0.563387
  H       0.978508     -2.747964      0.345856
26
Coordinates from ORCA-job methylurea_adenine_opt_freq E -731.529046840058
  O       4.269969     -1.880055      0.884998
  N       5.674247     -0.085369      0.788030
  N       4.015283     -0.211921      2.428022
  C       4.631868     -0.786582      1.347851
  H       6.175656      0.613279      1.315222
  H       6.200952     -0.596658      0.095605
  H       3.176863     -0.701761      2.706619
  C       4.057328      1.215142      2.732373
  H       3.702946      1.824858      1.891772
  H       3.413937      1.407587      3.592933
  H       5.072907      1.524362      3.006280
  N      -1.646349     -1.647452     -0.363838
  N      -2.519102      0.316746     -1.036264
  N      -0.490616      1.650081     -0.779507
  N       1.421388      0.409576      0.028936
  N       1.384971     -1.870147      0.528608
  C      -0.619029     -0.716512     -0.283436
  C      -1.185067      0.496311     -0.711389
  C       0.742152     -0.748816      0.084987
  C      -2.748606     -0.954802     -0.810400
  C       0.774109      1.517713     -0.395725
  H      -1.636906     -2.612560     -0.070542
  H      -3.701136     -1.448843     -0.954435
  H       1.384396      2.418291     -0.427857
  H       2.409596     -1.869416      0.577109
  H       0.966677     -2.767100      0.332985
26
Coordinates from ORCA-job methylurea_adenine_opt_freq E -731.529245229704
  O       4.235990     -1.860632      0.905053
  N       5.685443     -0.104915      0.790743
  N       4.019835     -0.171728      2.429100
  C       4.623698     -0.771062      1.354911
  H       6.191948      0.608204      1.291909
  H       6.199110     -0.638636      0.105692
  H       3.161369     -0.632212      2.698080
  C       4.111885      1.250737      2.740438
  H       3.749548      1.879900      1.917661
  H       3.512173      1.452420      3.629766
  H       5.147401      1.519797      2.980491
  N      -1.660134     -1.663224     -0.404769
  N      -2.529463      0.312285     -1.047988
  N      -0.507011      1.643556     -0.746052
  N       1.399147      0.391206      0.055305
  N       1.362685     -1.894468      0.523843
  C      -0.634856     -0.732903     -0.296473
  C      -1.198821      0.487530     -0.706543
  C       0.721455     -0.769410      0.086579
  C      -2.759239     -0.963498     -0.848255
  C       0.755009      1.506409     -0.354026
  H      -1.654471     -2.632861     -0.126624
  H      -3.709522     -1.455885     -1.011600
  H       1.364960      2.407629     -0.364827
  H       2.385380     -1.879985      0.594634
  H       0.954917     -2.792303      0.311886
26
Coordinates from ORCA-job methylurea_adenine_opt_freq E -731.529418091886
  O       4.202525     -1.836555      0.921050
  N       5.702822     -0.126417      0.797849
  N       4.025670     -0.130419      2.428907
  C       4.618362     -0.753698      1.361124
  H       6.211185      0.602069      1.273433
  H       6.206752     -0.681787      0.123056
  H       3.142209     -0.558082      2.672422
  C       4.166048      1.285882      2.746551
  H       3.795796      1.933066      1.941655
  H       3.606740      1.493173      3.660802
  H       5.215330      1.523525      2.957684
  N      -1.675437     -1.677358     -0.441895
  N      -2.539802      0.308798     -1.058559
  N      -0.521810      1.635132     -0.712729
  N       1.376773      0.370209      0.084052
  N       1.336950     -1.921397      0.521372
  C      -0.651525     -0.749402     -0.307280
  C      -1.212426      0.478594     -0.701779
  C       0.699517     -0.791077      0.090451
  C      -2.770448     -0.970533     -0.884063
  C       0.736977      1.492227     -0.310699
  H      -1.672587     -2.651974     -0.181566
  H      -3.718665     -1.460505     -1.065685
  H       1.345981      2.394019     -0.299891
  H       2.357892     -1.892722      0.610020
  H       0.943603     -2.818816      0.282656
26
Coordinates from ORCA-job methylurea_adenine_opt_freq E -731.529518584872
  O       4.178358     -1.816115      0.930446
  N       5.718579     -0.143568      0.805263
  N       4.030635     -0.098288      2.427851
  C       4.615834     -0.739712      1.365555
  H       6.228688      0.593235      1.265564
  H       6.217644     -0.713797      0.139487
  H       3.126696     -0.497097      2.645091
  C       4.209751      1.311841      2.750399
  H       3.833398      1.973693      1.960430
  H       3.678636      1.523707      3.680794
  H       5.266687      1.530546      2.941003
  N      -1.688750     -1.687499     -0.467505
  N      -2.547704      0.305354     -1.069871
  N      -0.533136      1.627616     -0.688260
  N       1.358372      0.353196      0.109034
  N       1.315160     -1.942507      0.519760
  C      -0.665874     -0.761792     -0.314202
  C      -1.223876      0.471388     -0.698801
  C       0.681245     -0.807712      0.095129
  C      -2.779781     -0.975897     -0.911389
  C       0.722111      1.479959     -0.275889
  H      -1.686624     -2.665842     -0.221524
  H      -3.726183     -1.464062     -1.106788
  H       1.329386      2.382558     -0.247706
  H       2.335279     -1.905261      0.619752
  H       0.933901     -2.837993      0.255314
26
Coordinates from ORCA-job methylurea_adenine_opt_freq E -731.529569852137
  O       4.165649     -1.804925      0.937212
  N       5.733382     -0.159152      0.814550
  N       4.032504     -0.076485      2.424510
  C       4.616360     -0.732695      1.369682
  H       6.244947      0.580075      1.269291
  H       6.232033     -0.738892      0.156913
  H       3.114993     -0.453317      2.623117
  C       4.238180      1.329021      2.749023
  H       3.858494      2.001082      1.969125
  H       3.722861      1.545979      3.687555
  H       5.299218      1.537139      2.925839
  N      -1.697572     -1.694261     -0.483498
  N      -2.555376      0.302398     -1.074577
  N      -0.543813      1.623670     -0.670273
  N       1.344435      0.344265      0.126878
  N       1.302257     -1.954401      0.514906
  C      -0.676469     -0.768965     -0.318106
  C      -1.233710      0.466839     -0.695786
  C       0.668704     -0.816862      0.098010
  C      -2.786591     -0.980610     -0.928619
  C       0.708820      1.473683     -0.250843
  H      -1.693308     -2.675417     -0.249056
  H      -3.731366     -1.468395     -1.132592
  H       1.313437      2.377650     -0.210096
  H       2.322030     -1.913546      0.622351
  H       0.928335     -2.847925      0.233418
26
Coordinates from ORCA-job methylurea_adenine_opt_freq E -731.529612045793
  O       4.157493     -1.797933      0.943688
  N       5.753494     -0.180028      0.829933
  N       4.032133     -0.056256      2.417113
  C       4.619620     -0.729734      1.374560
  H       6.266692      0.558481      1.283952
  H       6.254310     -0.769774      0.183184
  H       3.102362     -0.410850      2.598207
  C       4.260662      1.345276      2.741544
  H       3.879355      2.026074      1.969617
  H       3.756588      1.568603      3.685049
  H       5.325028      1.544388      2.905381
  N      -1.704365     -1.700663     -0.497789
  N      -2.564984      0.298541     -1.075640
  N      -0.558793      1.622223     -0.649487
  N       1.329858      0.340405      0.143441
  N       1.294214     -1.961541      0.504956
  C      -0.686466     -0.774040     -0.321183
  C      -1.245764      0.463479     -0.689370
  C       0.657745     -0.822180      0.099300
  C      -2.793554     -0.986277     -0.940991
  C       0.691968      1.471692     -0.225353
  H      -1.694877     -2.685002     -0.277349
  H      -3.736199     -1.474956     -1.152464
  H       1.292599      2.377743     -0.172323
  H       2.313440     -1.918351      0.620210
  H       0.925873     -2.853368      0.210751
26
Coordinates from ORCA-job methylurea_adenine_opt_freq E -731.529661000721
  O       4.149919     -1.791013      0.949547
  N       5.783502     -0.210906      0.855225
  N       4.030301     -0.031950      2.403268
  C       4.625819     -0.728732      1.380201
  H       6.299747      0.523648      1.312053
  H       6.287811     -0.815407      0.225297
  H       3.086403     -0.358784      2.562087
  C       4.282870      1.365539      2.726054
  H       3.901495      2.055060      1.961236
  H       3.789826      1.596970      3.673700
  H       5.350992      1.553349      2.874442
  N      -1.710587     -1.708456     -0.515035
  N      -2.579600      0.293473     -1.069847
  N      -0.581741      1.622382     -0.619417
  N       1.310999      0.339901      0.163427
  N       1.288287     -1.966149      0.489762
  C      -0.697975     -0.778828     -0.324325
  C      -1.262466      0.460131     -0.677960
  C       0.645456     -0.825611      0.100150
  C      -2.801416     -0.994498     -0.954626
  C       0.667711      1.472799     -0.192110
  H      -1.692482     -2.696939     -0.314731
  H      -3.740780     -1.485332     -1.175436
  H       1.262468      2.381726     -0.123514
  H       2.306363     -1.919873      0.614849
  H       0.925509     -2.856549      0.184638
26
Coordinates from ORCA-job methylurea_adenine_opt_freq E -731.529766894415
  O       4.136335     -1.776210      0.954842
  N       5.841842     -0.273502      0.912151
  N       4.024621      0.014579      2.369900
  C       4.637635     -0.727222      1.389009
  H       6.364344      0.451364      1.376852
  H       6.351274     -0.909825      0.319117
  H       3.056638     -0.259759      2.479277
  C       4.317991      1.404830      2.689503
  H       3.939208      2.107916      1.934488
  H       3.844263      1.650085      3.643811
  H       5.392227      1.570389      2.811035
  N      -1.718982     -1.722528     -0.548288
  N      -2.606953      0.283705     -1.054513
  N      -0.627198      1.622825     -0.556240
  N       1.276420      0.340392      0.200974
  N       1.281740     -1.972027      0.458689
  C      -0.717339     -0.787099     -0.329427
  C      -1.294143      0.454249     -0.650908
  C       0.624785     -0.830531      0.101037
  C      -2.815439     -1.009246     -0.974451
  C       0.621028      1.475673     -0.126025
  H      -1.683373     -2.718078     -0.390055
  H      -3.748335     -1.504131     -1.212851
  H       1.204433      2.389230     -0.027400
  H       2.296880     -1.918875      0.601282
  H       0.928532     -2.860253      0.137128
26
Coordinates from ORCA-job methylurea_adenine_opt_freq E -731.530027323808
  O       4.136157     -1.760294      0.945784
  N       5.933998     -0.372614      1.021177
  N       4.016262      0.073403      2.303433
  C       4.664561     -0.732969      1.398322
  H       6.459044      0.328824      1.517442
  H       6.454186     -1.055866      0.493661
  H       3.023908     -0.129584      2.325209
  C       4.348660      1.457388      2.615521
  H       3.977950      2.170169      1.863670
  H       3.885476      1.720235      3.570618
  H       5.426898      1.605636      2.707051
  N      -1.726327     -1.738386     -0.587754
  N      -2.650379      0.269612     -1.015044
  N      -0.698753      1.625426     -0.456058
  N       1.228895      0.349429      0.252509
  N       1.283460     -1.968112      0.405354
  C      -0.742149     -0.793398     -0.331936
  C      -1.342271      0.448010     -0.601149
  C       0.600191     -0.828929      0.100512
  C      -2.834988     -1.029252     -0.988193
  C       0.550359      1.484851     -0.028860
  H      -1.659642     -2.740774     -0.498353
  H      -3.758211     -1.531074     -1.248605
  H       1.115744      2.404304      0.111437
  H       2.294701     -1.906204      0.565799
  H       0.940705     -2.853878      0.067389
26
Coordinates from ORCA-job methylurea_adenine_opt_freq E -731.530251221708
  O       4.124755     -1.743487      0.934721
  N       5.974835     -0.433700      1.089084
  N       4.009601      0.116650      2.255392
  C       4.671457     -0.731678      1.400268
  H       6.502090      0.247478      1.610566
  H       6.494811     -1.148718      0.605415
  H       3.007682     -0.041629      2.223895
  C       4.372910      1.493615      2.568081
  H       4.006003      2.216122      1.822052
  H       3.920610      1.767685      3.525396
  H       5.454157      1.625747      2.638341
  N      -1.727950     -1.748341     -0.614518
  N      -2.673388      0.259960     -0.990179
  N      -0.738891      1.622602     -0.389473
  N       1.202729      0.349329      0.287579
  N       1.288152     -1.966818      0.370521
  C      -0.754680     -0.799037     -0.333053
  C      -1.368537      0.441680     -0.568297
  C       0.587673     -0.830842      0.100928
  C      -2.843964     -1.041156     -0.997622
  C       0.510301      1.484496      0.036729
  H      -1.642717     -2.752212     -0.568458
  H      -3.761217     -1.545901     -1.273005
  H       1.064175      2.406003      0.206646
  H       2.296332     -1.900906      0.544751
  H       0.951505     -2.850990      0.023177
26
Coordinates from ORCA-job methylurea_adenine_opt_freq E -731.530557398600
  O       4.133925     -1.733817      0.919902
  N       6.019212     -0.492921      1.175999
  N       4.003748      0.152499      2.201304
  C       4.687438     -0.734987      1.404887
  H       6.535896      0.174067      1.725538
  H       6.543928     -1.234333      0.739788
  H       2.999079      0.032335      2.103282
  C       4.387616      1.525586      2.511123
  H       4.025257      2.252985      1.766635
  H       3.939637      1.809606      3.467847
  H       5.469964      1.650148      2.563884
  N      -1.731461     -1.754663     -0.635197
  N      -2.698676      0.253022     -0.954390
  N      -0.777970      1.620073     -0.320266
  N       1.179468      0.349479      0.316326
  N       1.294969     -1.963623      0.327798
  C      -0.767225     -0.802442     -0.332489
  C      -1.395085      0.437003     -0.530627
  C       0.576932     -0.831440      0.097197
  C      -2.855729     -1.049197     -0.996736
  C       0.473006      1.483959      0.099443
  H      -1.627520     -2.757790     -0.634991
  H      -3.768461     -1.555819     -1.283387
  H       1.016737      2.406256      0.295972
  H       2.301059     -1.894542      0.509034
  H       0.962687     -2.845492     -0.028941
26
Coordinates from ORCA-job methylurea_adenine_opt_freq E -731.530938578323
  O       4.128485     -1.722281      0.904654
  N       6.043591     -0.553181      1.260015
  N       3.994067      0.192783      2.140827
  C       4.690482     -0.736442      1.406696
  H       6.549375      0.097282      1.838858
  H       6.565993     -1.323318      0.873853
  H       2.991263      0.107933      1.985194
  C       4.402699      1.559206      2.452684
  H       4.043298      2.293880      1.713178
  H       3.961525      1.852678      3.410036
  H       5.486365      1.673441      2.486125
  N      -1.728611     -1.760719     -0.655642
  N      -2.718682      0.244547     -0.914426
  N      -0.811255      1.614838     -0.247279
  N       1.163090      0.348037      0.344169
  N       1.309861     -1.958267      0.280057
  C      -0.773613     -0.806166     -0.331022
  C      -1.415963      0.430732     -0.489865
  C       0.573025     -0.832083      0.092157
  C      -2.861905     -1.057645     -0.993048
  C       0.442171      1.480680      0.164047
  H      -1.606399     -2.760755     -0.700826
  H      -3.770258     -1.565854     -1.290530
  H       0.975522      2.402777      0.388168
  H       2.313092     -1.887364      0.473444
  H       0.981215     -2.838788     -0.082591
26
Coordinates from ORCA-job methylurea_adenine_opt_freq E -731.531385583020
  O       4.140420     -1.717191      0.886548
  N       6.065226     -0.607138      1.359190
  N       3.985712      0.225536      2.076254
  C       4.699239     -0.741080      1.411161
  H       6.548396      0.031683      1.969571
  H       6.588713     -1.399905      1.023943
  H       2.990816      0.168902      1.857233
  C       4.412008      1.587877      2.387193
  H       4.055603      2.326564      1.649689
  H       3.974866      1.890454      3.343875
  H       5.496341      1.695312      2.402576
  N      -1.727077     -1.763741     -0.672403
  N      -2.739689      0.237752     -0.865227
  N      -0.842113      1.609026     -0.172061
  N       1.150312      0.346497      0.365623
  N       1.325998     -1.950967      0.224731
  C      -0.779436     -0.808190     -0.329033
  C      -1.435986      0.425273     -0.445199
  C       0.571160     -0.831877      0.082633
  C      -2.870148     -1.063063     -0.980848
  C       0.415311      1.476541      0.225593
  H      -1.587754     -2.758291     -0.764629
  H      -3.775578     -1.571876     -1.286046
  H       0.940101      2.397116      0.474904
  H       2.327609     -1.879197      0.425358
  H       0.998380     -2.830064     -0.141693
26
Coordinates from ORCA-job methylurea_adenine_opt_freq E -731.531944392252
  O       4.211186     -1.701656      0.812784
  N       6.102294     -0.629977      1.475199
  N       3.984851      0.236690      2.002479
  C       4.735264     -0.740678      1.398620
  H       6.528426     -0.031060      2.164299
  H       6.639792     -1.429550      1.180510
  H       3.006482      0.194151      1.714805
  C       4.408260      1.597972      2.321192
  H       4.055569      2.331611      1.577657
  H       3.963689      1.905474      3.273081
  H       5.493318      1.706376      2.322624
  N      -1.733463     -1.761400     -0.677455
  N      -2.761082      0.236676     -0.817476
  N      -0.868324      1.607398     -0.110813
  N       1.135560      0.349109      0.386395
  N       1.327723     -1.949418      0.179394
  C      -0.789609     -0.807032     -0.320584
  C      -1.455525      0.424018     -0.403021
  C       0.564462     -0.832264      0.079658
  C      -2.883906     -1.062000     -0.960837
  C       0.392613      1.477648      0.273125
  H      -1.583027     -2.750254     -0.807241
  H      -3.788287     -1.569993     -1.270451
  H       0.915204      2.397397      0.529990
  H       2.333416     -1.877178      0.372246
  H       0.993549     -2.826108     -0.187246
26
Coordinates from ORCA-job methylurea_adenine_opt_freq E -731.532706734946
  O       4.200419     -1.685909      0.787878
  N       6.086827     -0.667877      1.547554
  N       3.975085      0.280177      1.929558
  C       4.722394     -0.732475      1.388820
  H       6.481184     -0.095601      2.277770
  H       6.606781     -1.496039      1.303911
  H       3.005933      0.261299      1.600567
  C       4.425246      1.629360      2.266438
  H       4.073263      2.375627      1.536331
  H       3.993414      1.939274      3.223521
  H       5.511929      1.717713      2.247407
  N      -1.724250     -1.765217     -0.691963
  N      -2.766395      0.228485     -0.777174
  N      -0.880773      1.595181     -0.044035
  N       1.132478      0.338711      0.412722
  N       1.345715     -1.949182      0.136850
  C      -0.785749     -0.813475     -0.314559
  C      -1.460665      0.414544     -0.362393
  C       0.570657     -0.839464      0.077268
  C      -2.881056     -1.067012     -0.952184
  C       0.382299      1.465158      0.331459
  H      -1.565206     -2.748024     -0.853846
  H      -3.783173     -1.573345     -1.270966
  H       0.899236      2.381278      0.611568
  H       2.350199     -1.873452      0.331244
  H       1.012640     -2.823784     -0.234809
26
Coordinates from ORCA-job methylurea_adenine_opt_freq E -731.533447243423
  O       4.097483     -1.623202      0.693874
  N       6.003140     -0.659239      1.513622
  N       3.918045      0.345962      1.830610
  C       4.635809     -0.682300      1.305888
  H       6.361478     -0.174751      2.325362
  H       6.466009     -1.528509      1.289538
  H       2.933522      0.334739      1.538394
  C       4.412247      1.643573      2.273110
  H       4.066387      2.416123      1.580587
  H       4.011397      1.926420      3.250957
  H       5.504584      1.665434      2.249545
  N      -1.671116     -1.769325     -0.680610
  N      -2.715865      0.223388     -0.761701
  N      -0.833587      1.592169     -0.030064
  N       1.162591      0.335938      0.433428
  N       1.378816     -1.979905      0.158288
  C      -0.732745     -0.823629     -0.291984
  C      -1.409819      0.410567     -0.341283
  C       0.621552     -0.857016      0.097717
  C      -2.828775     -1.071127     -0.939678
  C       0.431654      1.465648      0.343965
  H      -1.535052     -2.761418     -0.804056
  H      -3.729351     -1.577631     -1.262758
  H       0.954567      2.381173      0.612932
  H       2.382445     -1.884398      0.335456
  H       1.043016     -2.852730     -0.212202
26
Coordinates from ORCA-job methylurea_adenine_opt_freq E -731.535009156039
  O       4.152627     -1.655102      0.684029
  N       5.956784     -0.760619      1.764513
  N       3.910670      0.382787      1.684039
  C       4.639215     -0.715352      1.340245
  H       6.227692     -0.237310      2.584368
  H       6.414369     -1.651250      1.635763
  H       2.976112      0.392511      1.242425
  C       4.417208      1.686793      2.111038
  H       4.070849      2.461062      1.413238
  H       4.026409      1.974967      3.092923
  H       5.505667      1.725524      2.062125
  N      -1.655279     -1.760344     -0.709468
  N      -2.750237      0.204334     -0.604950
  N      -0.874027      1.564282      0.154397
  N       1.172191      0.330440      0.437691
  N       1.440085     -1.935893      0.011539
  C      -0.724180     -0.817290     -0.296528
  C      -1.432875      0.396446     -0.228132
  C       0.645133     -0.841137      0.044632
  C      -2.836512     -1.074993     -0.881032
  C       0.409276      1.441873      0.466815
  H      -1.490165     -2.727158     -0.944912
  H      -3.736761     -1.581188     -1.205456
  H       0.918922      2.346193      0.792911
  H       2.437953     -1.843475      0.213916
  H       1.107310     -2.810149     -0.357193
26
Coordinates from ORCA-job methylurea_adenine_opt_freq E -731.532980183298
  O       4.392935     -1.655494      0.691840
  N       6.132204     -0.668691      1.754138
  N       3.991694      0.333046      1.760293
  C       4.799328     -0.713593      1.390899
  H       6.388091     -0.197518      2.604152
  H       6.633963     -1.524313      1.576970
  H       3.057806      0.301105      1.341072
  C       4.467801      1.656644      2.144871
  H       4.099867      2.446072      1.459811
  H       4.119034      1.923495      3.149653
  H       5.554104      1.706218      2.096866
  N      -1.748876     -1.756824     -0.745537
  N      -2.826099      0.217302     -0.692847
  N      -0.947414      1.564973      0.078475
  N       1.102609      0.320201      0.424729
  N       1.327635     -1.945836      0.088299
  C      -0.818626     -0.813960     -0.327950
  C      -1.513491      0.402516     -0.300802
  C       0.544863     -0.842662      0.050650
  C      -2.918403     -1.064968     -0.954350
  C       0.329209      1.432482      0.419629
  H      -1.596789     -2.736132     -0.931622
  H      -3.816849     -1.567983     -1.288785
  H       0.835229      2.338942      0.746481
  H       2.343423     -1.842508      0.266279
  H       0.995183     -2.816564     -0.294279
26
Coordinates from ORCA-job methylurea_adenine_opt_freq E -731.536023294763
  O       4.225203     -1.661359      0.714722
  N       6.016309     -0.720330      1.761840
  N       3.943525      0.386078      1.687535
  C       4.689469     -0.706800      1.362843
  H       6.278577     -0.221420      2.599008
  H       6.463782     -1.616716      1.638709
  H       3.001795      0.377794      1.277234
  C       4.455333      1.682722      2.110695
  H       4.093847      2.476195      1.439851
  H       4.114311      1.946069      3.118872
  H       5.545003      1.707629      2.054553
  N      -1.687113     -1.761098     -0.736745
  N      -2.782648      0.202187     -0.633834
  N      -0.909361      1.558418      0.140012
  N       1.144572      0.327760      0.435603
  N       1.397721     -1.944035      0.036020
  C      -0.760249     -0.819712     -0.310622
  C      -1.467686      0.393320     -0.248804
  C       0.606137     -0.843745      0.045819
  C      -2.867321     -1.076984     -0.912531
  C       0.372639      1.436524      0.460239
  H      -1.531814     -2.735978     -0.944281
  H      -3.764684     -1.582258     -1.246389
  H       0.877265      2.343214      0.788265
  H       2.405577     -1.837754      0.218932
  H       1.068247     -2.813768     -0.348609
26
Coordinates from ORCA-job methylurea_adenine_opt_freq E -731.536511437923
  O       4.135993     -1.664075      0.723356
  N       5.938814     -0.769559      1.799131
  N       3.924705      0.425835      1.609502
  C       4.625879     -0.707620      1.352188
  H       6.191496     -0.266197      2.637249
  H       6.331926     -1.697097      1.724621
  H       2.984662      0.433358      1.197257
  C       4.460415      1.703188      2.054967
  H       4.095039      2.504257      1.400072
  H       4.142029      1.949249      3.075909
  H       5.550198      1.721641      1.987623
  N      -1.644737     -1.763113     -0.746138
  N      -2.768441      0.180231     -0.579782
  N      -0.907265      1.544469      0.210022
  N       1.166216      0.338631      0.448884
  N       1.448610     -1.919300      0.000232
  C      -0.727569     -0.820094     -0.304335
  C      -1.452500      0.381228     -0.203054
  C       0.640865     -0.832492      0.040183
  C      -2.836003     -1.091801     -0.894106
  C       0.380708      1.435265      0.510205
  H      -1.482064     -2.731967     -0.975034
  H      -3.728565     -1.601261     -1.234373
  H       0.877004      2.342715      0.848730
  H       2.451269     -1.808782      0.213716
  H       1.129748     -2.790758     -0.388091
26
Coordinates from ORCA-job methylurea_adenine_opt_freq E -731.536326308924
  O       4.215024     -1.733505      0.756181
  N       5.909838     -0.779314      1.946693
  N       3.917784      0.392813      1.523913
  C       4.640737     -0.745161      1.383865
  H       6.104199     -0.233153      2.773622
  H       6.316923     -1.703794      1.928359
  H       2.999825      0.375559      1.068760
  C       4.420150      1.678848      1.968007
  H       4.051471      2.463026      1.295516
  H       4.102788      1.917011      2.991545
  H       5.511508      1.719425      1.911917
  N      -1.625087     -1.744093     -0.751518
  N      -2.781677      0.165135     -0.462824
  N      -0.919197      1.540788      0.302253
  N       1.187684      0.375585      0.411181
  N       1.486925     -1.872296     -0.113134
  C      -0.710231     -0.798876     -0.309708
  C      -1.455894      0.381327     -0.131864
  C       0.670311     -0.796624     -0.015183
  C      -2.835427     -1.095355     -0.823146
  C       0.382701      1.451927      0.541712
  H      -1.457362     -2.701965     -1.019942
  H      -3.729777     -1.610832     -1.149434
  H       0.874660      2.360354      0.884139
  H       2.496254     -1.765221      0.082624
  H       1.154304     -2.745660     -0.484598
26
Coordinates from ORCA-job methylurea_adenine_opt_freq E -731.536863215678
  O       4.214832     -1.702340      0.750930
  N       5.965419     -0.755471      1.865677
  N       3.951930      0.417126      1.557242
  C       4.669546     -0.719040      1.367396
  H       6.204502     -0.219592      2.689132
  H       6.363353     -1.684422      1.821481
  H       3.013149      0.401729      1.135993
  C       4.485226      1.689071      2.018937
  H       4.101109      2.502905      1.399730
  H       4.236580      1.890845      3.070420
  H       5.577164      1.696026      1.940486
  N      -1.651128     -1.756567     -0.776081
  N      -2.805542      0.164578     -0.563349
  N      -0.958870      1.541042      0.238022
  N       1.137925      0.365124      0.437905
  N       1.429582     -1.895144     -0.013855
  C      -0.746432     -0.809018     -0.320835
  C      -1.489998      0.378919     -0.193269
  C       0.620860     -0.808947      0.022537
  C      -2.854417     -1.102717     -0.900683
  C       0.332889      1.446575      0.523822
  H      -1.489477     -2.728992     -0.990162
  H      -3.740205     -1.619241     -1.247940
  H       0.817215      2.356981      0.871678
  H       2.430309     -1.791098      0.218172
  H       1.112912     -2.762378     -0.414449
26
Coordinates from ORCA-job methylurea_adenine_opt_freq E -731.536887494400
  O       4.126135     -1.677920      0.735114
  N       5.951729     -0.789135      1.777838
  N       3.954487      0.433324      1.572345
  C       4.635211     -0.716689      1.342743
  H       6.219504     -0.284789      2.610685
  H       6.309194     -1.733509      1.732316
  H       2.999638      0.443220      1.192079
  C       4.493929      1.699370      2.040384
  H       4.102483      2.510226      1.421139
  H       4.228634      1.895464      3.089028
  H       5.583880      1.729556      1.959152
  N      -1.627223     -1.767292     -0.767777
  N      -2.788096      0.154971     -0.609226
  N      -0.958449      1.547110      0.206131
  N       1.137430      0.377243      0.475164
  N       1.442111     -1.882792      0.039079
  C      -0.734197     -0.810612     -0.308235
  C      -1.480416      0.377414     -0.217992
  C       0.625731     -0.800806      0.061585
  C      -2.827379     -1.116411     -0.932524
  C       0.325820      1.457866      0.524452
  H      -1.455395     -2.741563     -0.964447
  H      -3.705404     -1.639785     -1.289026
  H       0.800788      2.374310      0.869586
  H       2.432088     -1.787588      0.307996
  H       1.136197     -2.755233     -0.358654
26
Coordinates from ORCA-job methylurea_adenine_opt_freq E -731.537180790242
  O       4.127815     -1.693125      0.795130
  N       5.935956     -0.779333      1.840475
  N       3.958308      0.453248      1.543927
  C       4.629299     -0.711891      1.375676
  H       6.189274     -0.252504      2.663661
  H       6.286879     -1.726975      1.833305
  H       3.008144      0.463083      1.147935
  C       4.519259      1.713059      2.006999
  H       4.128297      2.540327      1.405809
  H       4.277015      1.912125      3.060123
  H       5.608455      1.709244      1.907831
  N      -1.637425     -1.765304     -0.781335
  N      -2.796501      0.152910     -0.574783
  N      -0.958778      1.531154      0.246461
  N       1.140142      0.356357      0.474566
  N       1.442288     -1.891651     -0.024258
  C      -0.739984     -0.817172     -0.311756
  C      -1.485116      0.368001     -0.191091
  C       0.626178     -0.813928      0.038857
  C      -2.840977     -1.113758     -0.915237
  C       0.327783      1.436065      0.552089
  H      -1.468803     -2.737552     -0.990991
  H      -3.722925     -1.630797     -1.271336
  H       0.805518      2.345116      0.913038
  H       2.444823     -1.796002      0.195542
  H       1.123510     -2.754742     -0.431702
26
Coordinates from ORCA-job methylurea_adenine_opt_freq E -731.537289744039
  O       4.179934     -1.708483      0.777951
  N       5.959677     -0.774599      1.856504
  N       3.964695      0.429051      1.546244
  C       4.658837     -0.723546      1.371892
  H       6.212296     -0.230718      2.670149
  H       6.342359     -1.710343      1.832023
  H       3.019512      0.422737      1.146081
  C       4.504703      1.696503      2.011335
  H       4.108762      2.514941      1.402396
  H       4.258587      1.888293      3.065119
  H       5.594508      1.713732      1.918997
  N      -1.643084     -1.760455     -0.779773
  N      -2.806052      0.156567     -0.580283
  N      -0.971326      1.540252      0.238071
  N       1.129834      0.371515      0.463609
  N       1.431890     -1.885011     -0.016642
  C      -0.746503     -0.808680     -0.316072
  C      -1.495168      0.375622     -0.197086
  C       0.619688     -0.802616      0.034198
  C      -2.848029     -1.111705     -0.915079
  C       0.316623      1.449170      0.540137
  H      -1.474513     -2.733895     -0.983725
  H      -3.729188     -1.632163     -1.268130
  H       0.793647      2.360621      0.895769
  H       2.432272     -1.790892      0.216393
  H       1.114473     -2.749945     -0.421141
26
Coordinates from ORCA-job methylurea_adenine_opt_freq E -731.537434395281
  O       4.151661     -1.696557      0.771455
  N       5.941488     -0.788230      1.856525
  N       3.973145      0.450182      1.522466
  C       4.644707     -0.717048      1.363142
  H       6.192373     -0.248796      2.673491
  H       6.302730     -1.732546      1.844722
  H       3.025583      0.455050      1.126306
  C       4.528435      1.707756      1.997504
  H       4.125421      2.534513      1.406857
  H       4.300359      1.887361      3.057848
  H       5.616877      1.720100      1.887949
  N      -1.634879     -1.763564     -0.790631
  N      -2.805174      0.148907     -0.589176
  N      -0.980513      1.533008      0.251741
  N       1.121576      0.368002      0.488438
  N       1.434590     -1.882666     -0.004895
  C      -0.745317     -0.812220     -0.312961
  C      -1.497959      0.369540     -0.194611
  C       0.617825     -0.804151      0.048014
  C      -2.840507     -1.117367     -0.932429
  C       0.305022      1.443153      0.564198
  H      -1.462921     -2.736756     -0.992846
  H      -3.717332     -1.638339     -1.295353
  H       0.776961      2.353426      0.929480
  H       2.430189     -1.790009      0.248301
  H       1.124092     -2.746799     -0.416599
26
Coordinates from ORCA-job methylurea_adenine_opt_freq E -731.537573006019
  O       4.121686     -1.702575      0.798619
  N       5.933277     -0.799880      1.850002
  N       3.981582      0.459782      1.509754
  C       4.633682     -0.720213      1.368478
  H       6.203102     -0.243158      2.647960
  H       6.284578     -1.747288      1.855544
  H       3.026882      0.470814      1.132156
  C       4.544437      1.710902      1.988822
  H       4.131855      2.541570      1.410774
  H       4.325299      1.881760      3.052589
  H       5.631330      1.726825      1.865868
  N      -1.627680     -1.764696     -0.799591
  N      -2.805616      0.142960     -0.598418
  N      -0.990462      1.530760      0.257556
  N       1.113859      0.370826      0.506834
  N       1.436217     -1.876971     -0.002046
  C      -0.745016     -0.812304     -0.310853
  C      -1.501640      0.366629     -0.195304
  C       0.616845     -0.800903      0.056651
  C      -2.834604     -1.122116     -0.946622
  C       0.292721      1.443169      0.579446
  H      -1.452181     -2.738606     -0.994994
  H      -3.707536     -1.644769     -1.316425
  H       0.759437      2.353308      0.951821
  H       2.429741     -1.790214      0.257567
  H       1.126636     -2.739661     -0.417251
26
Coordinates from ORCA-job methylurea_adenine_opt_freq E -731.537757895839
  O       4.110915     -1.714156      0.826082
  N       5.927583     -0.809758      1.863637
  N       4.000710      0.469606      1.477097
  C       4.633191     -0.724874      1.373522
  H       6.204235     -0.230562      2.642245
  H       6.269058     -1.759466      1.898424
  H       3.039077      0.484978      1.119150
  C       4.570728      1.712833      1.964772
  H       4.140833      2.549696      1.408384
  H       4.369234      1.868992      3.034520
  H       5.654547      1.736079      1.816706
  N      -1.621846     -1.763139     -0.818107
  N      -2.811329      0.136365     -0.609305
  N      -1.011385      1.524852      0.277927
  N       1.096552      0.372246      0.537353
  N       1.432940     -1.869530      0.000032
  C      -0.749674     -0.811637     -0.308475
  C      -1.512798      0.362144     -0.190165
  C       0.610494     -0.797167      0.068400
  C      -2.831088     -1.125699     -0.968729
  C       0.268767      1.439849      0.611462
  H      -1.441912     -2.737444     -1.007444
  H      -3.698001     -1.649124     -1.351381
  H       0.728019      2.348343      0.996974
  H       2.424742     -1.788061      0.267909
  H       1.124841     -2.729414     -0.422055
26
Coordinates from ORCA-job methylurea_adenine_opt_freq E -731.537924167405
  O       4.106023     -1.736072      0.868474
  N       5.926604     -0.816973      1.882727
  N       4.018076      0.470658      1.446166
  C       4.636976     -0.735098      1.385307
  H       6.226486     -0.195683      2.618906
  H       6.272490     -1.763459      1.945004
  H       3.049321      0.484303      1.109273
  C       4.589708      1.709952      1.940824
  H       4.140446      2.549970      1.405243
  H       4.406246      1.854267      3.015714
  H       5.669676      1.743735      1.767552
  N      -1.618011     -1.757921     -0.839927
  N      -2.818130      0.133461     -0.618916
  N      -1.032637      1.519950      0.300429
  N       1.078306      0.374083      0.561278
  N       1.428058     -1.862928      0.001904
  C      -0.755310     -0.808902     -0.309305
  C      -1.524614      0.359901     -0.184723
  C       0.603605     -0.792739      0.075752
  C      -2.829704     -1.125024     -0.990724
  C       0.245341      1.436934      0.642172
  H      -1.434924     -2.732268     -1.026133
  H      -3.691100     -1.648044     -1.386197
  H       0.697778      2.342365      1.042659
  H       2.417428     -1.787985      0.280414
  H       1.120295     -2.720530     -0.424939
26
Coordinates from ORCA-job methylurea_adenine_opt_freq E -731.538025369188
  O       4.101058     -1.746108      0.893414
  N       5.921023     -0.821569      1.903068
  N       4.035932      0.477694      1.406609
  C       4.638891     -0.738054      1.389102
  H       6.226317     -0.177430      2.617169
  H       6.256416     -1.769273      1.996373
  H       3.061905      0.491376      1.087113
  C       4.611243      1.711406      1.910397
  H       4.142870      2.556980      1.399843
  H       4.451746      1.839795      2.991631
  H       5.686372      1.756789      1.710209
  N      -1.614210     -1.753260     -0.861118
  N      -2.822396      0.131288     -0.626085
  N      -1.050088      1.510363      0.328923
  N       1.063378      0.369042      0.590447
  N       1.424490     -1.860457      0.009218
  C      -0.760083     -0.809182     -0.308290
  C      -1.533980      0.355412     -0.175721
  C       0.595894     -0.793384      0.087711
  C      -2.826611     -1.122225     -1.014402
  C       0.225539      1.427551      0.679434
  H      -1.429004     -2.726761     -1.049821
  H      -3.682418     -1.642352     -1.425523
  H       0.671176      2.329321      1.095405
  H       2.410681     -1.785908      0.301509
  H       1.122292     -2.715101     -0.427679
26
Coordinates from ORCA-job methylurea_adenine_opt_freq E -731.538093212171
  O       4.096194     -1.761143      0.926896
  N       5.918091     -0.822317      1.918456
  N       4.048943      0.477984      1.370390
  C       4.640802     -0.744027      1.396148
  H       6.239295     -0.148603      2.596778
  H       6.251344     -1.767124      2.040916
  H       3.067484      0.485146      1.072053
  C       4.619679      1.709464      1.884936
  H       4.130419      2.556212      1.398073
  H       4.479533      1.823493      2.970669
  H       5.689429      1.772028      1.659989
  N      -1.610459     -1.746295     -0.879618
  N      -2.822515      0.134221     -0.632129
  N      -1.059633      1.503706      0.352767
  N       1.053882      0.363302      0.613177
  N       1.421583     -1.860863      0.018205
  C      -0.762056     -0.808453     -0.307852
  C      -1.537893      0.354107     -0.168616
  C       0.590860     -0.795303      0.098172
  C      -2.822591     -1.114860     -1.034261
  C       0.213917      1.419182      0.710564
  H      -1.425276     -2.718798     -1.073553
  H      -3.674377     -1.630814     -1.458793
  H       0.654643      2.316573      1.140864
  H       2.404468     -1.788156      0.321009
  H       1.122666     -2.712711     -0.426306
26
Coordinates from ORCA-job methylurea_adenine_opt_freq E -731.538140406240
  O       4.091004     -1.764568      0.942407
  N       5.914894     -0.821602      1.926898
  N       4.055063      0.481681      1.350208
  C       4.640285     -0.743816      1.398268
  H       6.241985     -0.135660      2.590317
  H       6.243410     -1.766233      2.064546
  H       3.070711      0.484820      1.063400
  C       4.623052      1.711916      1.871238
  H       4.121113      2.560583      1.400189
  H       4.497922      1.813738      2.960211
  H       5.688781      1.786507      1.631181
  N      -1.610755     -1.743490     -0.886305
  N      -2.820356      0.138112     -0.634686
  N      -1.059268      1.499064      0.364737
  N       1.051990      0.354976      0.625817
  N       1.419202     -1.866302      0.022340
  C      -0.762627     -0.809943     -0.307537
  C      -1.537197      0.353346     -0.164772
  C       0.588041     -0.800659      0.103971
  C      -2.820790     -1.108752     -1.043758
  C       0.213011      1.410989      0.727003
  H      -1.426198     -2.714693     -1.087262
  H      -3.671506     -1.620919     -1.474970
  H       0.652650      2.305590      1.164176
  H       2.400028     -1.793948      0.332349
  H       1.123987     -2.714786     -0.431031
26
Coordinates from ORCA-job methylurea_adenine_opt_freq E -731.538224370167
  O       4.097939     -1.771407      0.955569
  N       5.921034     -0.811432      1.925334
  N       4.056377      0.479982      1.333173
  C       4.645964     -0.744060      1.397796
  H       6.252886     -0.112068      2.572010
  H       6.254357     -1.752710      2.073684
  H       3.066679      0.466713      1.064690
  C       4.607069      1.712565      1.867961
  H       4.084828      2.558859      1.415235
  H       4.494766      1.796120      2.959785
  H       5.667129      1.813451      1.611967
  N      -1.616403     -1.739214     -0.884645
  N      -2.810811      0.153068     -0.640226
  N      -1.042486      1.499990      0.364141
  N       1.058628      0.340111      0.632995
  N       1.412144     -1.883078      0.032981
  C      -0.761230     -0.811643     -0.307353
  C      -1.527130      0.358518     -0.167014
  C       0.586228     -0.812626      0.110474
  C      -2.819903     -1.093938     -1.048773
  C       0.227934      1.402073      0.732159
  H      -1.435905     -2.708293     -1.098944
  H      -3.673186     -1.599594     -1.482588
  H       0.671684      2.293600      1.171429
  H       2.391124     -1.812184      0.347282
  H       1.118715     -2.726851     -0.430185
26
Coordinates from ORCA-job methylurea_adenine_opt_freq E -731.538286810778
  O       4.087539     -1.768255      0.960309
  N       5.911465     -0.803084      1.924968
  N       4.047894      0.485743      1.322582
  C       4.636149     -0.738210      1.395947
  H       6.243854     -0.099838      2.567415
  H       6.244397     -1.744118      2.076929
  H       3.056356      0.463993      1.058185
  C       4.591734      1.717134      1.868245
  H       4.057848      2.563452      1.429729
  H       4.493936      1.784521      2.962555
  H       5.648001      1.830117      1.600659
  N      -1.618405     -1.737409     -0.878319
  N      -2.798586      0.163944     -0.634120
  N      -1.018523      1.499487      0.364498
  N       1.073390      0.323879      0.632144
  N       1.413188     -1.899060      0.031457
  C      -0.753967     -0.814369     -0.308022
  C      -1.512035      0.361519     -0.165493
  C       0.592759     -0.824907      0.109528
  C      -2.817189     -1.083389     -1.041484
  C       0.251963      1.392189      0.731079
  H      -1.441067     -2.703542     -1.107818
  H      -3.675223     -1.583927     -1.471842
  H       0.702873      2.281055      1.168543
  H       2.390952     -1.831918      0.349138
  H       1.119131     -2.739054     -0.437875
26
Coordinates from ORCA-job methylurea_adenine_opt_freq E -731.538309894604
  O       4.101379     -1.767333      0.950386
  N       5.925347     -0.791379      1.903590
  N       4.038178      0.481403      1.341770
  C       4.642153     -0.735583      1.391603
  H       6.249886     -0.096711      2.559127
  H       6.267854     -1.730789      2.043231
  H       3.046446      0.451741      1.078979
  C       4.571669      1.716589      1.888649
  H       4.034811      2.559519      1.446381
  H       4.468370      1.781586      2.982375
  H       5.628091      1.836780      1.625232
  N      -1.626073     -1.737975     -0.865631
  N      -2.791582      0.174307     -0.637990
  N      -0.999093      1.507116      0.342432
  N       1.083851      0.317148      0.622093
  N       1.407205     -1.911955      0.036776
  C      -0.752875     -0.814644     -0.309010
  C      -1.502343      0.367585     -0.175540
  C       0.594273     -0.831783      0.108138
  C      -2.819894     -1.076496     -1.034043
  C       0.270774      1.393285      0.708729
  H      -1.451230     -2.703633     -1.098960
  H      -3.682820     -1.575228     -1.456650
  H       0.729433      2.283305      1.135782
  H       2.386874     -1.848024      0.349089
  H       1.107747     -2.752880     -0.427597
26
Coordinates from ORCA-job methylurea_adenine_opt_freq E -731.538328999767
  O       4.098509     -1.765274      0.946562
  N       5.923715     -0.790508      1.898673
  N       4.034551      0.482065      1.346209
  C       4.638796     -0.734122      1.390168
  H       6.245701     -0.099779      2.559509
  H       6.265590     -1.730337      2.036227
  H       3.043052      0.455203      1.080328
  C       4.571291      1.716366      1.891873
  H       4.034663      2.559564      1.450242
  H       4.469598      1.781020      2.985817
  H       5.627926      1.833564      1.627703
  N      -1.624344     -1.738284     -0.865208
  N      -2.790723      0.173324     -0.637130
  N      -0.997527      1.508192      0.340244
  N       1.085093      0.317812      0.620728
  N       1.408594     -1.911698      0.036770
  C      -0.751324     -0.814055     -0.309425
  C      -1.501188      0.367587     -0.176191
  C       0.596678     -0.831043      0.107403
  C      -2.818929     -1.077826     -1.032155
  C       0.272418      1.394846      0.705156
  H      -1.448263     -2.703848     -1.098036
  H      -3.682177     -1.577251     -1.453282
  H       0.732221      2.285338      1.130028
  H       2.388512     -1.850005      0.348118
  H       1.105998     -2.754899     -0.421397
26
Coordinates from ORCA-job methylurea_adenine_opt_freq E -731.538355345269
  O       4.095371     -1.765979      0.947298
  N       5.924112     -0.789438      1.890579
  N       4.030317      0.480829      1.351574
  C       4.635722     -0.734031      1.389693
  H       6.245937     -0.099980      2.552838
  H       6.266426     -1.729007      2.028228
  H       3.038934      0.457858      1.083645
  C       4.571287      1.714817      1.893629
  H       4.029301      2.557513      1.458150
  H       4.477945      1.777186      2.988538
  H       5.626239      1.832155      1.622615
  N      -1.621181     -1.737486     -0.868258
  N      -2.790103      0.172164     -0.638420
  N      -0.998271      1.509517      0.339630
  N       1.084265      0.319670      0.621727
  N       1.409448     -1.910368      0.039813
  C      -0.749966     -0.812366     -0.310626
  C      -1.501154      0.367582     -0.176975
  C       0.598681     -0.829163      0.108434
  C      -2.816816     -1.078768     -1.034405
  C       0.271324      1.397574      0.703623
  H      -1.441925     -2.702318     -1.101681
  H      -3.679421     -1.578662     -1.456258
  H       0.731865      2.288355      1.127087
  H       2.388935     -1.852830      0.353031
  H       1.101160     -2.758870     -0.404573
26
Coordinates from ORCA-job methylurea_adenine_opt_freq E -731.538391278781
  O       4.093476     -1.770515      0.954415
  N       5.925498     -0.787381      1.884284
  N       4.026128      0.477492      1.354179
  C       4.633740     -0.735761      1.391026
  H       6.249352     -0.094107      2.541639
  H       6.269930     -1.725564      2.025725
  H       3.034689      0.456514      1.085365
  C       4.569467      1.712534      1.891379
  H       4.013841      2.553293      1.469766
  H       4.493525      1.769162      2.988055
  H       5.619632      1.837305      1.605082
  N      -1.617858     -1.735014     -0.873586
  N      -2.788555      0.172898     -0.640156
  N      -0.998632      1.510230      0.342237
  N       1.083400      0.320345      0.625186
  N       1.409719     -1.910026      0.043517
  C      -0.748381     -0.810300     -0.312288
  C      -1.500520      0.368046     -0.176748
  C       0.600201     -0.828154      0.110803
  C      -2.813914     -1.077050     -1.039532
  C       0.270360      1.399073      0.706071
  H      -1.434672     -2.697820     -1.112222
  H      -3.675541     -1.576076     -1.464346
  H       0.731511      2.289390      1.129771
  H       2.387864     -1.857282      0.361748
  H       1.094172     -2.765279     -0.382435
26
Coordinates from ORCA-job methylurea_adenine_opt_freq E -731.538453351421
  O       4.092247     -1.781272      0.973289
  N       5.929340     -0.783568      1.877249
  N       4.020480      0.470051      1.357286
  C       4.632604     -0.740563      1.396179
  H       6.259460     -0.079186      2.519693
  H       6.279053     -1.718461      2.027308
  H       3.029162      0.450208      1.088011
  C       4.566056      1.708461      1.883804
  H       3.979678      2.543770      1.493970
  H       4.529959      1.753073      2.983267
  H       5.603769      1.853239      1.562746
  N      -1.613370     -1.730014     -0.883735
  N      -2.785876      0.175819     -0.644574
  N      -0.999847      1.510390      0.348648
  N       1.081425      0.320332      0.632912
  N       1.409044     -1.909975      0.048624
  C      -0.746428     -0.807143     -0.315377
  C      -1.499713      0.369155     -0.176047
  C       0.600846     -0.827532      0.115540
  C      -2.809156     -1.071958     -1.051128
  C       0.268051      1.399744      0.713721
  H      -1.423747     -2.688264     -1.135260
  H      -3.668742     -1.568412     -1.482977
  H       0.729362      2.288710      1.139944
  H       2.383631     -1.863995      0.379279
  H       1.081144     -2.776656     -0.343437
26
Coordinates from ORCA-job methylurea_adenine_opt_freq E -731.538518187836
  O       4.092128     -1.792245      0.994751
  N       5.933802     -0.780707      1.873902
  N       4.015890      0.461875      1.363985
  C       4.633000     -0.746396      1.404228
  H       6.272190     -0.064609      2.498997
  H       6.290189     -1.712139      2.030040
  H       3.025455      0.442057      1.092821
  C       4.563931      1.705009      1.875905
  H       3.944433      2.532575      1.521783
  H       4.574002      1.739688      2.976424
  H       5.585303      1.872057      1.514818
  N      -1.610550     -1.725758     -0.892695
  N      -2.784208      0.178850     -0.649880
  N      -1.002106      1.509916      0.353849
  N       1.079273      0.320491      0.639381
  N       1.408124     -1.909159      0.049790
  C      -0.745559     -0.804872     -0.318322
  C      -1.499745      0.370316     -0.176043
  C       0.599591     -0.827239      0.119132
  C      -2.805517     -1.066897     -1.062873
  C       0.265054      1.399432      0.721039
  H      -1.415638     -2.679099     -1.158453
  H      -3.662962     -1.560874     -1.501714
  H       0.725362      2.287209      1.150700
  H       2.378348     -1.867164      0.394758
  H       1.068643     -2.786365     -0.307388
26
Coordinates from ORCA-job methylurea_adenine_opt_freq E -731.538600804164
  O       4.088938     -1.796730      1.007361
  N       5.934141     -0.782552      1.876533
  N       4.013515      0.457667      1.374104
  C       4.632133     -0.750537      1.412118
  H       6.279773     -0.061769      2.492229
  H       6.294210     -1.712914      2.031149
  H       3.024562      0.438667      1.099349
  C       4.566359      1.704171      1.871876
  H       3.927502      2.526126      1.539704
  H       4.607695      1.738148      2.971665
  H       5.575568      1.881825      1.482244
  N      -1.609548     -1.725263     -0.895286
  N      -2.785067      0.178442     -0.652658
  N      -1.005861      1.508921      0.355050
  N       1.078223      0.323136      0.640023
  N       1.409755     -1.905067      0.043521
  C      -0.745687     -0.804631     -0.319239
  C      -1.501261      0.370335     -0.176261
  C       0.597891     -0.825620      0.118567
  C      -2.804298     -1.066531     -1.067901
  C       0.261726      1.399474      0.723579
  H      -1.412992     -2.676110     -1.168753
  H      -3.660199     -1.560469     -1.509816
  H       0.719256      2.287396      1.155884
  H       2.377257     -1.861923      0.397164
  H       1.064842     -2.788240     -0.293270
26
Coordinates from ORCA-job methylurea_adenine_opt_freq E -731.538689150781
  O       4.079923     -1.796729      1.016965
  N       5.930247     -0.788129      1.882416
  N       4.010167      0.455547      1.392336
  C       4.627751     -0.753872      1.422814
  H       6.284341     -0.068130      2.493880
  H       6.292551     -1.719044      2.028075
  H       3.022603      0.437768      1.113935
  C       4.571582      1.704610      1.872824
  H       3.918492      2.521459      1.556442
  H       4.640817      1.744501      2.970891
  H       5.568704      1.886356      1.454533
  N      -1.609535     -1.727965     -0.892141
  N      -2.787723      0.174962     -0.652315
  N      -1.009252      1.508325      0.351180
  N       1.079892      0.328498      0.632773
  N       1.415465     -1.896596      0.027844
  C      -0.745681     -0.805610     -0.319321
  C      -1.503118      0.369935     -0.177420
  C       0.597241     -0.821977      0.112189
  C      -2.804931     -1.070500     -1.065642
  C       0.260243      1.400567      0.718837
  H      -1.414247     -2.677758     -1.170213
  H      -3.660271     -1.567131     -1.505740
  H       0.713821      2.290226      1.151914
  H       2.381139     -1.849302      0.386860
  H       1.068214     -2.784058     -0.294981
26
Coordinates from ORCA-job methylurea_adenine_opt_freq E -731.538754153688
  O       4.076364     -1.799078      1.027039
  N       5.930035     -0.789904      1.884940
  N       4.005502      0.451345      1.411545
  C       4.625242     -0.756819      1.433028
  H       6.288601     -0.070135      2.493796
  H       6.296152     -1.720237      2.023787
  H       3.019077      0.434308      1.129254
  C       4.573535      1.703428      1.875855
  H       3.906480      2.514766      1.574337
  H       4.669974      1.746436      2.971710
  H       5.558193      1.890975      1.431053
  N      -1.610323     -1.729254     -0.890924
  N      -2.790595      0.172470     -0.649771
  N      -1.010582      1.509112      0.347205
  N       1.081544      0.332457      0.623340
  N       1.420123     -1.889929      0.013432
  C      -0.745970     -0.805223     -0.321489
  C      -1.504771      0.369968     -0.178598
  C       0.598015     -0.818666      0.104254
  C      -2.806830     -1.073206     -1.062183
  C       0.260670      1.402797      0.711036
  H      -1.414882     -2.677530     -1.174023
  H      -3.662580     -1.571875     -1.499236
  H       0.713182      2.293867      1.142474
  H       2.383582     -1.842158      0.378787
  H       1.068695     -2.781963     -0.291712
26
Coordinates from ORCA-job methylurea_adenine_opt_freq E -731.538835812646
  O       4.065097     -1.799787      1.039898
  N       5.925180     -0.795380      1.890132
  N       3.996916      0.447378      1.442797
  C       4.616848     -0.760032      1.449090
  H       6.288392     -0.079544      2.500714
  H       6.293785     -1.726091      2.018508
  H       3.012846      0.434998      1.151699
  C       4.579394      1.702659      1.880695
  H       3.897814      2.507719      1.597995
  H       4.715095      1.752438      2.971844
  H       5.545546      1.891867      1.397107
  N      -1.609629     -1.731992     -0.889476
  N      -2.796229      0.165008     -0.640856
  N      -1.014063      1.509772      0.343196
  N       1.083841      0.340429      0.605998
  N       1.431049     -1.877027     -0.013604
  C      -0.745654     -0.804465     -0.324947
  C      -1.508215      0.368113     -0.178020
  C       0.601817     -0.811881      0.089490
  C      -2.809747     -1.080620     -1.053163
  C       0.260327      1.408004      0.697864
  H      -1.412930     -2.678612     -1.177248
  H      -3.666227     -1.583459     -1.484034
  H       0.711524      2.301626      1.125502
  H       2.390657     -1.829781      0.362252
  H       1.074998     -2.775389     -0.294497
26
Coordinates from ORCA-job methylurea_adenine_opt_freq E -731.538903122280
  O       4.063106     -1.805232      1.059778
  N       5.928607     -0.795032      1.891823
  N       3.991010      0.440777      1.470004
  C       4.614974     -0.763808      1.465235
  H       6.292970     -0.078814      2.501420
  H       6.300736     -1.724588      2.018008
  H       3.009070      0.430355      1.171847
  C       4.583084      1.700522      1.882877
  H       3.883346      2.498985      1.625330
  H       4.762504      1.751230      2.967445
  H       5.527088      1.897866      1.359838
  N      -1.610873     -1.731904     -0.893135
  N      -2.801624      0.161129     -0.634790
  N      -1.017560      1.510083      0.341482
  N       1.083430      0.344586      0.592746
  N       1.436573     -1.868782     -0.035415
  C      -0.747263     -0.802802     -0.330542
  C      -1.512197      0.366945     -0.178140
  C       0.603155     -0.807361      0.077220
  C      -2.813697     -1.083753     -1.049570
  C       0.258681      1.411414      0.688598
  H      -1.411302     -2.676142     -1.186682
  H      -3.670894     -1.588206     -1.477099
  H       0.710484      2.305965      1.113594
  H       2.390450     -1.824187      0.355447
  H       1.074575     -2.773293     -0.288384
26
Coordinates from ORCA-job methylurea_adenine_opt_freq E -731.538919905902
  O       4.032319     -1.800262      1.071108
  N       5.911142     -0.805446      1.893172
  N       3.974321      0.441856      1.504962
  C       4.592407     -0.764708      1.480919
  H       6.278288     -0.099365      2.513253
  H       6.278025     -1.737932      2.013179
  H       2.997209      0.444275      1.188543
  C       4.590078      1.700656      1.886298
  H       3.889620      2.499469      1.649927
  H       4.811247      1.757000      2.962171
  H       5.515032      1.887815      1.326127
  N      -1.602133     -1.735634     -0.891757
  N      -2.804957      0.147101     -0.616833
  N      -1.021437      1.509846      0.342246
  N       1.087574      0.357881      0.571172
  N       1.455849     -1.851956     -0.070440
  C      -0.741130     -0.801199     -0.334131
  C      -1.513236      0.361729     -0.172645
  C       0.615286     -0.796759      0.059193
  C      -2.811918     -1.097206     -1.033853
  C       0.258148      1.421175      0.675300
  H      -1.396784     -2.678782     -1.184877
  H      -3.669561     -1.607296     -1.453664
  H       0.709534      2.318530      1.094516
  H       2.403655     -1.812831      0.333610
  H       1.089854     -2.762006     -0.298560
26
Coordinates from ORCA-job methylurea_adenine_opt_freq E -731.538943761999
  O       4.048829     -1.807456      1.095045
  N       5.928397     -0.797415      1.898404
  N       3.978096      0.435571      1.525661
  C       4.604971     -0.767045      1.497173
  H       6.290068     -0.088503      2.519066
  H       6.298705     -1.728221      2.023261
  H       3.003584      0.432370      1.204100
  C       4.595347      1.701618      1.885234
  H       3.876234      2.497166      1.672549
  H       4.854759      1.757907      2.952381
  H       5.497861      1.894895      1.291328
  N      -1.611932     -1.733192     -0.900774
  N      -2.812883      0.149029     -0.615039
  N      -1.025204      1.506454      0.343452
  N       1.084562      0.352707      0.561779
  N       1.450685     -1.852031     -0.088346
  C      -0.749058     -0.801139     -0.342553
  C      -1.519746      0.360979     -0.174405
  C       0.608087     -0.798258      0.048334
  C      -2.821860     -1.093708     -1.037235
  C       0.255318      1.416377      0.672381
  H      -1.405961     -2.674607     -1.199061
  H      -3.681078     -1.601295     -1.456778
  H       0.708790      2.311578      1.093766
  H       2.390647     -1.811925      0.335259
  H       1.081217     -2.765905     -0.296047
26
Coordinates from ORCA-job methylurea_adenine_opt_freq E -731.538967493704
  O       4.045472     -1.809321      1.091019
  N       5.923741     -0.797039      1.893848
  N       3.977634      0.436454      1.504864
  C       4.602790     -0.767702      1.487548
  H       6.290365     -0.080453      2.502286
  H       6.294588     -1.726633      2.025152
  H       3.001313      0.432289      1.188105
  C       4.587262      1.700252      1.878664
  H       3.871072      2.495504      1.666010
  H       4.833077      1.749382      2.949745
  H       5.497600      1.903475      1.300276
  N      -1.606365     -1.730983     -0.900426
  N      -2.804950      0.153921     -0.621657
  N      -1.020955      1.507230      0.347442
  N       1.086327      0.350968      0.576362
  N       1.447463     -1.859519     -0.069424
  C      -0.743895     -0.800848     -0.338385
  C      -1.513522      0.363429     -0.173698
  C       0.609892     -0.801405      0.060995
  C      -2.813958     -1.088672     -1.044029
  C       0.257894      1.414835      0.683543
  H      -1.399857     -2.671370     -1.201536
  H      -3.671695     -1.594164     -1.469106
  H       0.710621      2.309068      1.107858
  H       2.390389     -1.821744      0.346230
  H       1.076129     -2.771003     -0.282750
26
Coordinates from ORCA-job methylurea_adenine_opt_freq E -731.538981075080
  O       4.040396     -1.804667      1.087756
  N       5.921622     -0.798515      1.891627
  N       3.976613      0.439747      1.509276
  C       4.600004     -0.765490      1.487003
  H       6.288064     -0.086606      2.505737
  H       6.289639     -1.729735      2.019915
  H       3.000383      0.436924      1.192148
  C       4.590051      1.702350      1.881771
  H       3.879333      2.502645      1.666122
  H       4.832731      1.753307      2.953400
  H       5.503165      1.896623      1.304778
  N      -1.606249     -1.732633     -0.899125
  N      -2.805594      0.151901     -0.621030
  N      -1.021258      1.506586      0.345547
  N       1.087354      0.351786      0.572840
  N       1.448327     -1.858840     -0.071097
  C      -0.743685     -0.801605     -0.338808
  C      -1.513761      0.362507     -0.174471
  C       0.610368     -0.800721      0.058805
  C      -2.814402     -1.091191     -1.041885
  C       0.258007      1.414863      0.680828
  H      -1.400438     -2.674514     -1.196043
  H      -3.672384     -1.597648     -1.465319
  H       0.710505      2.309467      1.104626
  H       2.391355     -1.820861      0.344153
  H       1.078287     -2.769728     -0.289617
26
Coordinates from ORCA-job methylurea_adenine_opt_freq E -731.538987503127
  O       4.036200     -1.807007      1.098883
  N       5.920757     -0.798635      1.892655
  N       3.973235      0.437788      1.518877
  C       4.597168     -0.767175      1.494182
  H       6.288916     -0.085424      2.504278
  H       6.289549     -1.729400      2.022198
  H       2.998127      0.435542      1.198363
  C       4.591579      1.701406      1.879406
  H       3.876295      2.501444      1.678688
  H       4.853710      1.752158      2.946375
  H       5.493307      1.897837      1.285219
  N      -1.604666     -1.731965     -0.902540
  N      -2.806871      0.149775     -0.617995
  N      -1.023010      1.505324      0.348177
  N       1.088343      0.353932      0.568334
  N       1.450851     -1.855450     -0.080034
  C      -0.742788     -0.800826     -0.341452
  C      -1.514547      0.361634     -0.173244
  C       0.611784     -0.798480      0.054092
  C      -2.814225     -1.092366     -1.041654
  C       0.257191      1.415269      0.680395
  H      -1.397310     -2.672988     -1.201130
  H      -3.672035     -1.599194     -1.464992
  H       0.709280      2.309748      1.104844
  H       2.390248     -1.819185      0.343563
  H       1.077346     -2.767810     -0.286551
26
Coordinates from ORCA-job methylurea_adenine_opt_freq E -731.538992327047
  O       4.034333     -1.808777      1.105209
  N       5.920038     -0.798083      1.893370
  N       3.971288      0.436945      1.521214
  C       4.595712     -0.767948      1.497286
  H       6.289524     -0.082916      2.501893
  H       6.289732     -1.728331      2.024126
  H       2.996178      0.433989      1.200385
  C       4.591249      1.700910      1.876995
  H       3.873574      2.501173      1.685411
  H       4.863011      1.750204      2.941664
  H       5.486861      1.900204      1.274550
  N      -1.603435     -1.731030     -0.904710
  N      -2.806587      0.149613     -0.616795
  N      -1.022888      1.504614      0.350397
  N       1.089545      0.354282      0.567687
  N       1.451483     -1.855466     -0.082501
  C      -0.741815     -0.800325     -0.342535
  C      -1.514119      0.361571     -0.172340
  C       0.612634     -0.798082      0.053009
  C      -2.813381     -1.091875     -1.042286
  C       0.257657      1.414849      0.681505
  H      -1.395534     -2.671453     -1.204798
  H      -3.671032     -1.598455     -1.466248
  H       0.709531      2.309183      1.106500
  H       2.389180     -1.820936      0.344861
  H       1.075692     -2.767907     -0.284912
26
Coordinates from ORCA-job methylurea_adenine_opt_freq E -731.538985982212
  O       4.033827     -1.808851      1.105389
  N       5.919591     -0.798139      1.892978
  N       3.970892      0.437074      1.521001
  C       4.595253     -0.767863      1.497146
  H       6.289892     -0.082635      2.500582
  H       6.289691     -1.728312      2.022954
  H       2.995591      0.434258      1.200809
  C       4.591403      1.700679      1.876619
  H       3.873799      2.501366      1.686518
  H       4.864029      1.749374      2.941123
  H       5.486496      1.900326      1.273572
  N      -1.602904     -1.730988     -0.905062
  N      -2.806330      0.149558     -0.617531
  N      -1.023064      1.504607      0.350562
  N       1.089521      0.354486      0.568539
  N       1.451315     -1.855597     -0.081019
  C      -0.741603     -0.800207     -0.342479
  C      -1.514084      0.361584     -0.172475
  C       0.612640     -0.798019      0.053750
  C      -2.812817     -1.091890     -1.043123
  C       0.257388      1.414901      0.682021
  H      -1.395009     -2.671436     -1.205060
  H      -3.670210     -1.598524     -1.467552
  H       0.708953      2.309409      1.107009
  H       2.388894     -1.821419      0.346685
  H       1.075280     -2.767792     -0.284020
