33
Coordinates from ORCA-job phenylurea_adenine_opt_freq E -921.947194911884
  N       5.455745     -0.024553      1.506115
  C       4.505376     -0.979625      1.483545
  O       4.822461     -2.165031      1.507399
  N       3.204474     -0.602034      1.506113
  C       2.570994      0.635155      1.286774
  C       1.217792      0.725408      1.638776
  C       0.507073      1.913519      1.449776
  C       1.138859      3.020057      0.890033
  C       2.475917      2.932968      0.510439
  C       3.187583      1.743798      0.702341
  H       6.387420     -0.401118      1.626199
  H       5.252943      0.774227      2.090604
  H       2.598189     -1.392985      1.686419
  H       0.701637     -0.124108      2.079436
  H      -0.539490      1.972194      1.737567
  H       0.587330      3.944051      0.736700
  H       2.965027      3.786828      0.047949
  H       4.208131      1.703267      0.336554
  N      -1.199000     -1.399700      0.000000
  N      -2.075200      0.649900      0.000000
  N       0.033700      1.859400     -0.000100
  N       1.999800      0.415000      0.000000
  N       1.824100     -1.976000      0.000000
  C      -0.135900     -0.542100      0.000100
  C      -0.705600      0.724100      0.000100
  C       1.235900     -0.700400      0.000000
  C      -2.338600     -0.639400      0.000000
  C       1.360700      1.609200      0.000000
  H      -1.156600     -2.410300     -0.000200
  H      -3.322500     -1.086400     -0.000100
  H       2.003400      2.483100     -0.000100
  H       2.832200     -2.052800      0.000300
  H       1.250300     -2.808200      0.000400
33
Coordinates from ORCA-job phenylurea_adenine_opt_freq E -922.073581813780
  N       5.502554     -0.030249      1.517816
  C       4.540677     -0.988830      1.495714
  O       4.843770     -2.183210      1.514010
  N       3.235489     -0.605890      1.518057
  C       2.591159      0.638005      1.294913
  C       1.218158      0.731796      1.667259
  C       0.496558      1.924414      1.472895
  C       1.135217      3.040470      0.891874
  C       2.505975      2.958765      0.506669
  C       3.217405      1.759875      0.700953
  H       6.431941     -0.412432      1.635452
  H       5.307695      0.773097      2.100496
  H       2.623838     -1.396240      1.693660
  H       0.705744     -0.112009      2.121441
  H      -0.555066      1.986072      1.779831
  H       0.583289      3.964027      0.736373
  H       2.998898      3.811333      0.040205
  H       4.234646      1.718814      0.331038
  N      -1.236215     -1.419076     -0.019481
  N      -2.117733      0.634029     -0.018390
  N       0.003939      1.858281     -0.005011
  N       1.999541      0.413117     -0.008088
  N       1.813214     -1.971417     -0.000692
  C      -0.171061     -0.554668     -0.014240
  C      -0.749645      0.713729     -0.014718
  C       1.216171     -0.710899     -0.006782
  C      -2.379586     -0.658870     -0.021635
  C       1.352180      1.611963     -0.007269
  H      -1.193339     -2.428857     -0.020603
  H      -3.362806     -1.107568     -0.024963
  H       1.992203      2.478499     -0.034448
  H       2.821542     -2.040549      0.003071
  H       1.247810     -2.808103     -0.002270
33
Coordinates from ORCA-job phenylurea_adenine_opt_freq E -922.176705599545
  N       5.540852     -0.034606      1.528080
  C       4.570359     -0.996435      1.508707
  O       4.859725     -2.197327      1.523689
  N       3.262023     -0.608184      1.529709
  C       2.609076      0.638888      1.300879
  C       1.217687      0.735520      1.696377
  C       0.487082      1.930805      1.497622
  C       1.132593      3.056222      0.894907
  C       2.535782      2.977863      0.501410
  C       3.246408      1.773602      0.697370
  H       6.468294     -0.421511      1.644320
  H       5.352954      0.774069      2.106757
  H       2.644085     -1.395523      1.702305
  H       0.709584     -0.101903      2.165220
  H      -0.564877      1.995366      1.825316
  H       0.580987      3.978582      0.738240
  H       3.031986      3.827403      0.031929
  H       4.260841      1.732339      0.323988
  N      -1.267806     -1.436316     -0.037831
  N      -2.154904      0.620785     -0.035514
  N      -0.026846      1.853319     -0.010763
  N       1.998623      0.410270     -0.017705
  N       1.803758     -1.962022     -0.002209
  C      -0.200292     -0.564562     -0.028146
  C      -0.788765      0.706999     -0.029989
  C       1.196719     -0.719297     -0.013373
  C      -2.413170     -0.675211     -0.041307
  C       1.341581      1.613545     -0.017422
  H      -1.225791     -2.445431     -0.039438
  H      -3.395734     -1.125573     -0.046756
  H       1.981031      2.472675     -0.069859
  H       2.812467     -2.022903      0.002237
  H       1.247852     -2.804029     -0.005611
33
Coordinates from ORCA-job phenylurea_adenine_opt_freq E -922.303123015543
  N       5.584730     -0.032385      1.539239
  C       4.608502     -1.000366      1.526818
  O       4.884156     -2.206217      1.538481
  N       3.295980     -0.608635      1.545570
  C       2.630820      0.637296      1.306690
  C       1.219639      0.736053      1.740724
  C       0.480548      1.932997      1.536010
  C       1.133267      3.071535      0.903337
  C       2.575850      2.994965      0.495876
  C       3.285014      1.790093      0.690139
  H       6.511160     -0.422090      1.653613
  H       5.403698      0.783918      2.110107
  H       2.671586     -1.391539      1.715806
  H       0.720464     -0.091083      2.233887
  H      -0.562823      2.001939      1.895646
  H       0.583347      3.992224      0.747747
  H       3.075119      3.839822      0.024099
  H       4.296252      1.749205      0.312253
  N      -1.308725     -1.457116     -0.065851
  N      -2.199300      0.607737     -0.063487
  N      -0.069163      1.838969     -0.021981
  N       1.993589      0.404603     -0.032136
  N       1.785487     -1.951368     -0.000850
  C      -0.234745     -0.578643     -0.048816
  C      -0.833716      0.701169     -0.055864
  C       1.162809     -0.733312     -0.020285
  C      -2.452627     -0.689530     -0.072215
  C       1.322436      1.613320     -0.037488
  H      -1.272904     -2.465538     -0.066921
  H      -3.435777     -1.139324     -0.080752
  H       1.959677      2.459507     -0.123029
  H       2.794983     -1.998551      0.003937
  H       1.244830     -2.802236     -0.007167
33
Coordinates from ORCA-job phenylurea_adenine_opt_freq E -922.453268141081
  N       5.627350     -0.013009      1.545205
  C       4.652287     -0.992820      1.546970
  O       4.920250     -2.200144      1.555131
  N       3.334025     -0.603275      1.565601
  C       2.651338      0.633404      1.313329
  C       1.230319      0.734614      1.809528
  C       0.491500      1.928750      1.592829
  C       1.145848      3.083730      0.923321
  C       2.625489      3.006650      0.499320
  C       3.327070      1.809862      0.680643
  H       6.555425     -0.400105      1.655351
  H       5.451427      0.812419      2.104629
  H       2.705813     -1.382367      1.736178
  H       0.747921     -0.075032      2.341389
  H      -0.526743      2.005846      1.992347
  H       0.599903      4.003907      0.773402
  H       3.127146      3.847916      0.029045
  H       4.335612      1.769585      0.297279
  N      -1.362909     -1.480989     -0.107145
  N      -2.246330      0.598379     -0.110958
  N      -0.118407      1.809893     -0.048358
  N       1.974736      0.391564     -0.053895
  N       1.756926     -1.953816      0.007870
  C      -0.273814     -0.603260     -0.079401
  C      -0.876325      0.693736     -0.100071
  C       1.105079     -0.762616     -0.028392
  C      -2.498119     -0.694391     -0.121314
  C       1.289375      1.604621     -0.073709
  H      -1.344440     -2.488731     -0.104770
  H      -3.485557     -1.136274     -0.135361
  H       1.921179      2.434584     -0.196261
  H       2.767299     -1.975045      0.012879
  H       1.243488     -2.820168      0.000530
33
Coordinates from ORCA-job phenylurea_adenine_opt_freq E -922.576881249060
  N       5.648232      0.016196      1.541129
  C       4.681994     -0.976073      1.559894
  O       4.953113     -2.180679      1.567045
  N       3.358652     -0.592998      1.580585
  C       2.661869      0.631113      1.316036
  C       1.250066      0.740236      1.876621
  C       0.522909      1.923701      1.648371
  C       1.171972      3.086858      0.948913
  C       2.668436      3.009389      0.518362
  C       3.355402      1.822992      0.679020
  H       6.580121     -0.362994      1.647503
  H       5.471870      0.850064      2.087947
  H       2.732178     -1.371047      1.755528
  H       0.785351     -0.051148      2.448467
  H      -0.470061      2.013423      2.079610
  H       0.630476      4.009978      0.806680
  H       3.172879      3.852555      0.055550
  H       4.363304      1.780329      0.293316
  N      -1.411478     -1.500198     -0.142622
  N      -2.279960      0.591763     -0.163869
  N      -0.154494      1.777405     -0.087260
  N       1.942996      0.372280     -0.082346
  N       1.730597     -1.968591      0.018129
  C      -0.307569     -0.629192     -0.109194
  C      -0.902440      0.684459     -0.149363
  C       1.049420     -0.794145     -0.039779
  C      -2.534103     -0.694429     -0.169720
  C       1.253441      1.585467     -0.114377
  H      -1.412029     -2.507511     -0.132697
  H      -3.526734     -1.126392     -0.188744
  H       1.881202      2.407325     -0.263193
  H       2.741181     -1.962137      0.019131
  H       1.245369     -2.850579      0.018465
33
Coordinates from ORCA-job phenylurea_adenine_opt_freq E -922.678891945239
  N       5.657438      0.040838      1.534547
  C       4.699002     -0.957979      1.569685
  O       4.975812     -2.159295      1.578407
  N       3.371637     -0.579001      1.592454
  C       2.666454      0.633125      1.315923
  C       1.280173      0.756886      1.934602
  C       0.568646      1.926022      1.699295
  C       1.204907      3.084633      0.975919
  C       2.698530      3.007809      0.545912
  C       3.372507      1.829014      0.686033
  H       6.592202     -0.331996      1.639406
  H       5.479976      0.883564      2.067197
  H       2.749054     -1.357440      1.774361
  H       0.834124     -0.017836      2.543568
  H      -0.406497      2.032511      2.157755
  H       0.666651      4.011408      0.841548
  H       3.203921      3.856408      0.093866
  H       4.381021      1.779825      0.301865
  N      -1.451697     -1.518109     -0.170545
  N      -2.305399      0.582600     -0.214423
  N      -0.180661      1.748214     -0.134276
  N       1.903757      0.352447     -0.115562
  N       1.709666     -1.983160      0.023829
  C      -0.337635     -0.654477     -0.136803
  C      -0.919393      0.672264     -0.197793
  C       1.004719     -0.820501     -0.054590
  C      -2.561986     -0.698608     -0.211152
  C       1.215788      1.563881     -0.159043
  H      -1.467370     -2.524995     -0.150948
  H      -3.558735     -1.122883     -0.232710
  H       1.837916      2.381845     -0.326546
  H       2.719803     -1.951071      0.016469
  H       1.249832     -2.878522      0.034889
33
Coordinates from ORCA-job phenylurea_adenine_opt_freq E -922.765946332915
  N       5.662726      0.056675      1.529454
  C       4.707387     -0.941845      1.577600
  O       4.988002     -2.141047      1.588269
  N       3.377283     -0.562509      1.602813
  C       2.668852      0.639791      1.316339
  C       1.320592      0.781878      1.982195
  C       0.622453      1.939869      1.742827
  C       1.240859      3.081117      1.002708
  C       2.714014      3.005277      0.579527
  C       3.380482      1.828551      0.702023
  H       6.598408     -0.313993      1.634489
  H       5.486038      0.908109      2.048136
  H       2.758872     -1.341858      1.792288
  H       0.894687      0.021044      2.623281
  H      -0.339172      2.066505      2.223999
  H       0.704768      4.010986      0.875619
  H       3.217999      3.861269      0.139972
  H       4.390581      1.769303      0.322995
  N      -1.484219     -1.536189     -0.191365
  N      -2.327667      0.568790     -0.260765
  N      -0.200512      1.724899     -0.186589
  N       1.860001      0.334543     -0.152271
  N       1.693879     -1.993787      0.024153
  C      -0.365883     -0.678208     -0.162471
  C      -0.934405      0.655482     -0.243462
  C       0.971769     -0.839256     -0.072787
  C      -2.586004     -0.709731     -0.244769
  C       1.176694      1.543142     -0.208247
  H      -1.508821     -2.542604     -0.160642
  H      -3.585230     -1.129617     -0.266113
  H       1.791856      2.360510     -0.388562
  H       2.703138     -1.940506      0.005942
  H       1.254734     -2.899173      0.046554
33
Coordinates from ORCA-job phenylurea_adenine_opt_freq E -922.841747559848
  N       5.668139      0.062689      1.528301
  C       4.710322     -0.929787      1.583730
  O       4.990615     -2.128733      1.594087
  N       3.379284     -0.545028      1.612513
  C       2.672032      0.651294      1.320435
  C       1.368851      0.811069      2.019167
  C       0.678332      1.965036      1.776671
  C       1.277066      3.078942      1.027981
  C       2.715453      3.003836      0.617684
  C       3.380554      1.823732      0.726687
  H       6.602646     -0.310608      1.634413
  H       5.494711      0.921670      2.035371
  H       2.764018     -1.325103      1.808118
  H       0.963654      0.060354      2.686085
  H      -0.272128      2.113184      2.275125
  H       0.742204      4.011301      0.906930
  H       3.216122      3.868267      0.191018
  H       4.392796      1.752807      0.355481
  N      -1.508337     -1.553825     -0.204615
  N      -2.347659      0.550500     -0.301344
  N      -0.217565      1.706209     -0.242535
  N       1.813468      0.319228     -0.192721
  N       1.681519     -1.998648      0.019024
  C      -0.391777     -0.698533     -0.186381
  C      -0.950445      0.634047     -0.285352
  C       0.949587     -0.848896     -0.095307
  C      -2.607139     -0.727214     -0.269391
  C       1.137180      1.522537     -0.262014
  H      -1.534925     -2.559878     -0.161407
  H      -3.607113     -1.146040     -0.287360
  H       1.746018      2.343662     -0.450156
  H       2.689874     -1.930260     -0.010829
  H       1.256803     -2.910393      0.053729
33
Coordinates from ORCA-job phenylurea_adenine_opt_freq E -922.907000457588
  N       5.674941      0.059620      1.532617
  C       4.709818     -0.923084      1.587926
  O       4.984981     -2.123612      1.592555
  N       3.380291     -0.528073      1.622884
  C       2.678647      0.668148      1.331987
  C       1.419845      0.842235      2.046585
  C       0.731274      1.998488      1.801198
  C       1.311505      3.080411      1.051356
  C       2.706640      3.005108      0.657824
  C       3.375298      1.818049      0.758878
  H       6.606584     -0.320432      1.639231
  H       5.506934      0.923627      2.032823
  H       2.766137     -1.308353      1.820783
  H       1.033240      0.097620      2.732018
  H      -0.210883      2.166349      2.310363
  H       0.776932      4.014660      0.934205
  H       3.202878      3.877757      0.242500
  H       4.389935      1.735795      0.396722
  N      -1.523707     -1.570124     -0.209939
  N      -2.365425      0.528646     -0.334236
  N      -0.235107      1.690484     -0.301173
  N       1.766061      0.306115     -0.237400
  N       1.671460     -1.998275      0.007889
  C      -0.414121     -0.713961     -0.208770
  C      -0.968171      0.609690     -0.322450
  C       0.937003     -0.849681     -0.123656
  C      -2.625177     -0.749470     -0.283563
  C       1.099058      1.500832     -0.320009
  H      -1.545718     -2.575904     -0.153323
  H      -3.624242     -1.170358     -0.294576
  H       1.703729      2.329489     -0.511585
  H       2.679239     -1.921615     -0.032452
  H       1.254277     -2.912762      0.055927
33
Coordinates from ORCA-job phenylurea_adenine_opt_freq E -922.960606848190
  N       5.683141      0.049288      1.543065
  C       4.707272     -0.921856      1.589423
  O       4.972839     -2.125128      1.579664
  N       3.382242     -0.512650      1.635087
  C       2.691496      0.690726      1.354534
  C       1.467300      0.874775      2.068032
  C       0.776814      2.035851      1.820503
  C       1.342350      3.088898      1.074004
  C       2.695403      3.012031      0.696328
  C       3.369949      1.816678      0.795664
  H       6.610820     -0.340472      1.648014
  H       5.522015      0.914343      2.043476
  H       2.766392     -1.292496      1.829141
  H       1.093900      0.132146      2.763844
  H      -0.161637      2.217475      2.332034
  H       0.806519      4.023961      0.957534
  H       3.186990      3.891085      0.288202
  H       4.386758      1.724983      0.441204
  N      -1.531633     -1.585372     -0.207942
  N      -2.381739      0.503970     -0.358939
  N      -0.255184      1.677711     -0.361808
  N       1.720407      0.294630     -0.285592
  N       1.662526     -1.996914     -0.008833
  C      -0.432309     -0.725196     -0.229528
  C      -0.987212      0.584863     -0.354118
  C       0.932096     -0.845253     -0.158008
  C      -2.640104     -0.775033     -0.287484
  C       1.064080      1.479032     -0.381113
  H      -1.544175     -2.590818     -0.137788
  H      -3.636848     -1.200592     -0.288395
  H       1.667488      2.316790     -0.572683
  H       2.670238     -1.919264     -0.056455
  H       1.245966     -2.910773      0.052072
33
Coordinates from ORCA-job phenylurea_adenine_opt_freq E -923.003128417584
  N       5.692526      0.034506      1.558173
  C       4.704113     -0.924626      1.587377
  O       4.956756     -2.130724      1.552934
  N       3.386314     -0.499143      1.649669
  C       2.712384      0.717804      1.389507
  C       1.505095      0.907210      2.088470
  C       0.810497      2.072263      1.840392
  C       1.367095      3.107186      1.098163
  C       2.690978      3.027974      0.730337
  C       3.371024      1.824984      0.832989
  H       6.615835     -0.366398      1.658036
  H       5.539166      0.896214      2.066277
  H       2.765783     -1.277911      1.832786
  H       1.136848      0.161958      2.785443
  H      -0.131269      2.257672      2.343828
  H       0.827310      4.040938      0.978217
  H       3.178271      3.910393      0.323218
  H       4.389123      1.726912      0.481849
  N      -1.535053     -1.600198     -0.199672
  N      -2.396306      0.478338     -0.377736
  N      -0.277199      1.668240     -0.424287
  N       1.680312      0.284320     -0.334686
  N       1.653307     -2.001003     -0.028408
  C      -0.446098     -0.735153     -0.247752
  C      -1.005319      0.561846     -0.381013
  C       0.932126     -0.842671     -0.196013
  C      -2.651928     -0.801190     -0.283557
  C       1.033699      1.459990     -0.443332
  H      -1.536667     -2.605018     -0.116095
  H      -3.645746     -1.232325     -0.272359
  H       1.638684      2.306210     -0.632568
  H       2.661457     -1.929839     -0.079611
  H       1.231042     -2.911339      0.042561
33
Coordinates from ORCA-job phenylurea_adenine_opt_freq E -923.038042279584
  N       5.703262      0.019119      1.576073
  C       4.702578     -0.928731      1.583415
  O       4.940764     -2.136642      1.515320
  N       3.393383     -0.487720      1.667381
  C       2.741226      0.745855      1.434824
  C       1.530776      0.936664      2.110787
  C       0.830721      2.103754      1.864423
  C       1.384395      3.134393      1.125253
  C       2.698628      3.052577      0.758207
  C       3.382527      1.843952      0.867073
  H       6.622676     -0.392228      1.667120
  H       5.557683      0.874194      2.097052
  H       2.765796     -1.264740      1.833501
  H       1.159008      0.184179      2.799401
  H      -0.121882      2.281808      2.349575
  H       0.837824      4.064109      0.997902
  H       3.182187      3.934820      0.345536
  H       4.400394      1.743110      0.513095
  N      -1.538572     -1.614505     -0.187675
  N      -2.409287      0.454553     -0.392871
  N      -0.299404      1.660796     -0.487276
  N       1.649082      0.274163     -0.382348
  N       1.643169     -2.012562     -0.047581
  C      -0.457138     -0.746431     -0.263052
  C      -1.021375      0.541730     -0.404321
  C       0.933104     -0.847783     -0.234254
  C      -2.662467     -0.824511     -0.275125
  C       1.008908      1.444868     -0.504567
  H      -1.531209     -2.618345     -0.091230
  H      -3.653799     -1.259910     -0.250723
  H       1.617588      2.297627     -0.689727
  H       2.652016     -1.952898     -0.100984
  H       1.211601     -2.917848      0.028934
33
Coordinates from ORCA-job phenylurea_adenine_opt_freq E -923.067282805901
  N       5.715976      0.008124      1.595625
  C       4.705479     -0.930515      1.581091
  O       4.929689     -2.138398      1.473083
  N       3.404226     -0.477483      1.689795
  C       2.776097      0.771733      1.487398
  C       1.547262      0.960933      2.134637
  C       0.840797      2.128172      1.892311
  C       1.396746      3.165432      1.155119
  C       2.717392      3.079828      0.780340
  C       3.403449      1.868751      0.897389
  H       6.632982     -0.410712      1.673800
  H       5.577471      0.854958      2.131594
  H       2.768326     -1.252182      1.834287
  H       1.164949      0.197938      2.806930
  H      -0.127316      2.290497      2.353301
  H       0.842712      4.089342      1.017843
  H       3.198424      3.958309      0.356925
  H       4.419365      1.768712      0.535076
  N      -1.547274     -1.627750     -0.176391
  N      -2.423009      0.434728     -0.405844
  N      -0.320820      1.652070     -0.548233
  N       1.627514      0.261677     -0.428782
  N       1.631413     -2.027562     -0.064322
  C      -0.469323     -0.759560     -0.277364
  C      -1.037312      0.524270     -0.426359
  C       0.929643     -0.861454     -0.270403
  C      -2.675423     -0.842847     -0.265607
  C       0.989268      1.430885     -0.563973
  H      -1.534522     -2.630384     -0.067977
  H      -3.665332     -1.279861     -0.226495
  H       1.603194      2.287786     -0.743346
  H       2.640964     -1.979528     -0.120392
  H       1.191156     -2.928490      0.012084
33
Coordinates from ORCA-job phenylurea_adenine_opt_freq E -923.090112594724
  N       5.730074      0.005383      1.616240
  C       4.713050     -0.926173      1.582452
  O       4.925030     -2.131854      1.431556
  N       3.417649     -0.465239      1.717754
  C       2.812236      0.796176      1.544429
  C       1.561504      0.981091      2.158241
  C       0.849034      2.147173      1.920975
  C       1.410548      3.192752      1.186935
  C       2.740418      3.100929      0.800180
  C       3.427759      1.891182      0.927605
  H       6.646303     -0.417423      1.677871
  H       5.597983      0.843720      2.166963
  H       2.773284     -1.237053      1.837159
  H       1.164784      0.206577      2.809617
  H      -0.134437      2.290664      2.357968
  H       0.851376      4.111283      1.038750
  H       3.220526      3.972643      0.362751
  H       4.440249      1.793783      0.553984
  N      -1.562658     -1.639512     -0.168687
  N      -2.439340      0.419071     -0.418658
  N      -0.340000      1.637656     -0.605652
  N       1.612395      0.244208     -0.475699
  N       1.617245     -2.040204     -0.078805
  C      -0.485583     -0.773233     -0.293145
  C      -1.055211      0.507996     -0.450543
  C       0.917981     -0.878971     -0.303414
  C      -2.692358     -0.856401     -0.257254
  C       0.972100      1.412633     -0.621951
  H      -1.547546     -2.640740     -0.048208
  H      -3.681706     -1.292521     -0.200839
  H       1.592042      2.271281     -0.794015
  H       2.627120     -1.999917     -0.140767
  H       1.172309     -2.939542     -0.010651
33
Coordinates from ORCA-job phenylurea_adenine_opt_freq E -923.107133920505
  N       5.745704      0.005588      1.639437
  C       4.722310     -0.917373      1.585327
  O       4.922252     -2.119154      1.392293
  N       3.431826     -0.449508      1.747956
  C       2.845617      0.822338      1.601912
  C       1.577028      1.000922      2.180850
  C       0.860059      2.166268      1.948386
  C       1.427725      3.216309      1.219967
  C       2.760767      3.116880      0.820102
  C       3.450619      1.910528      0.959144
  H       6.660927     -0.421195      1.683985
  H       5.620623      0.835278      2.204519
  H       2.778669     -1.217367      1.839967
  H       1.164573      0.214963      2.809175
  H      -0.135676      2.291137      2.364031
  H       0.865729      4.130983      1.060918
  H       3.240368      3.980203      0.366287
  H       4.458621      1.815698      0.572599
  N      -1.580081     -1.650783     -0.162678
  N      -2.457354      0.404866     -0.431641
  N      -0.357366      1.618027     -0.659443
  N       1.599026      0.223749     -0.524242
  N       1.601478     -2.051605     -0.092333
  C      -0.503744     -0.786703     -0.310549
  C      -1.074512      0.491783     -0.477578
  C       0.900783     -0.896219     -0.333615
  C      -2.710106     -0.868364     -0.249404
  C       0.954352      1.390725     -0.678959
  H      -1.563648     -2.650277     -0.028534
  H      -3.698892     -1.302644     -0.173423
  H       1.579968      2.250297     -0.843077
  H       2.610970     -2.015916     -0.166017
  H       1.155547     -2.952017     -0.042220
33
Coordinates from ORCA-job phenylurea_adenine_opt_freq E -923.119641949221
  N       5.760052      0.007082      1.663536
  C       4.730541     -0.906460      1.588815
  O       4.919492     -2.102638      1.354815
  N       3.445235     -0.432775      1.779040
  C       2.874559      0.849127      1.658325
  C       1.591725      1.021150      2.203641
  C       0.873380      2.187902      1.974924
  C       1.447931      3.239247      1.254181
  C       2.778457      3.131025      0.841148
  C       3.472113      1.927963      0.992672
  H       6.674118     -0.423229      1.690594
  H       5.642122      0.828292      2.242070
  H       2.783307     -1.195906      1.841572
  H       1.161992      0.224159      2.806604
  H      -0.132242      2.295862      2.370422
  H       0.885112      4.151523      1.084137
  H       3.257765      3.984361      0.368645
  H       4.475059      1.833675      0.592617
  N      -1.595853     -1.662070     -0.155528
  N      -2.474892      0.390433     -0.445088
  N      -0.373452      1.596127     -0.710528
  N       1.585592      0.201912     -0.573902
  N       1.584760     -2.064992     -0.104758
  C      -0.520714     -0.800534     -0.328771
  C      -1.093186      0.475397     -0.506929
  C       0.882203     -0.913501     -0.361827
  C      -2.725826     -0.880156     -0.240705
  C       0.936633      1.367926     -0.734888
  H      -1.578429     -2.659242     -0.005062
  H      -3.713812     -1.312192     -0.144148
  H       1.567772      2.228224     -0.890790
  H       2.592862     -2.032766     -0.198487
  H       1.139785     -2.967507     -0.083211
33
Coordinates from ORCA-job phenylurea_adenine_opt_freq E -923.128629631458
  N       5.773045      0.008795      1.690348
  C       4.737138     -0.894540      1.593762
  O       4.916498     -2.083970      1.321610
  N       3.457414     -0.416268      1.810043
  C       2.899305      0.875040      1.711211
  C       1.604682      1.041318      2.226755
  C       0.888358      2.211569      2.001098
  C       1.470349      3.263062      1.288950
  C       2.794856      3.144812      0.862199
  C       3.492712      1.944573      1.026643
  H       6.685662     -0.424885      1.701002
  H       5.661717      0.821712      2.281371
  H       2.786982     -1.173979      1.841152
  H       1.156992      0.233704      2.802159
  H      -0.125842      2.305205      2.376894
  H       0.908312      4.173952      1.108100
  H       3.273876      3.986295      0.368588
  H       4.489884      1.847836      0.612953
  N      -1.609334     -1.673475     -0.145596
  N      -2.491648      0.374908     -0.457551
  N      -0.389855      1.573509     -0.759361
  N       1.570700      0.179534     -0.625049
  N       1.568253     -2.079728     -0.117114
  C      -0.536085     -0.815241     -0.347124
  C      -1.111116      0.458284     -0.537224
  C       0.864299     -0.930944     -0.389734
  C      -2.739474     -0.892335     -0.229151
  C       0.918964      1.345455     -0.790002
  H      -1.590709     -2.667601      0.023774
  H      -3.726323     -1.321792     -0.111364
  H       1.555582      2.206210     -0.937976
  H       2.573285     -2.049480     -0.242112
  H       1.125680     -2.984115     -0.136112
33
Coordinates from ORCA-job phenylurea_adenine_opt_freq E -923.134905740585
  N       5.784846      0.014481      1.719844
  C       4.744367     -0.880756      1.602296
  O       4.918012     -2.062530      1.295919
  N       3.469234     -0.401225      1.841075
  C       2.920503      0.897653      1.758659
  C       1.616376      1.059999      2.250157
  C       0.905063      2.235261      2.027603
  C       1.494947      3.286964      1.324295
  C       2.811822      3.157049      0.882827
  C       3.512801      1.959144      1.060080
  H       6.696755     -0.420316      1.715782
  H       5.677681      0.819889      2.321472
  H       2.792036     -1.154072      1.839049
  H       1.151286      0.242361      2.796817
  H      -0.116844      2.318229      2.383989
  H       0.935067      4.197351      1.133557
  H       3.290717      3.984720      0.366194
  H       4.503770      1.856310      0.633239
  N      -1.622652     -1.684298     -0.133771
  N      -2.507968      0.359522     -0.468884
  N      -0.406848      1.550669     -0.806157
  N       1.553386      0.155945     -0.677975
  N       1.550975     -2.096511     -0.129305
  C      -0.551561     -0.830995     -0.365668
  C      -1.128742      0.440429     -0.567581
  C       0.846619     -0.949393     -0.418734
  C      -2.752863     -0.903511     -0.215382
  C       0.901344      1.322914     -0.844201
  H      -1.602850     -2.674680      0.056366
  H      -3.738508     -1.329428     -0.076274
  H       1.543654      2.183501     -0.984944
  H       2.550478     -2.066684     -0.295446
  H       1.111259     -3.000569     -0.201759
33
Coordinates from ORCA-job phenylurea_adenine_opt_freq E -923.139112914799
  N       5.798584      0.024789      1.757608
  C       4.756336     -0.865096      1.616389
  O       4.929969     -2.039337      1.283368
  N       3.482932     -0.388253      1.869857
  C       2.939552      0.915768      1.796685
  C       1.629038      1.076339      2.272156
  C       0.924522      2.257461      2.054533
  C       1.521369      3.310252      1.359718
  C       2.829569      3.167540      0.900905
  C       3.532253      1.971549      1.089071
  H       6.710680     -0.409036      1.745329
  H       5.690322      0.823646      2.367409
  H       2.802209     -1.137863      1.833017
  H       1.148868      0.249416      2.790824
  H      -0.103814      2.333815      2.393402
  H       0.964211      4.220895      1.161868
  H       3.307699      3.980109      0.360060
  H       4.516348      1.859695      0.648970
  N      -1.638012     -1.694391     -0.121456
  N      -2.525768      0.345209     -0.476664
  N      -0.426457      1.528265     -0.850466
  N       1.531738      0.131267     -0.734830
  N       1.531553     -2.115256     -0.145506
  C      -0.569596     -0.847410     -0.384779
  C      -1.148138      0.422313     -0.596433
  C       0.826890     -0.968611     -0.451679
  C      -2.768124     -0.913105     -0.198551
  C       0.881366      1.300611     -0.898222
  H      -1.616585     -2.680520      0.089780
  H      -3.752348     -1.334597     -0.037517
  H       1.529176      2.160515     -1.033143
  H       2.522884     -2.083385     -0.358175
  H       1.094935     -3.015175     -0.280389
33
Coordinates from ORCA-job phenylurea_adenine_opt_freq E -923.141620959373
  N       5.813358      0.042264      1.800621
  C       4.775088     -0.848917      1.637901
  O       4.956537     -2.016470      1.287812
  N       3.498800     -0.379455      1.893567
  C       2.955979      0.926527      1.821428
  C       1.643116      1.087912      2.290602
  C       0.946285      2.275290      2.080383
  C       1.548290      3.330021      1.393032
  C       2.847557      3.174563      0.915109
  C       3.550136      1.979404      1.110202
  H       6.727699     -0.386418      1.788343
  H       5.696864      0.837556      2.413356
  H       2.819373     -1.128787      1.822657
  H       1.151731      0.253509      2.785980
  H      -0.086423      2.349901      2.406348
  H       0.994009      4.241919      1.192803
  H       3.324171      3.972792      0.351944
  H       4.527436      1.856967      0.657739
  N      -1.656237     -1.702577     -0.112355
  N      -2.544933      0.334608     -0.479983
  N      -0.447813      1.508804     -0.888998
  N       1.506492      0.107191     -0.792396
  N       1.509344     -2.135760     -0.170289
  C      -0.590579     -0.862510     -0.404073
  C      -1.169131      0.406492     -0.621248
  C       0.804421     -0.987189     -0.488356
  C      -2.785686     -0.919343     -0.181537
  C       0.859388      1.280280     -0.948434
  H      -1.632854     -2.684601      0.117372
  H      -3.768388     -1.335900      0.000250
  H       1.512079      2.139123     -1.079547
  H       2.493124     -2.100581     -0.419015
  H       1.074927     -3.029198     -0.358079
33
Coordinates from ORCA-job phenylurea_adenine_opt_freq E -923.143128548752
  N       5.830292      0.061727      1.850305
  C       4.799797     -0.834360      1.664923
  O       4.994258     -1.998490      1.312731
  N       3.516898     -0.373893      1.908737
  C       2.971009      0.931768      1.831534
  C       1.659726      1.095750      2.304468
  C       0.970337      2.289243      2.104563
  C       1.574535      3.346790      1.422729
  C       2.864689      3.180019      0.923668
  C       3.566334      1.984592      1.120289
  H       6.747394     -0.361005      1.851048
  H       5.698626      0.857256      2.459534
  H       2.842990     -1.125115      1.808261
  H       1.161754      0.256023      2.783810
  H      -0.064225      2.365952      2.424543
  H       1.022549      4.260774      1.225885
  H       3.338265      3.966336      0.341464
  H       4.536736      1.852105      0.655794
  N      -1.676496     -1.710096     -0.107612
  N      -2.566130      0.326590     -0.477112
  N      -0.472197      1.493345     -0.920292
  N       1.477661      0.086326     -0.849684
  N       1.486141     -2.154886     -0.210058
  C      -0.614097     -0.875639     -0.422891
  C      -1.192499      0.393544     -0.640315
  C       0.779180     -1.003352     -0.528790
  C      -2.805124     -0.924223     -0.164327
  C       0.834011      1.263533     -0.994009
  H      -1.650140     -2.688723      0.136137
  H      -3.785834     -1.336621      0.036602
  H       1.490111      2.121450     -1.124117
  H       2.465274     -2.115517     -0.478963
  H       1.052334     -3.043784     -0.425718
33
Coordinates from ORCA-job phenylurea_adenine_opt_freq E -923.144199701410
  N       5.845856      0.086800      1.897501
  C       4.827898     -0.821103      1.699987
  O       5.039259     -1.984020      1.355726
  N       3.535919     -0.370919      1.919931
  C       2.984933      0.932545      1.833380
  C       1.678391      1.101430      2.317546
  C       0.996974      2.301112      2.128853
  C       1.602048      3.361014      1.450331
  C       2.883081      3.183309      0.930022
  C       3.582251      1.986169      1.124282
  H       6.766972     -0.326444      1.917982
  H       5.695094      0.888270      2.494326
  H       2.870629     -1.126170      1.796554
  H       1.177088      0.259358      2.789059
  H      -0.037157      2.383847      2.449363
  H       1.052839      4.278221      1.261346
  H       3.353424      3.960063      0.332525
  H       4.546385      1.844008      0.649185
  N      -1.699267     -1.718043     -0.108654
  N      -2.588080      0.320158     -0.472335
  N      -0.497227      1.480259     -0.945796
  N       1.447371      0.066634     -0.904108
  N       1.460503     -2.174167     -0.262087
  C      -0.639423     -0.888154     -0.441392
  C      -1.216664      0.382255     -0.655282
  C       0.751857     -1.019253     -0.570238
  C      -2.826358     -0.928646     -0.151121
  C       0.807614      1.247991     -1.034681
  H      -1.670087     -2.694039      0.145233
  H      -3.805189     -1.337342      0.065778
  H       1.466130      2.104921     -1.166671
  H       2.436764     -2.131723     -0.540656
  H       1.024331     -3.060923     -0.482751
33
Coordinates from ORCA-job phenylurea_adenine_opt_freq E -923.145137923266
  N       5.864619      0.112612      1.951787
  C       4.860827     -0.807829      1.739916
  O       5.090989     -1.974457      1.423415
  N       3.558594     -0.367440      1.922177
  C       3.000432      0.932254      1.824788
  C       1.702216      1.107429      2.329679
  C       1.028145      2.312944      2.153908
  C       1.631210      3.374860      1.475048
  C       2.902356      3.187528      0.931547
  C       3.598569      1.987700      1.117902
  H       6.787842     -0.292608      2.007994
  H       5.689402      0.924335      2.527711
  H       2.903858     -1.128905      1.784751
  H       1.202315      0.266101      2.803761
  H      -0.002275      2.404563      2.484564
  H       1.084877      4.296308      1.299595
  H       3.368090      3.958104      0.322504
  H       4.556149      1.838044      0.631814
  N      -1.725052     -1.728573     -0.114731
  N      -2.612901      0.312600     -0.463401
  N      -0.526397      1.468436     -0.964910
  N       1.414041      0.048775     -0.957780
  N       1.431084     -2.193771     -0.328883
  C      -0.667608     -0.901154     -0.459911
  C      -1.243880      0.371137     -0.665158
  C       0.721260     -1.035481     -0.613923
  C      -2.850379     -0.935597     -0.139594
  C       0.776872      1.233495     -1.071874
  H      -1.692720     -2.702880      0.145213
  H      -3.827051     -1.341881      0.091100
  H       1.435547      2.090070     -1.210262
  H       2.403726     -2.149651     -0.616912
  H       0.989404     -3.079651     -0.538696
33
Coordinates from ORCA-job phenylurea_adenine_opt_freq E -923.146066266377
  N       5.879959      0.148136      1.995913
  C       4.894686     -0.793489      1.789988
  O       5.146991     -1.964292      1.508671
  N       3.581878     -0.365074      1.922602
  C       3.015380      0.929131      1.813887
  C       1.728839      1.113776      2.345836
  C       1.062944      2.325363      2.181559
  C       1.663951      3.386607      1.498328
  C       2.925309      3.189238      0.934087
  C       3.615653      1.984717      1.108814
  H       6.806227     -0.242714      2.090439
  H       5.679095      0.976119      2.539430
  H       2.938938     -1.135455      1.781490
  H       1.234068      0.278096      2.834740
  H       0.040001      2.429998      2.531876
  H       1.123013      4.314193      1.340219
  H       3.388123      3.957280      0.319547
  H       4.568094      1.828807      0.614172
  N      -1.754647     -1.741025     -0.129307
  N      -2.638024      0.305258     -0.457091
  N      -0.554252      1.456506     -0.978621
  N       1.381655      0.029369     -1.004738
  N       1.395693     -2.217951     -0.402993
  C      -0.697432     -0.915162     -0.479455
  C      -1.270906      0.359887     -0.672839
  C       0.688852     -1.054693     -0.656175
  C      -2.877035     -0.943425     -0.136899
  C       0.747056      1.216759     -1.102872
  H      -1.721122     -2.714646      0.132997
  H      -3.852461     -1.347498      0.102751
  H       1.404423      2.072920     -1.252190
  H       2.364438     -2.176377     -0.700471
  H       0.944776     -3.102940     -0.590558
33
Coordinates from ORCA-job phenylurea_adenine_opt_freq E -923.147051472214
  N       5.899473      0.181205      2.052247
  C       4.931627     -0.777651      1.841378
  O       5.205052     -1.957008      1.622909
  N       3.610264     -0.360426      1.907919
  C       3.033739      0.927847      1.791683
  C       1.763931      1.123254      2.361584
  C       1.104092      2.340053      2.210164
  C       1.698706      3.398796      1.515794
  C       2.949560      3.193826      0.929599
  C       3.632910      1.983236      1.084484
  H       6.822030     -0.198883      2.208206
  H       5.667880      1.027350      2.554086
  H       2.978680     -1.141116      1.776912
  H       1.282664      0.298307      2.880817
  H       0.095386      2.459401      2.595899
  H       1.164670      4.333941      1.381367
  H       3.408600      3.965540      0.316674
  H       4.579761      1.825362      0.580060
  N      -1.787059     -1.758258     -0.150173
  N      -2.667356      0.294151     -0.445129
  N      -0.587619      1.444511     -0.983530
  N       1.346513      0.012297     -1.048035
  N       1.355130     -2.243539     -0.490839
  C      -0.730326     -0.930410     -0.499978
  C      -1.302323      0.347388     -0.674630
  C       0.652695     -1.074576     -0.700731
  C      -2.906761     -0.957013     -0.135738
  C       0.711444      1.200355     -1.128643
  H      -1.752369     -2.732692      0.108828
  H      -3.880488     -1.361199      0.110578
  H       1.363090      2.057150     -1.296251
  H       2.317539     -2.206651     -0.805226
  H       0.893028     -3.127130     -0.649144
33
Coordinates from ORCA-job phenylurea_adenine_opt_freq E -923.147864024894
  N       5.909928      0.218044      2.085358
  C       4.958222     -0.762132      1.896636
  O       5.251845     -1.945449      1.729573
  N       3.632262     -0.357160      1.896673
  C       3.048873      0.926955      1.778174
  C       1.796966      1.135596      2.382820
  C       1.143091      2.357231      2.239263
  C       1.733041      3.408595      1.529596
  C       2.975805      3.195846      0.929697
  C       3.648023      1.977213      1.064405
  H       6.830169     -0.144824      2.288645
  H       5.655206      1.083263      2.541537
  H       3.008396     -1.146700      1.786291
  H       1.332434      0.326456      2.940363
  H       0.153029      2.492268      2.666262
  H       1.209881      4.352632      1.416396
  H       3.435733      3.974677      0.326379
  H       4.591707      1.817784      0.554314
  N      -1.817416     -1.776605     -0.177972
  N      -2.692765      0.282533     -0.438922
  N      -0.613616      1.431626     -0.983870
  N       1.318921     -0.005553     -1.075170
  N       1.315259     -2.272040     -0.567922
  C      -0.759481     -0.945882     -0.520781
  C      -1.329020      0.334576     -0.676291
  C       0.620583     -1.095402     -0.737610
  C      -2.934068     -0.971889     -0.144620
  C       0.683088      1.181990     -1.144742
  H      -1.784211     -2.752882      0.074092
  H      -3.907287     -1.376510      0.103123
  H       1.327834      2.038593     -1.333523
  H       2.270688     -2.243114     -0.901762
  H       0.841044     -3.152319     -0.703273
33
Coordinates from ORCA-job phenylurea_adenine_opt_freq E -923.148365076749
  N       5.920177      0.237331      2.125616
  C       4.975798     -0.750260      1.932580
  O       5.277951     -1.937482      1.815120
  N       3.650506     -0.350714      1.878983
  C       3.065062      0.933646      1.767146
  C       1.828700      1.151970      2.399279
  C       1.177479      2.376553      2.262798
  C       1.761044      3.420364      1.537234
  C       2.997115      3.203120      0.925567
  C       3.659703      1.977799      1.041078
  H       6.831204     -0.119736      2.375621
  H       5.648714      1.113483      2.550396
  H       3.028338     -1.143829      1.789537
  H       1.381599      0.356099      2.989059
  H       0.206434      2.521944      2.728154
  H       1.247552      4.371544      1.439948
  H       3.457193      3.989468      0.332151
  H       4.599080      1.817516      0.523603
  N      -1.839043     -1.795901     -0.199836
  N      -2.715105      0.267278     -0.427877
  N      -0.638899      1.419009     -0.982226
  N       1.294984     -0.017716     -1.096013
  N       1.284849     -2.294231     -0.629877
  C      -0.782813     -0.960465     -0.538930
  C      -1.353358      0.321304     -0.675640
  C       0.594310     -1.111050     -0.769513
  C      -2.954498     -0.990707     -0.147042
  C       0.655710      1.168160     -1.158329
  H      -1.805527     -2.774216      0.044100
  H      -3.925965     -1.397597      0.103968
  H       1.292250      2.024867     -1.367114
  H       2.232659     -2.270217     -0.985025
  H       0.800959     -3.169915     -0.761377
33
Coordinates from ORCA-job phenylurea_adenine_opt_freq E -923.148680231560
  N       5.924541      0.250692      2.150158
  C       4.983767     -0.742196      1.961704
  O       5.290939     -1.930074      1.866793
  N       3.660820     -0.344878      1.872256
  C       3.078796      0.942841      1.770279
  C       1.851987      1.168807      2.416199
  C       1.203798      2.396294      2.283938
  C       1.784811      3.432490      1.546520
  C       3.016159      3.210486      0.927353
  C       3.669357      1.979321      1.030640
  H       6.831025     -0.101338      2.422571
  H       5.645765      1.133961      2.555074
  H       3.036968     -1.138060      1.797294
  H       1.414910      0.380947      3.024030
  H       0.246483      2.548910      2.774415
  H       1.280135      4.389204      1.456114
  H       3.477710      4.000503      0.340035
  H       4.604545      1.814466      0.506877
  N      -1.853855     -1.812594     -0.216294
  N      -2.731421      0.252776     -0.421475
  N      -0.657741      1.406018     -0.985989
  N       1.276809     -0.029280     -1.112163
  N       1.263251     -2.312335     -0.668659
  C      -0.800058     -0.974280     -0.555776
  C      -1.371769      0.308328     -0.679043
  C       0.574989     -1.124098     -0.794820
  C      -2.968568     -1.007535     -0.148554
  C       0.635156      1.155711     -1.172525
  H      -1.819735     -2.792254      0.022189
  H      -3.938327     -1.415751      0.106880
  H       1.266426      2.011656     -1.395575
  H       2.204942     -2.289802     -1.040417
  H       0.771549     -3.181517     -0.816887
33
Coordinates from ORCA-job phenylurea_adenine_opt_freq E -923.148917917572
  N       5.928892      0.257955      2.176787
  C       4.989706     -0.736089      1.982530
  O       5.297671     -1.924563      1.902476
  N       3.669586     -0.337661      1.868604
  C       3.094286      0.954985      1.779354
  C       1.872816      1.186320      2.431868
  C       1.227857      2.416890      2.304614
  C       1.807946      3.446953      1.558627
  C       3.034521      3.220522      0.930774
  C       3.679321      1.984377      1.025325
  H       6.830919     -0.093055      2.464762
  H       5.645616      1.144770      2.570603
  H       3.042211     -1.128734      1.801547
  H       1.439499      0.400593      3.045256
  H       0.279527      2.574285      2.810476
  H       1.310326      4.407686      1.470050
  H       3.496099      4.010897      0.344111
  H       4.608516      1.812055      0.493140
  N      -1.865629     -1.828797     -0.227386
  N      -2.746172      0.237297     -0.414555
  N      -0.677192      1.392264     -0.994932
  N       1.257976     -0.040050     -1.132404
  N       1.245876     -2.327594     -0.696941
  C      -0.815864     -0.988793     -0.573109
  C      -1.389394      0.294374     -0.685161
  C       0.557555     -1.135806     -0.820191
  C      -2.979970     -1.024516     -0.145052
  C       0.614214      1.144769     -1.191662
  H      -1.829339     -2.809215      0.007794
  H      -3.947229     -1.433640      0.118242
  H       1.241948      1.999868     -1.425065
  H       2.183261     -2.302312     -1.080496
  H       0.748806     -3.188617     -0.876849
33
Coordinates from ORCA-job phenylurea_adenine_opt_freq E -923.149079080504
  N       5.933655      0.263519      2.199807
  C       4.995770     -0.730971      2.000565
  O       5.303661     -1.919613      1.926250
  N       3.677594     -0.330662      1.870320
  C       3.109128      0.965964      1.791420
  C       1.889979      1.201285      2.446256
  C       1.249236      2.435203      2.324626
  C       1.830312      3.461286      1.574390
  C       3.051615      3.230509      0.937014
  C       3.689340      1.990400      1.026569
  H       6.833534     -0.086668      2.495236
  H       5.647982      1.152579      2.586582
  H       3.047294     -1.119339      1.804107
  H       1.454163      0.413386      3.055218
  H       0.304558      2.596351      2.835972
  H       1.337526      4.424570      1.485199
  H       3.511739      4.018183      0.345794
  H       4.611781      1.809233      0.485370
  N      -1.876700     -1.842477     -0.234941
  N      -2.759355      0.223734     -0.410291
  N      -0.695822      1.379290     -1.008365
  N       1.238914     -0.050625     -1.156784
  N       1.230818     -2.340147     -0.719197
  C      -0.830980     -1.002497     -0.590045
  C      -1.405539      0.281111     -0.694202
  C       0.541441     -1.146634     -0.844695
  C      -2.990407     -1.038517     -0.140134
  C       0.594300      1.134752     -1.213977
  H      -1.837448     -2.823049     -0.000646
  H      -3.955082     -1.447677      0.132327
  H       1.220566      1.989169     -1.453470
  H       2.167841     -2.309492     -1.104551
  H       0.732750     -3.194739     -0.928584
33
Coordinates from ORCA-job phenylurea_adenine_opt_freq E -923.149185833990
  N       5.940095      0.270212      2.222160
  C       5.004523     -0.725249      2.018233
  O       5.312555     -1.914250      1.951579
  N       3.687548     -0.324328      1.873108
  C       3.123238      0.974293      1.800843
  C       1.906576      1.213343      2.459464
  C       1.270819      2.450686      2.344548
  C       1.853064      3.474644      1.592357
  C       3.068181      3.239772      0.944055
  C       3.699743      1.996251      1.029481
  H       6.837905     -0.078011      2.525964
  H       5.651165      1.161884      2.600253
  H       3.056169     -1.111645      1.804995
  H       1.466295      0.422540      3.061514
  H       0.327731      2.615666      2.857588
  H       1.363530      4.439762      1.504153
  H       3.525473      4.023768      0.345976
  H       4.615293      1.807124      0.479048
  N      -1.889322     -1.854453     -0.241802
  N      -2.773058      0.211891     -0.408043
  N      -0.715069      1.367690     -1.022953
  N       1.218550     -0.060970     -1.184798
  N       1.214894     -2.350932     -0.744648
  C      -0.847092     -1.015054     -0.606412
  C      -1.421946      0.268893     -0.704277
  C       0.524414     -1.157243     -0.869571
  C      -3.002161     -1.050407     -0.136357
  C       0.573815      1.125109     -1.237263
  H      -1.846793     -2.834924     -0.007508
  H      -3.964399     -1.459433      0.144678
  H       1.199131      1.979293     -1.481204
  H       2.154361     -2.314997     -1.124049
  H       0.718932     -3.203504     -0.967975
33
Coordinates from ORCA-job phenylurea_adenine_opt_freq E -923.149269590849
  N       5.948402      0.278662      2.244311
  C       5.015329     -0.718289      2.038784
  O       5.323531     -1.907883      1.983280
  N       3.699655     -0.317783      1.876473
  C       3.137446      0.981695      1.808579
  C       1.925074      1.225422      2.474182
  C       1.295320      2.466466      2.366693
  C       1.878467      3.488741      1.612613
  C       3.086412      3.249378      0.952191
  C       3.711310      2.002102      1.032997
  H       6.843737     -0.066288      2.558825
  H       5.655966      1.174428      2.609656
  H       3.068250     -1.104578      1.807679
  H       1.480477      0.433036      3.071034
  H       0.354046      2.636068      2.881601
  H       1.391846      4.455722      1.527825
  H       3.540250      4.029616      0.346797
  H       4.619778      1.805875      0.473065
  N      -1.904625     -1.867230     -0.250758
  N      -2.788994      0.199374     -0.408077
  N      -0.736427      1.355842     -1.038254
  N       1.195916     -0.072401     -1.215976
  N       1.196477     -2.361733     -0.776425
  C      -0.865401     -1.028054     -0.623561
  C      -1.440309      0.256074     -0.715451
  C       0.505008     -1.169188     -0.896068
  C      -3.016407     -1.062949     -0.135138
  C       0.551158      1.114094     -1.261652
  H      -1.858827     -2.847710     -0.017074
  H      -3.976296     -1.472173      0.153468
  H       1.175104      1.968308     -1.510747
  H       2.138664     -2.321342     -1.148066
  H       0.703825     -3.215883     -0.999669
33
Coordinates from ORCA-job phenylurea_adenine_opt_freq E -923.149329485611
  N       5.957571      0.287224      2.264161
  C       5.025928     -0.710741      2.059505
  O       5.333334     -1.901206      2.017948
  N       3.712107     -0.310721      1.879402
  C       3.150845      0.989260      1.814979
  C       1.944607      1.238279      2.490123
  C       1.321084      2.482924      2.389574
  C       1.904385      3.503261      1.632639
  C       3.105234      3.259321      0.960670
  C       3.723065      2.008012      1.036140
  H       6.849790     -0.054421      2.590768
  H       5.662532      1.188111      2.614393
  H       3.080551     -1.097436      1.813783
  H       1.497662      0.446511      3.086084
  H       0.382835      2.657317      2.908459
  H       1.420733      4.472251      1.553142
  H       3.555979      4.036735      0.349522
  H       4.625031      1.806217      0.467474
  N      -1.920636     -1.880753     -0.261430
  N      -2.805935      0.185976     -0.410211
  N      -0.758046      1.343982     -1.052262
  N       1.173522     -0.084067     -1.245928
  N       1.177464     -2.372784     -0.810229
  C      -0.883877     -1.040942     -0.640102
  C      -1.459188      0.243093     -0.726378
  C       0.485218     -1.181803     -0.921412
  C      -3.031748     -1.076702     -0.137711
  C       0.528257      1.102279     -1.284432
  H      -1.872201     -2.861486     -0.029421
  H      -3.989627     -1.486752      0.156348
  H       1.149995      1.956675     -1.539952
  H       2.120458     -2.330002     -1.178639
  H       0.687233     -3.230193     -1.023866
33
Coordinates from ORCA-job phenylurea_adenine_opt_freq E -923.149370817130
  N       5.966268      0.293694      2.278890
  C       5.033983     -0.703925      2.077326
  O       5.338975     -1.895454      2.048641
  N       3.722399     -0.303186      1.882742
  C       3.162371      0.997672      1.821707
  C       1.962883      1.252084      2.506694
  C       1.345331      2.500064      2.411598
  C       1.928400      3.518041      1.651037
  C       3.123189      3.269583      0.969579
  C       3.733977      2.014254      1.039898
  H       6.855619     -0.045846      2.615216
  H       5.670953      1.199811      2.615010
  H       3.089650     -1.089505      1.824351
  H       1.515326      0.462546      3.105156
  H       0.410703      2.678778      2.935575
  H       1.447759      4.489018      1.576997
  H       3.571906      4.045070      0.354630
  H       4.630512      1.808168      0.464065
  N      -1.935036     -1.894335     -0.272749
  N      -2.822038      0.172109     -0.414681
  N      -0.777880      1.332399     -1.064920
  N       1.153617     -0.095169     -1.271982
  N       1.160573     -2.383536     -0.840744
  C      -0.900284     -1.053111     -0.654920
  C      -1.476688      0.230482     -0.736820
  C       0.467428     -1.193984     -0.943467
  C      -3.045880     -1.091004     -0.142692
  C       0.507317      1.090511     -1.304577
  H      -1.884896     -2.875625     -0.043602
  H      -4.002113     -1.502322      0.154960
  H       1.126405      1.945056     -1.567039
  H       2.102113     -2.340559     -1.212120
  H       0.671318     -3.244362     -1.040620
33
Coordinates from ORCA-job phenylurea_adenine_opt_freq E -923.149404537867
  N       5.974230      0.296865      2.286681
  C       5.038765     -0.698511      2.090209
  O       5.339324     -1.891358      2.070920
  N       3.729306     -0.294917      1.887869
  C       3.171856      1.007530      1.830479
  C       1.978750      1.267180      2.524103
  C       1.366960      2.518277      2.432759
  C       1.949897      3.533548      1.668383
  C       3.139910      3.280530      0.979823
  C       3.743875      2.021420      1.045840
  H       6.861860     -0.042589      2.627426
  H       5.681783      1.207759      2.612093
  H       3.093873     -1.079981      1.840237
  H       1.531350      0.480634      3.126576
  H       0.435664      2.700681      2.961416
  H       1.472227      4.506354      1.598781
  H       3.587856      4.054477      0.362470
  H       4.636016      1.811683      0.464465
  N      -1.946848     -1.907647     -0.283229
  N      -2.836549      0.157882     -0.421475
  N      -0.795438      1.320837     -1.077411
  N       1.136679     -0.105737     -1.294305
  N       1.146902     -2.393798     -0.865316
  C      -0.913936     -1.064714     -0.667873
  C      -1.492172      0.218105     -0.747329
  C       0.452479     -1.205450     -0.961929
  C      -3.058312     -1.105812     -0.150495
  C       0.488910      1.078972     -1.322984
  H      -1.895849     -2.889605     -0.057295
  H      -4.013320     -1.518622      0.149073
  H       1.105367      1.933527     -1.592124
  H       2.085319     -2.352545     -1.244270
  H       0.657428     -3.257559     -1.050430
33
Coordinates from ORCA-job phenylurea_adenine_opt_freq E -923.149428961622
  N       5.980431      0.295255      2.284625
  C       5.039085     -0.695740      2.095418
  O       5.333227     -1.890177      2.079585
  N       3.730988     -0.286628      1.895725
  C       3.177908      1.018034      1.841530
  C       1.989277      1.282153      2.540658
  C       1.382441      2.535799      2.450775
  C       1.965859      3.548505      1.683415
  C       3.153132      3.291325      0.991241
  C       3.751518      2.029278      1.054814
  H       6.868395     -0.046829      2.621677
  H       5.694510      1.209793      2.605424
  H       3.091458     -1.069304      1.860829
  H       1.541881      0.498493      3.146823
  H       0.453026      2.720912      2.981819
  H       1.490669      4.522679      1.615977
  H       3.601805      4.063901      0.372748
  H       4.640857      1.816569      0.470258
  N      -1.954242     -1.919096     -0.291627
  N      -2.847294      0.144916     -0.430950
  N      -0.808260      1.310304     -1.089835
  N       1.125085     -0.114766     -1.310928
  N       1.138814     -2.402226     -0.879702
  C      -0.922764     -1.074668     -0.677693
  C      -1.503300      0.207135     -0.757667
  C       0.442814     -1.214869     -0.974627
  C      -3.066699     -1.118918     -0.158631
  C       0.475690      1.068918     -1.338699
  H      -1.903330     -2.901762     -0.068924
  H      -4.020906     -1.532921      0.141869
  H       1.090214      1.923339     -1.612831
  H       2.073604     -2.364061     -1.267624
  H       0.648266     -3.267927     -1.052333
33
Coordinates from ORCA-job phenylurea_adenine_opt_freq E -923.149456934035
  N       5.984609      0.288034      2.269879
  C       5.034331     -0.696168      2.091410
  O       5.319779     -1.892578      2.072254
  N       3.726619     -0.278441      1.907377
  C       3.179873      1.028879      1.855281
  C       1.993186      1.296626      2.556141
  C       1.390228      2.552108      2.465188
  C       1.975118      3.562635      1.696169
  C       3.161991      3.301788      1.004382
  C       3.756481      2.037888      1.067784
  H       6.875319     -0.059846      2.593335
  H       5.709598      1.204939      2.593292
  H       3.081674     -1.057441      1.886738
  H       1.545133      0.515487      3.165002
  H       0.460754      2.739050      2.995520
  H       1.501806      4.537653      1.628158
  H       3.613072      4.073054      0.386002
  H       4.644874      1.822938      0.482728
  N      -1.956401     -1.927868     -0.296236
  N      -2.853225      0.133973     -0.442859
  N      -0.815329      1.301024     -1.102646
  N       1.119863     -0.122104     -1.321228
  N       1.137231     -2.408333     -0.882096
  C      -0.925988     -1.082701     -0.683773
  C      -1.509039      0.197877     -0.767935
  C       0.439471     -1.221943     -0.980592
  C      -3.070826     -1.129781     -0.168567
  C       0.468779      1.060589     -1.351648
  H      -1.906362     -2.910996     -0.075459
  H      -4.024889     -1.544532      0.131383
  H       1.082382      1.914759     -1.628479
  H       2.068931     -2.374133     -1.277734
  H       0.645117     -3.275017     -1.045631
33
Coordinates from ORCA-job phenylurea_adenine_opt_freq E -923.149490253765
  N       5.986312      0.275406      2.242673
  C       5.024320     -0.699679      2.078970
  O       5.298714     -1.898422      2.050592
  N       3.716483     -0.270355      1.923272
  C       3.177805      1.039750      1.871524
  C       1.990457      1.310509      2.570303
  C       1.390279      2.567008      2.476007
  C       1.977871      3.575806      1.707006
  C       3.166436      3.311831      1.019542
  C       3.758776      2.047207      1.084859
  H       6.881473     -0.081370      2.543255
  H       5.726668      1.193379      2.575482
  H       3.065138     -1.044406      1.917321
  H       1.540738      0.531399      3.180474
  H       0.458932      2.755321      3.002598
  H       1.506068      4.551263      1.635795
  H       3.621589      4.081864      0.402553
  H       4.647979      1.830688      0.501800
  N      -1.953682     -1.934080     -0.297829
  N      -2.854226      0.125118     -0.457543
  N      -0.816650      1.292727     -1.116945
  N       1.120861     -0.128062     -1.326282
  N       1.141633     -2.412346     -0.874003
  C      -0.923911     -1.089114     -0.686987
  C      -1.509325      0.190074     -0.778865
  C       0.442254     -1.227007     -0.980955
  C      -3.069962     -1.137633     -0.177037
  C       0.468113      1.053700     -1.362933
  H      -1.904981     -2.917427     -0.077772
  H      -4.024173     -1.552348      0.122470
  H       1.081822      1.907607     -1.639970
  H       2.072198     -2.381803     -1.272721
  H       0.648149     -3.279186     -1.033514
33
Coordinates from ORCA-job phenylurea_adenine_opt_freq E -923.149513175206
  N       5.985772      0.261963      2.212219
  C       5.012868     -0.704482      2.063727
  O       5.276932     -1.905247      2.024619
  N       3.705040     -0.264236      1.939133
  C       3.173490      1.047829      1.885492
  C       1.983803      1.320760      2.580197
  C       1.384837      2.577356      2.481990
  C       1.975582      3.585266      1.714367
  C       3.166761      3.319277      1.032920
  C       3.758740      2.054881      1.100879
  H       6.884940     -0.103950      2.488960
  H       5.741462      1.179651      2.557142
  H       3.048274     -1.033578      1.944018
  H       1.531963      0.542850      3.190333
  H       0.451142      2.766787      3.004018
  H       1.505030      4.560959      1.639059
  H       3.626252      4.088551      0.418115
  H       4.649679      1.837719      0.520903
  N      -1.948273     -1.936844     -0.295799
  N      -2.851308      0.120042     -0.469591
  N      -0.813798      1.286860     -1.129581
  N       1.125802     -0.131920     -1.326913
  N       1.148672     -2.414133     -0.861201
  C      -0.918941     -1.093135     -0.687834
  C      -1.505722      0.184917     -0.787918
  C       0.448411     -1.229825     -0.977809
  C      -3.066453     -1.141699     -0.184058
  C       0.471787      1.049142     -1.371043
  H      -1.900308     -2.919784     -0.073742
  H      -4.021035     -1.555869      0.114978
  H       1.086180      1.902934     -1.646409
  H       2.081205     -2.384770     -1.255515
  H       0.655377     -3.280858     -1.022517
33
Coordinates from ORCA-job phenylurea_adenine_opt_freq E -923.149532656919
  N       5.984619      0.250731      2.185638
  C       5.002761     -0.708567      2.051087
  O       5.258185     -1.910927      2.003023
  N       3.695385     -0.259427      1.953809
  C       3.169331      1.053831      1.896665
  C       1.977388      1.329003      2.587563
  C       1.379079      2.585404      2.486310
  C       1.973091      3.592776      1.720491
  C       3.166416      3.325136      1.044521
  C       3.758313      2.061010      1.114455
  H       6.886337     -0.123257      2.442797
  H       5.753503      1.167466      2.542059
  H       3.034497     -1.024882      1.965650
  H       1.523298      0.551923      3.197160
  H       0.443900      2.776361      3.005109
  H       1.504259      4.568996      1.641833
  H       3.629881      4.094017      0.432119
  H       4.650710      1.843484      0.537018
  N      -1.943798     -1.938814     -0.294226
  N      -2.848179      0.116431     -0.479432
  N      -0.810975      1.281778     -1.141940
  N       1.130347     -0.135416     -1.327959
  N       1.154257     -2.415726     -0.851488
  C      -0.914881     -1.096664     -0.689690
  C      -1.502186      0.180538     -0.796517
  C       0.453688     -1.232497     -0.976109
  C      -3.062579     -1.143756     -0.186638
  C       0.475302      1.044982     -1.379136
  H      -1.895512     -2.921033     -0.069027
  H      -4.017055     -1.557040      0.113913
  H       1.090246      1.898822     -1.652625
  H       2.091191     -2.384510     -1.235108
  H       0.663348     -3.282756     -1.018185
33
Coordinates from ORCA-job phenylurea_adenine_opt_freq E -923.149546277970
  N       5.984302      0.244922      2.169837
  C       4.997338     -0.710475      2.044492
  O       5.247904     -1.913695      1.991383
  N       3.690386     -0.256664      1.963914
  C       3.166937      1.057009      1.902831
  C       1.973939      1.334304      2.591943
  C       1.376043      2.590639      2.489574
  C       1.972619      3.597779      1.725006
  C       3.166969      3.328737      1.052005
  C       3.758397      2.064406      1.122372
  H       6.886796     -0.134149      2.416947
  H       5.760759      1.160369      2.534479
  H       3.027511     -1.020110      1.978207
  H       1.518198      0.557845      3.201205
  H       0.441088      2.783204      3.008155
  H       1.505837      4.574875      1.645130
  H       3.633108      4.097638      0.441599
  H       4.651310      1.846735      0.545881
  N      -1.942140     -1.940280     -0.293287
  N      -2.846956      0.114219     -0.484398
  N      -0.810500      1.278140     -1.151374
  N       1.132043     -0.138332     -1.330112
  N       1.156169     -2.417339     -0.848010
  C      -0.913850     -1.099413     -0.692679
  C      -1.501107      0.177350     -0.802949
  C       0.455487     -1.235105     -0.976937
  C      -3.061239     -1.145148     -0.188174
  C       0.476208      1.041485     -1.386053
  H      -1.892238     -2.921393     -0.063628
  H      -4.015339     -1.557920      0.114269
  H       1.091189      1.895461     -1.658695
  H       2.097768     -2.382292     -1.219602
  H       0.669226     -3.285384     -1.020194
33
Coordinates from ORCA-job phenylurea_adenine_opt_freq E -923.149559801820
  N       5.985499      0.244257      2.165355
  C       4.996513     -0.709864      2.044096
  O       5.245290     -1.913404      1.989553
  N       3.689810     -0.254696      1.969682
  C       3.167032      1.059140      1.905749
  C       1.974667      1.338531      2.595353
  C       1.377773      2.595352      2.493795
  C       1.976036      3.602051      1.729559
  C       3.170003      3.331399      1.056627
  C       3.759852      2.066124      1.125909
  H       6.887439     -0.137164      2.411185
  H       5.764291      1.158584      2.534436
  H       3.026457     -1.017685      1.983843
  H       1.517909      0.562676      3.204705
  H       0.444578      2.789489      3.014941
  H       1.511558      4.580332      1.650661
  H       3.637494      4.100389      0.447348
  H       4.652113      1.848000      0.548624
  N      -1.943985     -1.942911     -0.295278
  N      -2.849086      0.111424     -0.487179
  N      -0.813668      1.274695     -1.158990
  N       1.129735     -0.141552     -1.335033
  N       1.154085     -2.419804     -0.851111
  C      -0.916457     -1.102393     -0.697576
  C      -1.503768      0.174104     -0.808478
  C       0.453047     -1.238388     -0.981236
  C      -3.062579     -1.147300     -0.187788
  C       0.473135      1.037638     -1.393264
  H      -1.891825     -2.923034     -0.061935
  H      -4.015862     -1.559951      0.117390
  H       1.087502      1.891751     -1.666712
  H       2.098604     -2.381138     -1.214751
  H       0.670970     -3.289234     -1.026341
33
Coordinates from ORCA-job phenylurea_adenine_opt_freq E -923.149566204963
  N       5.987396      0.244839      2.163463
  C       4.996889     -0.708432      2.044676
  O       5.244328     -1.912172      1.988861
  N       3.690493     -0.252402      1.974174
  C       3.168160      1.061807      1.908589
  C       1.977026      1.343171      2.599420
  C       1.381798      2.600988      2.499318
  C       1.981443      3.607058      1.734930
  C       3.174613      3.334477      1.060887
  C       3.762192      2.067861      1.128735
  H       6.888441     -0.138404      2.410052
  H       5.767247      1.157972      2.536376
  H       3.026904     -1.015293      1.987891
  H       1.519352      0.567928      3.208908
  H       0.450827      2.796473      3.023920
  H       1.519270      4.586587      1.657898
  H       3.642968      4.103402      0.452203
  H       4.653402      1.849023      0.550139
  N      -1.946910     -1.946418     -0.298231
  N      -2.852868      0.107578     -0.490249
  N      -0.818439      1.270923     -1.166017
  N       1.125942     -0.145044     -1.340571
  N       1.151147     -2.422541     -0.854492
  C      -0.920210     -1.105653     -0.702708
  C      -1.508099      0.170459     -0.813882
  C       0.449220     -1.241987     -0.985806
  C      -3.065513     -1.151007     -0.189678
  C       0.468399      1.033371     -1.400552
  H      -1.892423     -2.925516     -0.061166
  H      -4.018120     -1.563976      0.117202
  H       1.081821      1.887587     -1.675735
  H       2.096594     -2.381791     -1.215486
  H       0.670872     -3.293447     -1.029927
33
Coordinates from ORCA-job phenylurea_adenine_opt_freq E -923.149578080778
  N       5.989115      0.245026      2.161139
  C       4.996852     -0.707072      2.043686
  O       5.242688     -1.910966      1.984900
  N       3.690877     -0.249727      1.978160
  C       3.169317      1.065056      1.911928
  C       1.979227      1.347913      2.603561
  C       1.386103      2.607009      2.505006
  C       1.987038      3.612456      1.740608
  C       3.179425      3.337947      1.065305
  C       3.764659      2.070025      1.132027
  H       6.889260     -0.140425      2.407825
  H       5.770087      1.156383      2.539243
  H       3.026913     -1.012442      1.990647
  H       1.520392      0.573021      3.212610
  H       0.457143      2.803521      3.032799
  H       1.526911      4.593114      1.665641
  H       3.648430      4.106644      0.456854
  H       4.654963      1.850386      0.552397
  N      -1.949492     -1.950152     -0.301534
  N      -2.856902      0.103112     -0.494999
  N      -0.823098      1.267053     -1.172806
  N       1.122499     -0.148300     -1.345248
  N       1.149095     -2.424824     -0.855025
  C      -0.923433     -1.108771     -0.706984
  C      -1.512412      0.166735     -0.819338
  C       0.445953     -1.245176     -0.988874
  C      -3.068345     -1.155264     -0.192601
  C       0.463858      1.029225     -1.407388
  H      -1.892997     -2.928232     -0.060767
  H      -4.020499     -1.568645      0.115153
  H       1.076230      1.883587     -1.684473
  H       2.093976     -2.383838     -1.217584
  H       0.670326     -3.296960     -1.028731
33
Coordinates from ORCA-job phenylurea_adenine_opt_freq E -923.149582748526
  N       5.990529      0.244167      2.157250
  C       4.995919     -0.706086      2.040168
  O       5.239546     -1.910105      1.975735
  N       3.690541     -0.246490      1.982088
  C       3.170450      1.069126      1.916100
  C       1.980977      1.353100      2.607876
  C       1.390522      2.613757      2.511063
  C       1.992854      3.618656      1.747097
  C       3.184377      3.342255      1.070477
  C       3.767273      2.073140      1.136375
  H       6.889837     -0.144461      2.402324
  H       5.773318      1.152805      2.543144
  H       3.025788     -1.008711      1.991707
  H       1.520436      0.578173      3.215555
  H       0.463314      2.811266      3.041577
  H       1.534664      4.600381      1.674387
  H       3.653856      4.110556      0.461919
  H       4.656901      1.852569      0.556130
  N      -1.951475     -1.954186     -0.304518
  N      -2.861007      0.097804     -0.501783
  N      -0.827595      1.262699     -1.180070
  N       1.119560     -0.151384     -1.348957
  N       1.148261     -2.426566     -0.851849
  C      -0.925905     -1.112049     -0.710153
  C      -1.516484      0.162562     -0.825205
  C       0.443619     -1.247995     -0.990069
  C      -3.071191     -1.160388     -0.197577
  C       0.459576      1.025065     -1.414223
  H      -1.893241     -2.931043     -0.059214
  H      -4.023232     -1.574238      0.109903
  H       1.070678      1.879706     -1.693298
  H       2.091678     -2.387005     -1.218543
  H       0.669818     -3.299663     -1.022278
33
Coordinates from ORCA-job phenylurea_adenine_opt_freq E -923.149595805534
  N       5.990839      0.241289      2.150494
  C       4.993046     -0.706139      2.033113
  O       5.233515     -1.910264      1.959955
  N       3.688574     -0.243000      1.985889
  C       3.170999      1.073725      1.920901
  C       1.981370      1.358484      2.611865
  C       1.393890      2.620777      2.516799
  C       1.997891      3.625411      1.753959
  C       3.188738      3.347341      1.076493
  C       3.769598      2.077310      1.142025
  H       6.889492     -0.151810      2.391100
  H       5.776844      1.146151      2.547156
  H       3.022343     -1.004066      1.990656
  H       1.518534      0.583161      3.217227
  H       0.467857      2.819383      3.048972
  H       1.541498      4.608128      1.683379
  H       3.658725      4.115178      0.467767
  H       4.659131      1.855814      0.562048
  N      -1.952008     -1.958108     -0.306396
  N      -2.864330      0.091939     -0.510900
  N      -0.831095      1.258079     -1.187881
  N       1.118065     -0.153865     -1.350820
  N       1.149592     -2.427259     -0.844333
  C      -0.926723     -1.115262     -0.711447
  C      -1.519301      0.158101     -0.831379
  C       0.443277     -1.250056     -0.988654
  C      -3.073112     -1.165809     -0.203730
  C       0.456522      1.021342     -1.420641
  H      -1.892499     -2.933546     -0.055783
  H      -4.025372     -1.580077      0.102502
  H       1.066206      1.876452     -1.701498
  H       2.091446     -2.390312     -1.215461
  H       0.670611     -3.301077     -1.010239
33
Coordinates from ORCA-job phenylurea_adenine_opt_freq E -923.149604939217
  N       5.989828      0.237041      2.143295
  C       4.988714     -0.707084      2.023294
  O       5.225780     -1.911119      1.938833
  N       3.685393     -0.239805      1.987858
  C       3.171228      1.078299      1.924990
  C       1.981006      1.363571      2.614686
  C       1.396797      2.627572      2.521915
  C       2.002631      3.632300      1.760878
  C       3.192685      3.352893      1.082600
  C       3.771679      2.082136      1.147739
  H       6.887800     -0.161314      2.378118
  H       5.779410      1.137037      2.552993
  H       3.017139     -0.999163      1.984397
  H       1.515510      0.587518      3.217012
  H       0.471607      2.827555      3.055062
  H       1.548088      4.616041      1.692737
  H       3.663037      4.120368      0.473716
  H       4.661667      1.859793      0.568816
  N      -1.951413     -1.961933     -0.306948
  N      -2.867175      0.085558     -0.521512
  N      -0.834124      1.253385     -1.195686
  N       1.117557     -0.155365     -1.350642
  N       1.152716     -2.426620     -0.833579
  C      -0.926255     -1.118340     -0.710589
  C      -1.521186      0.153413     -0.837274
  C       0.444556     -1.251147     -0.984750
  C      -3.074500     -1.171604     -0.210910
  C       0.454177      1.018395     -1.426236
  H      -1.891050     -2.935751     -0.050246
  H      -4.027238     -1.586388      0.093101
  H       1.062058      1.874222     -1.709010
  H       2.093337     -2.392927     -1.208185
  H       0.672702     -3.301116     -0.993333
33
Coordinates from ORCA-job phenylurea_adenine_opt_freq E -923.149623114509
  N       5.986239      0.229813      2.134500
  C       4.981259     -0.709916      2.008326
  O       5.214202     -1.913519      1.907942
  N       3.679532     -0.237529      1.986855
  C       3.170040      1.082449      1.927422
  C       1.978456      1.367888      2.615070
  C       1.397641      2.633634      2.525301
  C       2.005877      3.639145      1.767165
  C       3.195518      3.358869      1.088668
  C       3.772912      2.087578      1.153308
  H       6.883347     -0.175338      2.361239
  H       5.780329      1.123049      2.561169
  H       3.008427     -0.994193      1.970120
  H       1.509892      0.590760      3.213593
  H       0.472817      2.835143      3.058525
  H       1.553456      4.624060      1.701848
  H       3.666503      4.126369      0.480317
  H       4.664443      1.864902      0.576893
  N      -1.948315     -1.965104     -0.304993
  N      -2.868670      0.078751     -0.534272
  N      -0.835899      1.249029     -1.203754
  N       1.119446     -0.154841     -1.346406
  N       1.159547     -2.423262     -0.816879
  C      -0.923197     -1.120619     -0.706362
  C      -1.521090      0.148854     -0.842833
  C       0.448977     -1.250346     -0.976404
  C      -3.074166     -1.177436     -0.218672
  C       0.453619      1.016965     -1.430183
  H      -1.887342     -2.936874     -0.040716
  H      -4.027567     -1.593033      0.082105
  H       1.059160      1.873863     -1.715030
  H       2.099836     -2.392779     -1.192492
  H       0.678934     -3.298914     -0.968232
33
Coordinates from ORCA-job phenylurea_adenine_opt_freq E -923.149647503279
  N       5.979770      0.220488      2.128425
  C       4.971457     -0.714384      1.990254
  O       5.200611     -1.917021      1.871271
  N       3.671557     -0.236959      1.980049
  C       3.167734      1.085434      1.926122
  C       1.974887      1.370804      2.611888
  C       1.397491      2.638267      2.526459
  C       2.008424      3.645042      1.772153
  C       3.197636      3.364481      1.093500
  C       3.773303      2.092646      1.156603
  H       6.875631     -0.191748      2.347561
  H       5.777485      1.105919      2.572902
  H       2.997150     -0.990050      1.944701
  H       1.503489      0.592409      3.206524
  H       0.472796      2.841296      3.059351
  H       1.558619      4.631384      1.710387
  H       3.669480      4.132648      0.486665
  H       4.667164      1.870265      0.583647
  N      -1.943190     -1.967590     -0.300477
  N      -2.869314      0.071671     -0.547068
  N      -0.837382      1.245470     -1.211131
  N       1.122874     -0.151709     -1.338327
  N       1.169344     -2.416782     -0.796361
  C      -0.918354     -1.121777     -0.699063
  C      -1.519791      0.144725     -0.847092
  C       0.455617     -1.247326     -0.964416
  C      -3.072503     -1.183384     -0.225871
  C       0.453823      1.017556     -1.431846
  H      -1.881578     -2.937115     -0.028182
  H      -4.026425     -1.600470      0.071159
  H       1.056286      1.875817     -1.719417
  H       2.110491     -2.388148     -1.169675
  H       0.689577     -3.294442     -0.937555
33
Coordinates from ORCA-job phenylurea_adenine_opt_freq E -923.149687100762
  N       5.964997      0.200993      2.119007
  C       4.950936     -0.724121      1.956473
  O       5.173170     -1.924358      1.804234
  N       3.654548     -0.238011      1.963205
  C       3.161419      1.089102      1.920245
  C       1.966806      1.374618      2.603239
  C       1.394943      2.644926      2.525916
  C       2.011225      3.654122      1.778814
  C       3.200529      3.373315      1.100874
  C       3.772776      2.100140      1.160037
  H       6.858423     -0.223319      2.324998
  H       5.768887      1.072922      2.592165
  H       2.974156     -0.983471      1.894352
  H       1.491099      0.594313      3.191954
  H       0.470018      2.849940      3.057639
  H       1.566547      4.643165      1.723068
  H       3.675124      4.143404      0.498632
  H       4.671182      1.879117      0.593606
  N      -1.931390     -1.970711     -0.289886
  N      -2.868668      0.059510     -0.567773
  N      -0.839118      1.240538     -1.223664
  N       1.130912     -0.143452     -1.320783
  N       1.189742     -2.402081     -0.757426
  C      -0.907833     -1.122057     -0.684760
  C      -1.515964      0.138584     -0.853350
  C       0.469411     -1.239835     -0.940808
  C      -3.066965     -1.193329     -0.235792
  C       0.455448      1.020564     -1.432428
  H      -1.867954     -2.936366     -0.004532
  H      -4.021121     -1.613943      0.055461
  H       1.052311      1.881148     -1.725143
  H       2.133747     -2.373374     -1.122872
  H       0.714817     -3.284574     -0.881563
33
Coordinates from ORCA-job phenylurea_adenine_opt_freq E -923.149762452561
  N       5.946289      0.177459      2.112863
  C       4.926461     -0.735665      1.921671
  O       5.140984     -1.932814      1.736791
  N       3.634121     -0.240160      1.939835
  C       3.153551      1.092545      1.910865
  C       1.958829      1.379315      2.592943
  C       1.393372      2.652821      2.525354
  C       2.015933      3.664040      1.786119
  C       3.205265      3.382642      1.109049
  C       3.772202      2.107129      1.161509
  H       6.836938     -0.258266      2.306660
  H       5.756052      1.037596      2.609350
  H       2.947303     -0.975960      1.837539
  H       1.479330      0.597576      3.176727
  H       0.467920      2.859609      3.055458
  H       1.577705      4.656330      1.736793
  H       3.684237      4.155278      0.513575
  H       4.674837      1.887607      0.601138
  N      -1.917383     -1.974453     -0.277106
  N      -2.867995      0.044933     -0.587357
  N      -0.842755      1.235016     -1.238215
  N       1.138917     -0.133040     -1.302377
  N       1.212559     -2.384326     -0.717248
  C      -0.896619     -1.122060     -0.670498
  C      -1.512643      0.131517     -0.859984
  C       0.483959     -1.230948     -0.916396
  C      -3.059823     -1.205469     -0.243407
  C       0.455546      1.024375     -1.433192
  H      -1.850791     -2.936489      0.019508
  H      -4.013110     -1.631032      0.043512
  H       1.045990      1.887203     -1.732557
  H       2.160519     -2.351614     -1.071388
  H       0.746462     -3.273279     -0.824397
33
Coordinates from ORCA-job phenylurea_adenine_opt_freq E -923.149897768060
  N       5.924389      0.151902      2.117899
  C       4.900924     -0.748885      1.897416
  O       5.108295     -1.944486      1.694247
  N       3.612674     -0.243695      1.907560
  C       3.145036      1.094912      1.895618
  C       1.954511      1.385325      2.582564
  C       1.395970      2.662147      2.526147
  C       2.025053      3.674047      1.793786
  C       3.213810      3.391361      1.116852
  C       3.772232      2.111684      1.157322
  H       6.812617     -0.290193      2.306995
  H       5.737724      1.011767      2.615583
  H       2.920099     -0.970198      1.784028
  H       1.473736      0.603651      3.165505
  H       0.469373      2.870032      3.053741
  H       1.594497      4.670016      1.750080
  H       3.699576      4.167155      0.531061
  H       4.676769      1.893167      0.599459
  N      -1.902984     -1.979357     -0.263330
  N      -2.868992      0.028798     -0.598060
  N      -0.851526      1.229454     -1.253313
  N       1.143342     -0.120784     -1.288989
  N       1.233439     -2.366031     -0.689901
  C      -0.887836     -1.122381     -0.661322
  C      -1.512746      0.123851     -0.865574
  C       0.495244     -1.222162     -0.899306
  C      -3.052126     -1.219563     -0.242931
  C       0.450419      1.029144     -1.434884
  H      -1.830704     -2.940102      0.035957
  H      -4.002200     -1.651813      0.044739
  H       1.034177      1.893428     -1.742877
  H       2.186734     -2.321164     -1.027657
  H       0.782636     -3.263609     -0.785276
33
Coordinates from ORCA-job phenylurea_adenine_opt_freq E -923.150054004662
  N       5.901514      0.125609      2.116249
  C       4.873301     -0.761861      1.871572
  O       5.072342     -1.955959      1.650244
  N       3.589450     -0.246537      1.879075
  C       3.134047      1.096997      1.881670
  C       1.947265      1.391046      2.572918
  C       1.396533      2.671865      2.527140
  C       2.033727      3.684643      1.802495
  C       3.223222      3.399546      1.126891
  C       3.772156      2.115098      1.154979
  H       6.787530     -0.322994      2.298915
  H       5.720229      0.985804      2.614749
  H       2.891188     -0.964660      1.739161
  H       1.463793      0.608988      3.153164
  H       0.468493      2.879964      3.052027
  H       1.611029      4.684230      1.763791
  H       3.717699      4.177999      0.551980
  H       4.677601      1.897090      0.598391
  N      -1.886584     -1.983326     -0.249446
  N      -2.868919      0.012473     -0.609602
  N      -0.859543      1.223838     -1.271295
  N       1.149177     -0.108359     -1.275744
  N       1.255614     -2.346850     -0.657246
  C      -0.877794     -1.121765     -0.654433
  C      -1.512519      0.116627     -0.873630
  C       0.507475     -1.212775     -0.881356
  C      -3.042392     -1.233473     -0.241705
  C       0.446223      1.033344     -1.438022
  H      -1.806516     -2.942220      0.053617
  H      -3.988893     -1.672357      0.047773
  H       1.024184      1.898685     -1.753909
  H       2.212821     -2.290510     -0.982133
  H       0.820708     -3.252783     -0.745141
33
Coordinates from ORCA-job phenylurea_adenine_opt_freq E -923.150315714837
  N       5.867519      0.085917      2.105134
  C       4.830675     -0.780200      1.829417
  O       5.015977     -1.971243      1.578892
  N       3.553518     -0.249503      1.841476
  C       3.115353      1.100352      1.863305
  C       1.933096      1.399157      2.558937
  C       1.395712      2.686523      2.528509
  C       2.046321      3.700521      1.817479
  C       3.237599      3.410957      1.145127
  C       3.771580      2.119379      1.154913
  H       6.750257     -0.373124      2.275510
  H       5.696034      0.945184      2.607984
  H       2.847364     -0.955855      1.680494
  H       1.442677      0.615306      3.130762
  H       0.465273      2.894370      3.049249
  H       1.634831      4.705039      1.786097
  H       3.746424      4.192313      0.586856
  H       4.677004      1.900994      0.598680
  N      -1.860126     -1.987998     -0.228362
  N      -2.867637     -0.013007     -0.630758
  N      -0.869660      1.214163     -1.301610
  N       1.159506     -0.089772     -1.255733
  N       1.290308     -2.315409     -0.598016
  C      -0.861195     -1.119944     -0.645343
  C      -1.511645      0.105513     -0.889216
  C       0.527075     -1.197113     -0.851688
  C      -3.026011     -1.254509     -0.241401
  C       0.441470      1.038296     -1.444705
  H      -1.766653     -2.942711      0.083766
  H      -3.967452     -1.702584      0.050552
  H       1.011735      1.904893     -1.770956
  H       2.250129     -2.246191     -0.913782
  H       0.877105     -3.232295     -0.678431
33
Coordinates from ORCA-job phenylurea_adenine_opt_freq E -923.150633419935
  N       5.825438      0.040405      2.075212
  C       4.776466     -0.797729      1.767204
  O       4.944600     -1.982362      1.473591
  N       3.507059     -0.249427      1.801074
  C       3.090612      1.105558      1.843365
  C       1.911775      1.409541      2.541143
  C       1.395074      2.706368      2.532301
  C       2.066003      3.722299      1.843699
  C       3.259993      3.425754      1.176869
  C       3.772378      2.124635      1.161193
  H       6.705499     -0.431107      2.221603
  H       5.668622      0.894524      2.590782
  H       2.795959     -0.937245      1.617312
  H       1.407937      0.621893      3.095523
  H       0.461575      2.914312      3.047589
  H       1.670004      4.733293      1.823781
  H       3.789814      4.209946      0.642516
  H       4.677024      1.904551      0.604818
  N      -1.825843     -1.994530     -0.205271
  N      -2.864572     -0.050613     -0.670741
  N      -0.880383      1.196958     -1.346550
  N       1.176856     -0.064114     -1.222774
  N       1.324624     -2.279405     -0.504065
  C      -0.838269     -1.118416     -0.634638
  C      -1.508726      0.087719     -0.915681
  C       0.553505     -1.177010     -0.806043
  C      -3.004544     -1.284722     -0.251637
  C       0.437958      1.043158     -1.453704
  H      -1.715028     -2.942168      0.122269
  H      -3.940954     -1.743944      0.039169
  H       0.997250      1.911253     -1.793453
  H       2.287508     -2.206975     -0.812489
  H       0.928946     -3.204980     -0.580828
33
Coordinates from ORCA-job phenylurea_adenine_opt_freq E -923.150885227513
  N       5.783826     -0.008996      2.041794
  C       4.720610     -0.813557      1.699778
  O       4.868469     -1.987675      1.354537
  N       3.460462     -0.246683      1.763989
  C       3.068142      1.113321      1.827031
  C       1.891307      1.422365      2.524384
  C       1.394615      2.727398      2.536105
  C       2.084929      3.744963      1.869706
  C       3.281037      3.441816      1.208790
  C       3.773409      2.132744      1.170872
  H       6.659761     -0.495760      2.158029
  H       5.644822      0.833139      2.581100
  H       2.741741     -0.911939      1.550216
  H       1.373898      0.631641      3.061416
  H       0.457877      2.936693      3.044964
  H       1.704117      4.761926      1.861107
  H       3.829731      4.227867      0.696585
  H       4.679235      1.911343      0.617309
  N      -1.792004     -2.001939     -0.181950
  N      -2.859218     -0.091598     -0.714875
  N      -0.887852      1.176040     -1.390945
  N       1.194422     -0.039588     -1.186488
  N       1.357978     -2.241602     -0.409897
  C      -0.814225     -1.118227     -0.619740
  C      -1.502782      0.066911     -0.941510
  C       0.580648     -1.156607     -0.757312
  C      -2.982734     -1.317030     -0.266200
  C       0.436418      1.045396     -1.461461
  H      -1.666852     -2.941403      0.163410
  H      -3.914819     -1.787323      0.020802
  H       0.983897      1.915222     -1.814904
  H       2.325379     -2.166724     -0.705804
  H       0.977917     -3.174717     -0.477701
33
Coordinates from ORCA-job phenylurea_adenine_opt_freq E -923.151285332092
  N       5.747625     -0.053571      2.025596
  C       4.675611     -0.831268      1.652945
  O       4.808731     -1.996570      1.272860
  N       3.423292     -0.249711      1.728814
  C       3.049508      1.116737      1.812322
  C       1.875946      1.430119      2.511001
  C       1.391838      2.739923      2.535988
  C       2.093771      3.758057      1.882894
  C       3.291311      3.450985      1.226215
  C       3.770912      2.137195      1.174378
  H       6.618084     -0.552771      2.127716
  H       5.619011      0.779503      2.580945
  H       2.693321     -0.902423      1.485557
  H       1.350488      0.637900      3.037831
  H       0.453318      2.950295      3.041111
  H       1.722834      4.778714      1.881020
  H       3.851431      4.238141      0.728212
  H       4.677802      1.914964      0.623079
  N      -1.764649     -2.003878     -0.157805
  N      -2.852692     -0.118625     -0.737405
  N      -0.891818      1.163567     -1.421009
  N       1.203637     -0.023538     -1.169067
  N       1.399160     -2.199353     -0.347706
  C      -0.795058     -1.116377     -0.606678
  C      -1.497017      0.053994     -0.956751
  C       0.601594     -1.138303     -0.726165
  C      -2.963474     -1.336727     -0.265607
  C       0.435049      1.046428     -1.470258
  H      -1.628676     -2.936125      0.202620
  H      -3.891238     -1.814385      0.023250
  H       0.975821      1.917469     -1.831498
  H       2.366254     -2.110267     -0.640543
  H       1.042435     -3.142683     -0.400723
33
Coordinates from ORCA-job phenylurea_adenine_opt_freq E -923.151649549643
  N       5.742595     -0.097306      1.924512
  C       4.630191     -0.843953      1.607232
  O       4.711182     -2.004796      1.200507
  N       3.396705     -0.239962      1.771443
  C       3.034903      1.131998      1.849502
  C       1.850346      1.450366      2.532444
  C       1.369319      2.760475      2.541078
  C       2.078198      3.776513      1.893303
  C       3.285015      3.464823      1.255191
  C       3.765883      2.151615      1.215776
  H       6.604185     -0.620978      1.966264
  H       5.664716      0.717549      2.516027
  H       2.636159     -0.892311      1.561902
  H       1.309658      0.659954      3.046127
  H       0.427057      2.975556      3.037474
  H       1.701321      4.794712      1.881790
  H       3.852357      4.247785      0.758718
  H       4.672112      1.922868      0.666428
  N      -1.744909     -2.003297     -0.144641
  N      -2.835651     -0.134602     -0.776111
  N      -0.864530      1.145670     -1.445626
  N       1.222226     -0.033286     -1.164729
  N       1.445145     -2.165507     -0.286141
  C      -0.773481     -1.120107     -0.596804
  C      -1.478946      0.041399     -0.978637
  C       0.625511     -1.130823     -0.702521
  C      -2.946017     -1.345969     -0.284006
  C       0.459048      1.029832     -1.487077
  H      -1.611580     -2.928428      0.234939
  H      -3.878011     -1.819470     -0.002197
  H       1.008397      1.899691     -1.839675
  H       2.407225     -2.092061     -0.604875
  H       1.087832     -3.110533     -0.324479
33
Coordinates from ORCA-job phenylurea_adenine_opt_freq E -923.152400164574
  N       5.711463     -0.129252      1.856376
  C       4.582052     -0.846935      1.533308
  O       4.638528     -1.988947      1.070728
  N       3.361769     -0.236150      1.760777
  C       3.019590      1.138335      1.853015
  C       1.830038      1.460755      2.525409
  C       1.361819      2.774793      2.544378
  C       2.086492      3.792201      1.915745
  C       3.296701      3.475896      1.288172
  C       3.766071      2.159278      1.240749
  H       6.567103     -0.664296      1.849612
  H       5.658501      0.653415      2.492530
  H       2.592563     -0.865750      1.527501
  H       1.274462      0.669473      3.021710
  H       0.417296      2.995248      3.034225
  H       1.719638      4.814087      1.911709
  H       3.876372      4.259054      0.806420
  H       4.677275      1.928842      0.700374
  N      -1.721713     -2.007880     -0.131407
  N      -2.819625     -0.167885     -0.828802
  N      -0.852668      1.124536     -1.480203
  N       1.244380     -0.020594     -1.128679
  N       1.465341     -2.137499     -0.191933
  C      -0.750525     -1.122170     -0.578296
  C      -1.460453      0.021486     -1.002400
  C       0.650989     -1.118097     -0.654612
  C      -2.927154     -1.369537     -0.313558
  C       0.473853      1.025889     -1.492266
  H      -1.587944     -2.923445      0.270588
  H      -3.860096     -1.848235     -0.044038
  H       1.016731      1.897025     -1.850880
  H       2.436980     -2.072822     -0.481350
  H       1.108331     -3.083402     -0.201765
33
Coordinates from ORCA-job phenylurea_adenine_opt_freq E -923.153073166744
  N       5.689377     -0.149613      1.689818
  C       4.521619     -0.832528      1.436980
  O       4.514109     -1.950184      0.912300
  N       3.339497     -0.216100      1.810639
  C       3.014630      1.157896      1.901069
  C       1.809140      1.486604      2.545819
  C       1.346908      2.800658      2.557598
  C       2.088943      3.817356      1.946723
  C       3.304921      3.496632      1.341545
  C       3.768996      2.179909      1.303795
  H       6.525858     -0.703980      1.579650
  H       5.708985      0.571500      2.396986
  H       2.556721     -0.821363      1.612573
  H       1.230808      0.698208      3.020989
  H       0.400438      3.033442      3.038108
  H       1.726351      4.840710      1.942844
  H       3.894283      4.277225      0.867318
  H       4.686609      1.944877      0.776679
  N      -1.706008     -2.023035     -0.145558
  N      -2.786943     -0.203921     -0.914393
  N      -0.813972      1.092914     -1.512843
  N       1.282749     -0.025399     -1.083409
  N       1.460798     -2.134932     -0.074751
  C      -0.724039     -1.137035     -0.563202
  C      -1.421960     -0.008061     -1.035924
  C       0.681192     -1.122040     -0.599303
  C      -2.907947     -1.397388     -0.385517
  C       0.514231      1.008773     -1.497449
  H      -1.589338     -2.930390      0.279662
  H      -3.849055     -1.876287     -0.146852
  H       1.056772      1.879839     -1.853771
  H       2.453813     -2.098742     -0.285286
  H       1.075675     -3.068124     -0.039696
33
Coordinates from ORCA-job phenylurea_adenine_opt_freq E -923.153342559956
  N       5.644460     -0.206429      1.615444
  C       4.450779     -0.844882      1.372069
  O       4.396572     -1.944406      0.811324
  N       3.296348     -0.210488      1.800280
  C       2.994847      1.169073      1.906175
  C       1.788976      1.505061      2.546033
  C       1.339334      2.823655      2.564141
  C       2.095970      3.839429      1.969841
  C       3.317418      3.512492      1.377564
  C       3.768470      2.190156      1.329659
  H       6.462371     -0.777309      1.458638
  H       5.704644      0.490369      2.344519
  H       2.492625     -0.798246      1.606888
  H       1.198432      0.717709      3.007650
  H       0.389665      3.059187      3.036723
  H       1.741749      4.865689      1.969519
  H       3.921006      4.292469      0.920531
  H       4.687272      1.952234      0.806409
  N      -1.671915     -2.029370     -0.127358
  N      -2.765897     -0.244190     -0.957202
  N      -0.798786      1.067819     -1.549921
  N       1.302889     -0.012807     -1.056853
  N       1.501587     -2.086730      0.006068
  C      -0.695298     -1.139335     -0.550033
  C      -1.402266     -0.030831     -1.060091
  C       0.710317     -1.103850     -0.557603
  C      -2.878386     -1.427512     -0.403302
  C       0.528650      0.999727     -1.506949
  H      -1.548747     -2.927804      0.314622
  H      -3.816645     -1.915010     -0.170765
  H       1.067081      1.870818     -1.869461
  H       2.498434     -2.043732     -0.192479
  H       1.132207     -3.025539      0.061062
33
Coordinates from ORCA-job phenylurea_adenine_opt_freq E -923.151619575077
  N       5.687457     -0.199099      1.695057
  C       4.502334     -0.856886      1.469402
  O       4.463717     -1.999014      1.003376
  N       3.327171     -0.206090      1.801549
  C       3.007928      1.180069      1.899599
  C       1.824573      1.523674      2.575700
  C       1.374696      2.845666      2.588533
  C       2.120900      3.850850      1.967684
  C       3.332130      3.521103      1.346355
  C       3.773146      2.190800      1.291332
  H       6.511501     -0.779253      1.615665
  H       5.720300      0.553451      2.370086
  H       2.514057     -0.846305      1.699692
  H       1.242511      0.740963      3.055546
  H       0.439182      3.078956      3.087547
  H       1.762405      4.875965      1.972672
  H       3.921809      4.297044      0.866141
  H       4.667225      1.943003      0.731645
  N      -1.706807     -2.050741     -0.168672
  N      -2.823217     -0.235009     -0.911139
  N      -0.847459      1.078607     -1.519633
  N       1.245449     -0.030273     -1.118579
  N       1.505206     -2.082005     -0.119927
  C      -0.740117     -1.148552     -0.595911
  C      -1.462692     -0.022989     -1.048444
  C       0.666029     -1.113677     -0.623573
  C      -2.920126     -1.436892     -0.390999
  C       0.471491      0.989247     -1.517820
  H      -1.565709     -2.956823      0.251707
  H      -3.851109     -1.934195     -0.148901
  H       1.013771      1.858099     -1.886355
  H       2.503066     -2.007339     -0.344660
  H       1.173342     -3.034936     -0.071534
33
Coordinates from ORCA-job phenylurea_adenine_opt_freq E -923.153613591096
  N       5.679636     -0.166642      1.673500
  C       4.502307     -0.830547      1.424803
  O       4.476455     -1.949458      0.902408
  N       3.326507     -0.201584      1.794630
  C       3.014225      1.177141      1.905443
  C       1.822207      1.519185      2.566803
  C       1.381449      2.841447      2.592882
  C       2.136968      3.849216      1.987988
  C       3.344625      3.518158      1.371826
  C       3.780425      2.191140      1.311913
  H       6.509464     -0.730807      1.560145
  H       5.709368      0.554804      2.380338
  H       2.531901     -0.815816      1.639203
  H       1.231353      0.734697      3.033075
  H       0.442648      3.081442      3.084043
  H       1.788033      4.877482      1.998860
  H       3.940958      4.294820      0.900641
  H       4.683083      1.944262      0.764941
  N      -1.709793     -2.053506     -0.168247
  N      -2.810977     -0.250154     -0.949407
  N      -0.842900      1.063391     -1.544062
  N       1.261269     -0.028469     -1.096249
  N       1.462078     -2.111372     -0.059337
  C      -0.736802     -1.156506     -0.587145
  C      -1.447874     -0.038667     -1.065760
  C       0.669306     -1.123100     -0.602015
  C      -2.918699     -1.443942     -0.417075
  C       0.482908      0.988717     -1.523359
  H      -1.580736     -2.956824      0.261819
  H      -3.854072     -1.936364     -0.182977
  H       1.017987      1.858925     -1.895298
  H       2.464840     -2.062965     -0.237756
  H       1.096016     -3.050687     -0.003437
33
Coordinates from ORCA-job phenylurea_adenine_opt_freq E -923.153846026951
  N       5.652404     -0.194129      1.609410
  C       4.454648     -0.832174      1.391926
  O       4.390633     -1.943270      0.854103
  N       3.305164     -0.187596      1.815550
  C       3.008893      1.192688      1.924552
  C       1.814730      1.540653      2.579686
  C       1.381904      2.865141      2.606233
  C       2.147339      3.872147      2.009933
  C       3.357122      3.534420      1.401855
  C       3.786333      2.205364      1.340607
  H       6.466085     -0.771934      1.455870
  H       5.721766      0.511395      2.329409
  H       2.499533     -0.783960      1.674368
  H       1.216229      0.758799      3.040665
  H       0.441349      3.109445      3.092149
  H       1.805396      4.902698      2.021088
  H       3.962119      4.308811      0.937686
  H       4.690771      1.956176      0.797912
  N      -1.693118     -2.065081     -0.165138
  N      -2.797224     -0.278935     -0.979700
  N      -0.835029      1.042382     -1.573456
  N       1.272991     -0.031781     -1.088417
  N       1.473927     -2.104355     -0.025319
  C      -0.721770     -1.167326     -0.585816
  C      -1.434416     -0.059928     -1.086522
  C       0.683693     -1.125186     -0.586849
  C      -2.902986     -1.466062     -0.432721
  C       0.492499      0.975861     -1.538587
  H      -1.563374     -2.963613      0.274617
  H      -3.837549     -1.961098     -0.201092
  H       1.025704      1.845192     -1.913649
  H       2.477469     -2.052643     -0.192463
  H       1.110924     -3.044681      0.035248
33
Coordinates from ORCA-job phenylurea_adenine_opt_freq E -923.154043904550
  N       5.639784     -0.195521      1.605614
  C       4.442189     -0.824967      1.367026
  O       4.380999     -1.926798      0.808200
  N       3.291215     -0.184404      1.791675
  C       3.005657      1.198362      1.917188
  C       1.818219      1.553255      2.579466
  C       1.405691      2.884325      2.625275
  C       2.184909      3.887950      2.041746
  C       3.388369      3.542008      1.424027
  C       3.795251      2.206769      1.343775
  H       6.453474     -0.772675      1.448814
  H       5.704035      0.496228      2.339368
  H       2.482033     -0.777648      1.638922
  H       1.207592      0.773131      3.027242
  H       0.470379      3.135513      3.117663
  H       1.857681      4.923023      2.069725
  H       4.000458      4.313800      0.965204
  H       4.693327      1.950309      0.793802
  N      -1.693786     -2.082245     -0.170502
  N      -2.810249     -0.317526     -1.015273
  N      -0.854190      1.018584     -1.601406
  N       1.260771     -0.026575     -1.082658
  N       1.471014     -2.080437      0.008921
  C      -0.728436     -1.176838     -0.589767
  C      -1.448928     -0.083767     -1.109143
  C       0.677058     -1.119315     -0.574105
  C      -2.907832     -1.500339     -0.457309
  C       0.473174      0.964692     -1.553584
  H      -1.557844     -2.972841      0.283274
  H      -3.838646     -2.005047     -0.231365
  H       0.997537      1.834220     -1.941583
  H       2.479295     -2.026517     -0.137405
  H       1.113962     -3.021290      0.090312
33
Coordinates from ORCA-job phenylurea_adenine_opt_freq E -923.154263052186
  N       5.636341     -0.198369      1.614500
  C       4.434282     -0.817469      1.372154
  O       4.366187     -1.919735      0.815136
  N       3.286984     -0.167655      1.791831
  C       3.012931      1.216836      1.924472
  C       1.834292      1.579812      2.596384
  C       1.438609      2.915702      2.654999
  C       2.225068      3.914260      2.075876
  C       3.419045      3.559941      1.447329
  C       3.809176      2.220689      1.353395
  H       6.445823     -0.782076      1.460687
  H       5.704185      0.495829      2.345553
  H       2.472407     -0.754975      1.640414
  H       1.217821      0.802744      3.041284
  H       0.508522      3.173135      3.154146
  H       1.910146      4.952806      2.114420
  H       4.035199      4.328442      0.988556
  H       4.699754      1.958039      0.794431
  N      -1.701396     -2.105747     -0.181673
  N      -2.830225     -0.352928     -1.034724
  N      -0.882965      0.992015     -1.631884
  N       1.239670     -0.035975     -1.105609
  N       1.461809     -2.085482     -0.004787
  C      -0.742456     -1.196179     -0.607329
  C      -1.470730     -0.110958     -1.132048
  C       0.662537     -1.130410     -0.590816
  C      -2.919425     -1.533306     -0.470185
  C       0.444706      0.945954     -1.583553
  H      -1.558434     -2.992755      0.276887
  H      -3.846402     -2.043217     -0.240173
  H       0.960882      1.815260     -1.982800
  H       2.469655     -2.028747     -0.154508
  H       1.110162     -3.028063      0.080774
33
Coordinates from ORCA-job phenylurea_adenine_opt_freq E -923.154505538109
  N       5.632987     -0.200670      1.627727
  C       4.427919     -0.812947      1.383127
  O       4.357181     -1.921880      0.840135
  N       3.282690     -0.149312      1.784605
  C       3.022550      1.237071      1.926106
  C       1.851916      1.606134      2.610102
  C       1.473752      2.945718      2.686121
  C       2.270769      3.941580      2.113523
  C       3.455357      3.578346      1.465438
  C       3.826324      2.235428      1.354712
  H       6.438564     -0.792036      1.483674
  H       5.703136      0.503521      2.348774
  H       2.462571     -0.728010      1.641061
  H       1.228198      0.833666      3.052721
  H       0.549386      3.209375      3.192798
  H       1.970640      4.983735      2.167719
  H       4.074460      4.342085      1.002668
  H       4.707869      1.966011      0.784687
  N      -1.711397     -2.133860     -0.196057
  N      -2.853084     -0.393920     -1.058302
  N      -0.916350      0.966574     -1.654107
  N       1.213457     -0.039876     -1.120605
  N       1.452409     -2.087948     -0.020610
  C      -0.759569     -1.216755     -0.620700
  C      -1.495341     -0.140007     -1.151557
  C       0.645142     -1.138780     -0.604769
  C      -2.933690     -1.573234     -0.490530
  C       0.412310      0.932904     -1.606297
  H      -1.563987     -3.018501      0.265622
  H      -3.856510     -2.091081     -0.261537
  H       0.920061      1.802182     -2.017382
  H       2.459939     -2.026439     -0.173463
  H       1.104505     -3.031656      0.067737
33
Coordinates from ORCA-job phenylurea_adenine_opt_freq E -923.154717107094
  N       5.619833     -0.204543      1.615374
  C       4.408242     -0.805789      1.374727
  O       4.326417     -1.912188      0.827623
  N       3.271399     -0.132266      1.782377
  C       3.027618      1.255575      1.934829
  C       1.863309      1.633035      2.624484
  C       1.503677      2.976705      2.715539
  C       2.313838      3.967946      2.153291
  C       3.489102      3.595043      1.494920
  C       3.841393      2.248938      1.369571
  H       6.418937     -0.802578      1.463194
  H       5.701542      0.497061      2.337709
  H       2.443287     -0.700141      1.639822
  H       1.230104      0.865159      3.061605
  H       0.584071      3.248806      3.226538
  H       2.029917      5.013877      2.219994
  H       4.115210      4.353841      1.033470
  H       4.716767      1.973147      0.792995
  N      -1.715737     -2.158903     -0.206054
  N      -2.866580     -0.435876     -1.089470
  N      -0.938626      0.934523     -1.688123
  N       1.196687     -0.047930     -1.132514
  N       1.445793     -2.085073     -0.013730
  C      -0.769282     -1.237829     -0.632856
  C      -1.510242     -0.172177     -1.177760
  C       0.634862     -1.147097     -0.611276
  C      -2.941029     -1.610712     -0.511912
  C       0.390485      0.913075     -1.634110
  H      -1.564766     -3.038390      0.264297
  H      -3.860778     -2.133852     -0.282647
  H       0.891268      1.781834     -2.054788
  H       2.453666     -2.015459     -0.154757
  H       1.103779     -3.030343      0.080777
33
Coordinates from ORCA-job phenylurea_adenine_opt_freq E -923.154951106420
  N       5.609558     -0.204917      1.622925
  C       4.395031     -0.796011      1.370703
  O       4.310266     -1.901452      0.821867
  N       3.260736     -0.112212      1.766089
  C       3.035157      1.276663      1.936522
  C       1.880509      1.663355      2.636964
  C       1.545358      3.012055      2.751482
  C       2.372073      3.997834      2.203179
  C       3.532883      3.614120      1.526704
  C       3.860653      2.264301      1.378803
  H       6.404523     -0.809793      1.476249
  H       5.692811      0.499047      2.342664
  H       2.426196     -0.669320      1.616343
  H       1.236683      0.900860      3.067939
  H       0.633184      3.293703      3.270443
  H       2.109645      5.047946      2.289405
  H       4.167347      4.366861      1.066761
  H       4.726831      1.982036      0.791456
  N      -1.725240     -2.190783     -0.219383
  N      -2.890233     -0.488676     -1.124953
  N      -0.973820      0.895132     -1.727565
  N       1.169048     -0.055074     -1.148633
  N       1.433384     -2.078943     -0.010908
  C      -0.786824     -1.263229     -0.648870
  C      -1.536110     -0.211457     -1.208308
  C       0.616184     -1.155440     -0.622208
  C      -2.955031     -1.658797     -0.536819
  C       0.355237      0.890689     -1.666820
  H      -1.568169     -3.063993      0.260624
  H      -3.870205     -2.189604     -0.306867
  H       0.846190      1.759279     -2.099581
  H       2.441165     -2.000824     -0.145164
  H       1.099144     -3.025937      0.092095
33
Coordinates from ORCA-job phenylurea_adenine_opt_freq E -923.155180063902
  N       5.597919     -0.208728      1.624401
  C       4.378289     -0.785018      1.362186
  O       4.285190     -1.887852      0.809392
  N       3.249192     -0.089753      1.750922
  C       3.042370      1.299324      1.939902
  C       1.896292      1.695275      2.649793
  C       1.585052      3.048116      2.786882
  C       2.428526      4.028342      2.253478
  C       3.575623      3.634306      1.560741
  C       3.880057      2.281455      1.390442
  H       6.386538     -0.822673      1.481173
  H       5.685825      0.495408      2.343293
  H       2.408219     -0.636332      1.595117
  H       1.242210      0.938008      3.074487
  H       0.679792      3.337976      3.313182
  H       2.186674      5.081673      2.358571
  H       4.220121      4.380952      1.104710
  H       4.737408      1.993890      0.792737
  N      -1.733094     -2.221733     -0.230833
  N      -2.911434     -0.542428     -1.161989
  N      -1.005904      0.854272     -1.769112
  N       1.143358     -0.063030     -1.164496
  N       1.421709     -2.072411     -0.003994
  C      -0.802277     -1.288608     -0.664568
  C      -1.559788     -0.251310     -1.240060
  C       0.599150     -1.164095     -0.630942
  C      -2.966780     -1.706822     -0.561548
  C       0.322453      0.866899     -1.700178
  H      -1.569734     -3.088011      0.259530
  H      -3.877671     -2.244790     -0.331233
  H       0.805170      1.735129     -2.142849
  H       2.429656     -1.989618     -0.136238
  H       1.094051     -3.020393      0.110243
33
Coordinates from ORCA-job phenylurea_adenine_opt_freq E -923.155410943479
  N       5.589880     -0.207286      1.632021
  C       4.367404     -0.771584      1.356931
  O       4.269622     -1.873088      0.802256
  N       3.240855     -0.066187      1.733513
  C       3.051298      1.321876      1.941800
  C       1.913408      1.726095      2.661107
  C       1.624983      3.081680      2.821657
  C       2.485041      4.056165      2.303217
  C       3.617580      3.653057      1.593100
  C       3.900117      2.298557      1.399587
  H       6.373381     -0.830086      1.499271
  H       5.677500      0.498452      2.349360
  H       2.395808     -0.603934      1.567907
  H       1.250635      0.973587      3.080775
  H       0.727612      3.378257      3.357537
  H       2.263708      5.111796      2.428370
  H       4.273126      4.393693      1.142839
  H       4.748701      2.007307      0.791156
  N      -1.744576     -2.252184     -0.242980
  N      -2.934831     -0.594158     -1.197038
  N      -1.039484      0.813641     -1.810795
  N       1.114925     -0.073880     -1.183628
  N       1.406852     -2.067937     -0.001065
  C      -0.820750     -1.314518     -0.681981
  C      -1.585614     -0.290672     -1.271838
  C       0.578799     -1.174854     -0.642299
  C      -2.981553     -1.752721     -0.584603
  C       0.287946      0.842041     -1.734752
  H      -1.574887     -3.111218      0.257867
  H      -3.888629     -2.296570     -0.353039
  H       0.764965      1.709988     -2.184293
  H       2.414518     -1.981405     -0.135353
  H       1.085822     -3.016489      0.126532
33
Coordinates from ORCA-job phenylurea_adenine_opt_freq E -923.155653815217
  N       5.580492     -0.208969      1.634830
  C       4.353948     -0.757410      1.347206
  O       4.247828     -1.856601      0.789215
  N       3.231608     -0.040254      1.713949
  C       3.060417      1.346215      1.943152
  C       1.930327      1.758033      2.671572
  C       1.663588      3.115221      2.856004
  C       2.539488      4.083865      2.352747
  C       3.658618      3.673426      1.626792
  C       3.920360      2.318149      1.408900
  H       6.357087     -0.842577      1.513034
  H       5.668562      0.496021      2.352876
  H       2.383108     -0.569372      1.540321
  H       1.260270      1.009272      3.086364
  H       0.774700      3.416211      3.403264
  H       2.337750      5.140716      2.498855
  H       4.327428      4.408896      1.187430
  H       4.760809      2.024824      0.790363
  N      -1.755650     -2.281567     -0.253430
  N      -2.956369     -0.646948     -1.234277
  N      -1.070797      0.771485     -1.854664
  N       1.087653     -0.086177     -1.202856
  N       1.392664     -2.062354      0.005207
  C      -0.838252     -1.340287     -0.698975
  C      -1.609835     -0.331002     -1.305078
  C       0.559266     -1.186144     -0.651173
  C      -2.995182     -1.798405     -0.607933
  C       0.255202      0.815194     -1.769901
  H      -1.579503     -3.132702      0.258493
  H      -3.898683     -2.347888     -0.375678
  H       0.729136      1.682738     -2.223401
  H       2.400317     -1.974130     -0.132915
  H       1.077806     -3.010061      0.152847
33
Coordinates from ORCA-job phenylurea_adenine_opt_freq E -923.155898958972
  N       5.573305     -0.205385      1.636729
  C       4.343705     -0.740505      1.338168
  O       4.230770     -1.838450      0.778562
  N       3.225043     -0.012119      1.693845
  C       3.071568      1.371822      1.943807
  C       1.949152      1.789193      2.681288
  C       1.703020      3.146653      2.890536
  C       2.593092      4.109515      2.401336
  C       3.699583      3.694076      1.659676
  C       3.941503      2.339354      1.417013
  H       6.343339     -0.849504      1.528959
  H       5.659088      0.497656      2.357177
  H       2.373257     -0.533002      1.512133
  H       1.273118      1.042690      3.090468
  H       0.824224      3.449740      3.452632
  H       2.410134      5.166419      2.570098
  H       4.382584      4.425287      1.235113
  H       4.774256      2.044566      0.788839
  N      -1.770352     -2.310304     -0.264684
  N      -2.978664     -0.698669     -1.273251
  N      -1.101816      0.729165     -1.898907
  N       1.059336     -0.102297     -1.223957
  N       1.375185     -2.059960      0.010453
  C      -0.858194     -1.366374     -0.716505
  C      -1.634688     -0.371540     -1.339387
  C       0.537463     -1.200069     -0.660236
  C      -3.011454     -1.842592     -0.632831
  C       0.222681      0.785930     -1.805523
  H      -1.588759     -3.153188      0.258811
  H      -3.911912     -2.397015     -0.400482
  H       0.696910      1.653042     -2.259628
  H       2.383052     -1.971770     -0.129540
  H       1.064632     -3.004948      0.182426
33
Coordinates from ORCA-job phenylurea_adenine_opt_freq E -923.156133050984
  N       5.561857     -0.205381      1.634849
  C       4.328212     -0.725642      1.327510
  O       4.206473     -1.823143      0.768141
  N       3.215652      0.016850      1.672376
  C       3.082096      1.399009      1.943396
  C       1.968931      1.821477      2.691177
  C       1.744715      3.178938      2.925649
  C       2.646933      4.135946      2.449109
  C       3.742236      3.716798      1.693490
  C       3.962413      2.362731      1.425825
  H       6.324327     -0.860186      1.538463
  H       5.647842      0.496173      2.356857
  H       2.358983     -0.493222      1.486509
  H       1.286593      1.076845      3.093204
  H       0.876331      3.483553      3.502821
  H       2.482742      5.192080      2.640578
  H       4.439109      4.444680      1.286094
  H       4.787942      2.065475      0.789359
  N      -1.783452     -2.339162     -0.275091
  N      -2.999105     -0.753080     -1.314420
  N      -1.132178      0.686325     -1.943104
  N       1.032268     -0.117506     -1.242503
  N       1.359471     -2.056115      0.016784
  C      -0.876900     -1.391837     -0.732133
  C      -1.658145     -0.413124     -1.373850
  C       0.517003     -1.212929     -0.666740
  C      -3.025884     -1.888932     -0.659511
  C       0.190920      0.755958     -1.839007
  H      -1.596780     -3.174401      0.258700
  H      -3.922549     -2.449762     -0.427849
  H       0.664795      1.622332     -2.294452
  H       2.367638     -1.965565     -0.122254
  H       1.053673     -2.997763      0.213166
33
Coordinates from ORCA-job phenylurea_adenine_opt_freq E -923.156377081228
  N       5.553897     -0.198657      1.623168
  C       4.314592     -0.706076      1.315096
  O       4.181933     -1.804407      0.759550
  N       3.210739      0.052089      1.651313
  C       3.096622      1.430724      1.943124
  C       1.991239      1.853932      2.701507
  C       1.787216      3.209162      2.963015
  C       2.699785      4.161601      2.497991
  C       3.786362      3.742704      1.727603
  C       3.986211      2.391222      1.434957
  H       6.307304     -0.865315      1.536201
  H       5.643059      0.499270      2.348582
  H       2.346034     -0.443406      1.465398
  H       1.302220      1.109994      3.093297
  H       0.930667      3.512533      3.558284
  H       2.553129      5.215336      2.715166
  H       4.497128      4.468317      1.340911
  H       4.805517      2.091818      0.791331
  N      -1.802595     -2.368717     -0.287671
  N      -3.018418     -0.807553     -1.363182
  N      -1.158033      0.641479     -1.986439
  N       1.005873     -0.139352     -1.258388
  N       1.335801     -2.061320      0.027769
  C      -0.898612     -1.419468     -0.746205
  C      -1.679846     -0.456500     -1.410077
  C       0.493844     -1.231166     -0.670316
  C      -3.043931     -1.934939     -0.693885
  C       0.163139      0.721908     -1.869925
  H      -1.615198     -3.196875      0.256755
  H      -3.938237     -2.501057     -0.465987
  H       0.642141      1.587597     -2.321735
  H       2.345454     -1.969781     -0.100176
  H       1.029124     -2.997682      0.246106
33
Coordinates from ORCA-job phenylurea_adenine_opt_freq E -923.156606311573
  N       5.540415     -0.194637      1.621349
  C       4.298103     -0.690818      1.305451
  O       4.159926     -1.790310      0.752885
  N       3.201063      0.081140      1.629358
  C       3.107127      1.459133      1.941782
  C       2.013400      1.886209      2.713039
  C       1.834193      3.240746      3.000068
  C       2.755955      4.187622      2.544751
  C       3.832996      3.766831      1.762081
  C       4.007631      2.416320      1.445874
  H       6.287320     -0.869371      1.541484
  H       5.631702      0.503897      2.345899
  H       2.329794     -0.400507      1.439177
  H       1.315234      1.145431      3.094310
  H       0.987702      3.546529      3.608428
  H       2.628373      5.239122      2.784003
  H       4.554371      4.489844      1.390878
  H       4.820765      2.112287      0.796349
  N      -1.818145     -2.398290     -0.299031
  N      -3.038384     -0.863558     -1.407348
  N      -1.187245      0.598227     -2.028726
  N       0.979141     -0.156219     -1.271655
  N       1.317063     -2.060810      0.033829
  C      -0.919143     -1.445120     -0.759316
  C      -1.703169     -0.498764     -1.444074
  C       0.471705     -1.245100     -0.674966
  C      -3.059492     -1.982894     -0.724629
  C       0.132597      0.690048     -1.898332
  H      -1.628293     -3.220394      0.253626
  H      -3.949548     -2.556371     -0.498521
  H       0.609643      1.554624     -2.353445
  H       2.326667     -1.962591     -0.088376
  H       1.014693     -2.994837      0.266936
33
Coordinates from ORCA-job phenylurea_adenine_opt_freq E -923.156844092504
  N       5.529861     -0.190921      1.601245
  C       4.279138     -0.670509      1.288405
  O       4.125536     -1.769684      0.740036
  N       3.196205      0.120013      1.608567
  C       3.121486      1.494598      1.942201
  C       2.037095      1.919145      2.727217
  C       1.878126      3.269808      3.039128
  C       2.805465      4.213861      2.590837
  C       3.878061      3.797030      1.797397
  C       4.031573      2.449451      1.460368
  H       6.265202     -0.877939      1.517857
  H       5.635697      0.504659      2.326552
  H       2.312672     -0.338520      1.420670
  H       1.328153      1.181474      3.094161
  H       1.039872      3.575518      3.659029
  H       2.692487      5.261704      2.852609
  H       4.607147      4.519477      1.441256
  H       4.841373      2.142028      0.807863
  N      -1.839180     -2.427639     -0.311659
  N      -3.051812     -0.915753     -1.459124
  N      -1.202486      0.553746     -2.065790
  N       0.959048     -0.181779     -1.274675
  N       1.290025     -2.075669      0.050855
  C      -0.939706     -1.473547     -0.767631
  C      -1.718683     -0.541269     -1.477131
  C       0.450010     -1.266941     -0.672178
  C      -3.076408     -2.027336     -0.764271
  C       0.114605      0.654258     -1.917387
  H      -1.654149     -3.246087      0.248029
  H      -3.965098     -2.605363     -0.544432
  H       0.595794      1.517985     -2.370511
  H       2.301512     -1.969882     -0.051709
  H       0.985543     -3.008500      0.285355
33
Coordinates from ORCA-job phenylurea_adenine_opt_freq E -923.157065392357
  N       5.521733     -0.179630      1.596251
  C       4.267585     -0.646902      1.276304
  O       4.107785     -1.744040      0.725517
  N       3.191763      0.153981      1.591744
  C       3.134665      1.525967      1.945957
  C       2.060698      1.952831      2.743594
  C       1.925660      3.301116      3.079060
  C       2.863022      4.240391      2.640274
  C       3.926153      3.821739      1.834188
  C       4.055716      2.476136      1.476706
  H       6.249338     -0.874927      1.513108
  H       5.634261      0.513882      2.322414
  H       2.302259     -0.290672      1.394404
  H       1.339191      1.221697      3.098916
  H       1.094676      3.611512      3.706439
  H       2.767796      5.284993      2.921655
  H       4.661674      4.540351      1.483987
  H       4.859817      2.165137      0.818467
  N      -1.861972     -2.460131     -0.327924
  N      -3.071534     -0.968929     -1.505825
  N      -1.224860      0.507750     -2.104998
  N       0.932933     -0.205937     -1.281331
  N       1.262164     -2.086102      0.061342
  C      -0.963844     -1.504286     -0.781858
  C      -1.740999     -0.584671     -1.511001
  C       0.424110     -1.288240     -0.675921
  C      -3.096484     -2.073661     -0.800119
  C       0.089637      0.618444     -1.941164
  H      -1.679174     -3.272808      0.240865
  H      -3.983506     -2.655735     -0.584237
  H       0.569644      1.481168     -2.397339
  H       2.273651     -1.972986     -0.031620
  H       0.960601     -3.020020      0.295286
33
Coordinates from ORCA-job phenylurea_adenine_opt_freq E -923.157343817081
  N       5.512733     -0.176484      1.587370
  C       4.252642     -0.620440      1.257166
  O       4.078132     -1.712578      0.701641
  N       3.188849      0.196500      1.568480
  C       3.149113      1.562266      1.948882
  C       2.085405      1.986795      2.762580
  C       1.968937      3.330023      3.119548
  C       2.913607      4.266558      2.686814
  C       3.970604      3.850294      1.870118
  C       4.080905      2.507994      1.493712
  H       6.227730     -0.884299      1.500770
  H       5.640070      0.517093      2.310631
  H       2.292646     -0.227386      1.357248
  H       1.351499      1.263491      3.108209
  H       1.140883      3.644577      3.748870
  H       2.830963      5.307634      2.984869
  H       4.707924      4.566870      1.519937
  H       4.882216      2.197651      0.831384
  N      -1.887211     -2.493475     -0.345661
  N      -3.085075     -1.013920     -1.550079
  N      -1.233477      0.463433     -2.134850
  N       0.913123     -0.235092     -1.273045
  N       1.231610     -2.109433      0.079364
  C      -0.985862     -1.538503     -0.793160
  C      -1.755757     -0.625628     -1.539469
  C       0.399878     -1.316712     -0.672533
  C      -3.116267     -2.114110     -0.837396
  C       0.076806      0.582867     -1.951003
  H      -1.710927     -3.302979      0.229727
  H      -4.004809     -2.696416     -0.628526
  H       0.557706      1.444979     -2.408542
  H       2.243568     -1.984260     -0.004224
  H       0.935997     -3.049894      0.294310
33
Coordinates from ORCA-job phenylurea_adenine_opt_freq E -923.157636147156
  N       5.498045     -0.175364      1.584127
  C       4.234505     -0.590020      1.232565
  O       4.045948     -1.673916      0.665117
  N       3.181699      0.243857      1.536008
  C       3.163562      1.600762      1.948678
  C       2.112306      2.024228      2.779242
  C       2.017929      3.362130      3.162360
  C       2.973717      4.294038      2.740338
  C       4.020529      3.878273      1.910526
  C       4.108181      2.540610      1.508964
  H       6.199416     -0.897242      1.502852
  H       5.632433      0.516543      2.307511
  H       2.282022     -0.161758      1.299566
  H       1.367256      1.307982      3.115412
  H       1.195351      3.680877      3.796658
  H       2.906944      5.330560      3.057795
  H       4.762344      4.591136      1.562321
  H       4.903587      2.232779      0.838282
  N      -1.911400     -2.532526     -0.366668
  N      -3.100314     -1.067357     -1.597268
  N      -1.246299      0.413582     -2.168663
  N       0.888304     -0.261283     -1.262019
  N       1.200782     -2.125204      0.102834
  C      -1.008817     -1.576222     -0.808445
  C      -1.773548     -0.672373     -1.571576
  C       0.373132     -1.343715     -0.666517
  C      -3.135457     -2.162677     -0.876740
  C       0.058904      0.545591     -1.962373
  H      -1.738753     -3.334519      0.220262
  H      -4.024813     -2.746677     -0.676273
  H       0.539460      1.407045     -2.422035
  H       2.212898     -1.990675      0.023113
  H       0.914308     -3.071047      0.307185
33
Coordinates from ORCA-job phenylurea_adenine_opt_freq E -923.158018031916
  N       5.483817     -0.168304      1.581185
  C       4.221304     -0.550272      1.197152
  O       4.019936     -1.626786      0.618737
  N       3.178618      0.303729      1.480916
  C       3.181842      1.646023      1.937298
  C       2.144844      2.058035      2.794569
  C       2.064521      3.385978      3.206510
  C       3.027392      4.315579      2.788066
  C       4.068145      3.909332      1.945155
  C       4.139816      2.580570      1.513639
  H       6.171300     -0.905103      1.520398
  H       5.617776      0.530505      2.297860
  H       2.285128     -0.080824      1.201223
  H       1.394168      1.345211      3.125038
  H       1.247442      3.704147      3.847990
  H       2.968898      5.346294      3.125712
  H       4.809931      4.622544      1.597489
  H       4.930605      2.283347      0.832640
  N      -1.946976     -2.577445     -0.398827
  N      -3.109218     -1.106571     -1.646947
  N      -1.239783      0.368993     -2.182968
  N       0.866746     -0.295433     -1.215087
  N       1.155442     -2.164575      0.142443
  C      -1.034926     -1.621225     -0.821458
  C      -1.782965     -0.714828     -1.595891
  C       0.340696     -1.384762     -0.641255
  C      -3.160374     -2.203127     -0.928169
  C       0.057745      0.509379     -1.943058
  H      -1.785457     -3.372876      0.200124
  H      -4.056372     -2.783369     -0.747565
  H       0.545872      1.370034     -2.397702
  H       2.167936     -2.017239      0.068395
  H       0.880313     -3.119547      0.319525
33
Coordinates from ORCA-job phenylurea_adenine_opt_freq E -923.158477262956
  N       5.433576     -0.195966      1.587910
  C       4.172607     -0.519366      1.153271
  O       3.945451     -1.583326      0.559922
  N       3.156575      0.377203      1.399787
  C       3.196303      1.697749      1.912378
  C       2.181062      2.098046      2.798013
  C       2.125910      3.414905      3.251809
  C       3.098242      4.340861      2.849563
  C       4.123834      3.943802      1.987236
  C       4.169408      2.627585      1.514410
  H       6.091811     -0.960602      1.560298
  H       5.569249      0.507819      2.299281
  H       2.259488      0.032059      1.057786
  H       1.426166      1.384413      3.116394
  H       1.320217      3.730132      3.908630
  H       3.056678      5.362855      3.215613
  H       4.870110      4.656114      1.647376
  H       4.949357      2.340344      0.816786
  N      -1.959312     -2.628631     -0.423763
  N      -3.111238     -1.171841     -1.697829
  N      -1.244461      0.318269     -2.204457
  N       0.840711     -0.309698     -1.172204
  N       1.134471     -2.174260      0.188005
  C      -1.048784     -1.663385     -0.830396
  C      -1.790670     -0.767368     -1.622689
  C       0.318389     -1.408340     -0.612515
  C      -3.165788     -2.266553     -0.975496
  C       0.043823      0.479214     -1.929258
  H      -1.801317     -3.410815      0.193329
  H      -4.060971     -2.853234     -0.812767
  H       0.533007      1.340705     -2.382563
  H       2.146353     -2.016740      0.109453
  H       0.873907     -3.134530      0.359828
33
Coordinates from ORCA-job phenylurea_adenine_opt_freq E -923.159220508857
  N       5.382302     -0.212723      1.601934
  C       4.131072     -0.491518      1.113556
  O       3.890981     -1.548857      0.511565
  N       3.138621      0.442953      1.311174
  C       3.207379      1.743543      1.869887
  C       2.215727      2.123819      2.786026
  C       2.181654      3.428128      3.283844
  C       3.158442      4.353115      2.896181
  C       4.168383      3.970972      2.012383
  C       4.192712      2.670665      1.496036
  H       6.013283     -0.999916      1.625224
  H       5.503006      0.499999      2.307339
  H       2.252597      0.136642      0.897045
  H       1.465023      1.399743      3.089918
  H       1.393970      3.732501      3.966625
  H       3.129651      5.364925      3.291458
  H       4.917521      4.685824      1.684252
  H       4.956146      2.394531      0.776086
  N      -1.968192     -2.676952     -0.454638
  N      -3.106003     -1.222695     -1.744418
  N      -1.242593      0.285661     -2.203471
  N       0.816591     -0.311067     -1.102777
  N       1.109544     -2.188548      0.235629
  C      -1.059771     -1.696796     -0.832497
  C      -1.791874     -0.805937     -1.637063
  C       0.296724     -1.425723     -0.568929
  C      -3.166202     -2.321573     -1.028246
  C       0.036005      0.463872     -1.889184
  H      -1.816800     -3.444345      0.182379
  H      -4.059751     -2.917275     -0.891694
  H       0.529806      1.326289     -2.335544
  H       2.121491     -2.020142      0.170347
  H       0.856715     -3.151695      0.402711
33
Coordinates from ORCA-job phenylurea_adenine_opt_freq E -923.160569056157
  N       5.327601     -0.212218      1.646141
  C       4.099062     -0.465898      1.087872
  O       3.865806     -1.525650      0.486021
  N       3.127862      0.502451      1.210897
  C       3.216662      1.786086      1.803516
  C       2.255307      2.137452      2.751877
  C       2.243267      3.426623      3.301255
  C       3.218333      4.351198      2.932005
  C       4.202124      3.988225      2.018308
  C       4.208967      2.711065      1.450389
  H       5.931055     -1.013635      1.753567
  H       5.399002      0.514487      2.344841
  H       2.277548      0.245387      0.700845
  H       1.524295      1.385136      3.034079
  H       1.487075      3.705003      4.028669
  H       3.200837      5.351219      3.357693
  H       4.954689      4.708049      1.708859
  H       4.937193      2.443894      0.691672
  N      -1.970682     -2.727730     -0.496737
  N      -3.098330     -1.262341     -1.783113
  N      -1.250106      0.276284     -2.177207
  N       0.784145     -0.293181     -1.011677
  N       1.080767     -2.214988      0.268032
  C      -1.069992     -1.722274     -0.830628
  C      -1.792155     -0.830218     -1.636766
  C       0.273603     -1.438807     -0.516089
  C      -3.161506     -2.373637     -1.087427
  C       0.020063      0.468891     -1.824190
  H      -1.825993     -3.478185      0.161668
  H      -4.048993     -2.984917     -0.984451
  H       0.519802      1.332841     -2.257448
  H       2.091217     -2.027683      0.249064
  H       0.825634     -3.175513      0.441600
33
Coordinates from ORCA-job phenylurea_adenine_opt_freq E -923.160918052116
  N       5.222460     -0.241637      1.678769
  C       4.011227     -0.461048      1.067543
  O       3.754356     -1.538481      0.504916
  N       3.096108      0.566370      1.090169
  C       3.227890      1.833191      1.733670
  C       2.298313      2.150507      2.725764
  C       2.311411      3.420464      3.331213
  C       3.282949      4.351922      2.970700
  C       4.248722      4.019860      2.020943
  C       4.228818      2.766309      1.400840
  H       5.776426     -1.062819      1.868138
  H       5.298098      0.526259      2.331332
  H       2.270239      0.348967      0.509228
  H       1.578632      1.383594      2.996814
  H       1.581237      3.671615      4.094341
  H       3.281741      5.335529      3.433297
  H       5.001885      4.748455      1.734066
  H       4.937895      2.518101      0.617176
  N      -1.957595     -2.772591     -0.520049
  N      -3.077440     -1.315828     -1.824264
  N      -1.247660      0.258154     -2.155755
  N       0.761718     -0.280252     -0.924975
  N       1.082573     -2.208410      0.300640
  C      -1.069684     -1.743415     -0.814491
  C      -1.784424     -0.859517     -1.635578
  C       0.262512     -1.440664     -0.467473
  C      -3.138827     -2.434259     -1.140323
  C       0.011700      0.470835     -1.761255
  H      -1.820896     -3.519175      0.144542
  H      -4.016292     -3.064021     -1.067237
  H       0.519413      1.337285     -2.178286
  H       2.085120     -2.007212      0.285252
  H       0.835536     -3.170670      0.473471
33
Coordinates from ORCA-job phenylurea_adenine_opt_freq E -923.161681517453
  N       5.279084     -0.175328      1.721571
  C       4.071259     -0.474472      1.121713
  O       3.863987     -1.588754      0.615778
  N       3.132179      0.523960      1.100905
  C       3.238049      1.818211      1.722856
  C       2.296951      2.136142      2.718709
  C       2.311148      3.402851      3.324616
  C       3.277417      4.340227      2.957964
  C       4.244818      4.013086      1.984778
  C       4.226301      2.760062      1.363747
  H       5.864758     -0.972816      1.917315
  H       5.339726      0.605195      2.359887
  H       2.297276      0.314102      0.558516
  H       1.580950      1.369237      2.999776
  H       1.582232      3.630724      4.098145
  H       3.284036      5.321779      3.421708
  H       5.002914      4.744999      1.719216
  H       4.931662      2.503611      0.577675
  N      -1.981910     -2.761513     -0.521807
  N      -3.097982     -1.311564     -1.836683
  N      -1.287573      0.289727     -2.141103
  N       0.739573     -0.275435     -0.950084
  N       1.055824     -2.223411      0.258175
  C      -1.097692     -1.727104     -0.796991
  C      -1.809676     -0.839188     -1.626347
  C       0.246104     -1.437540     -0.487609
  C      -3.157312     -2.433758     -1.163790
  C      -0.023298      0.489640     -1.763336
  H      -1.850381     -3.543743      0.101777
  H      -4.024249     -3.078504     -1.093477
  H       0.489552      1.356023     -2.170108
  H       2.055151     -2.018902      0.276626
  H       0.773285     -3.170124      0.453020
33
Coordinates from ORCA-job phenylurea_adenine_opt_freq E -923.162493981559
  N       5.255697     -0.209383      1.727682
  C       4.066751     -0.447216      1.070223
  O       3.857104     -1.524826      0.494649
  N       3.139819      0.560124      1.066154
  C       3.232341      1.836246      1.708391
  C       2.301165      2.142638      2.714460
  C       2.316717      3.399506      3.324064
  C       3.282486      4.336383      2.966708
  C       4.239709      4.015242      1.994786
  C       4.218273      2.771440      1.364390
  H       5.811913     -1.032576      1.904970
  H       5.317419      0.540293      2.401700
  H       2.311842      0.390828      0.459656
  H       1.576893      1.381438      2.988914
  H       1.584238      3.628666      4.093583
  H       3.283857      5.317707      3.431986
  H       4.985901      4.750861      1.707280
  H       4.916157      2.528751      0.568061
  N      -1.976775     -2.771287     -0.532850
  N      -3.080486     -1.304984     -1.840217
  N      -1.256624      0.289808     -2.123666
  N       0.748866     -0.276353     -0.911025
  N       1.045528     -2.254764      0.323987
  C      -1.086956     -1.737998     -0.793642
  C      -1.792574     -0.840047     -1.620220
  C       0.251241     -1.451904     -0.453651
  C      -3.147089     -2.432915     -1.176274
  C      -0.003136      0.489409     -1.732193
  H      -1.856454     -3.545765      0.102490
  H      -4.018488     -3.072822     -1.117291
  H       0.505555      1.360303     -2.142809
  H       2.053568     -2.039886      0.362280
  H       0.769703     -3.209500      0.490564
33
Coordinates from ORCA-job phenylurea_adenine_opt_freq E -923.163417958805
  N       5.223593     -0.222995      1.786920
  C       4.053549     -0.453895      1.100152
  O       3.842178     -1.544616      0.545788
  N       3.140490      0.568815      1.040523
  C       3.232659      1.838721      1.686727
  C       2.314671      2.133723      2.698817
  C       2.337247      3.386448      3.319686
  C       3.304593      4.327713      2.962043
  C       4.245085      4.015484      1.977349
  C       4.213696      2.775146      1.332123
  H       5.762375     -1.048265      2.002871
  H       5.293052      0.557172      2.423844
  H       2.334058      0.375497      0.431788
  H       1.592416      1.373504      2.980679
  H       1.608066      3.612187      4.093095
  H       3.309799      5.306424      3.434067
  H       4.985669      4.752801      1.680051
  H       4.903799      2.545095      0.526115
  N      -1.958457     -2.782090     -0.546796
  N      -3.090227     -1.312941     -1.824891
  N      -1.279032      0.298106     -2.099900
  N       0.739196     -0.251508     -0.887881
  N       1.052694     -2.226792      0.304893
  C      -1.085638     -1.732347     -0.798830
  C      -1.808600     -0.837163     -1.607171
  C       0.247872     -1.428695     -0.455023
  C      -3.137124     -2.451801     -1.176129
  C      -0.024969      0.509430     -1.705614
  H      -1.820491     -3.563809      0.075817
  H      -4.001507     -3.101604     -1.123325
  H       0.472329      1.383731     -2.119688
  H       2.062807     -2.024994      0.316426
  H       0.788313     -3.189064      0.448614
33
Coordinates from ORCA-job phenylurea_adenine_opt_freq E -923.163778914630
  N       5.193364     -0.240593      1.792768
  C       4.028372     -0.460901      1.095362
  O       3.803204     -1.558416      0.558113
  N       3.139489      0.578792      1.006366
  C       3.236219      1.845219      1.666552
  C       2.323699      2.132861      2.691089
  C       2.349412      3.379225      3.323355
  C       3.313075      4.324788      2.965060
  C       4.249361      4.025572      1.970385
  C       4.212779      2.790207      1.313129
  H       5.716926     -1.072489      2.019186
  H       5.281049      0.550170      2.413802
  H       2.328404      0.395426      0.408290
  H       1.601226      1.373999      2.976339
  H       1.625006      3.597880      4.103032
  H       3.322459      5.298786      3.446307
  H       4.990271      4.767104      1.684442
  H       4.903595      2.568910      0.505078
  N      -1.950544     -2.786440     -0.545439
  N      -3.078614     -1.323229     -1.833403
  N      -1.276321      0.301176     -2.090374
  N       0.738475     -0.247485     -0.876630
  N       1.055300     -2.217142      0.317216
  C      -1.081494     -1.732450     -0.788782
  C      -1.802589     -0.839195     -1.602233
  C       0.250510     -1.424558     -0.444095
  C      -3.124515     -2.463827     -1.187382
  C      -0.026929      0.515768     -1.690433
  H      -1.812065     -3.579464      0.062650
  H      -3.984770     -3.119625     -1.142298
  H       0.473671      1.392074     -2.096394
  H       2.063216     -2.005818      0.337569
  H       0.792921     -3.178908      0.464513
33
Coordinates from ORCA-job phenylurea_adenine_opt_freq E -923.164014066183
  N       5.155718     -0.235216      1.849337
  C       4.029352     -0.461922      1.093829
  O       3.833678     -1.566583      0.557028
  N       3.153477      0.579491      0.946410
  C       3.236779      1.843042      1.626753
  C       2.331045      2.113564      2.666990
  C       2.364583      3.347442      3.321704
  C       3.323825      4.302058      2.969836
  C       4.245884      4.024997      1.954076
  C       4.204877      2.800674      1.276702
  H       5.665041     -1.066561      2.107194
  H       5.225030      0.566455      2.458392
  H       2.366034      0.393732      0.304093
  H       1.605787      1.354966      2.946153
  H       1.647427      3.552633      4.111584
  H       3.339742      5.266886      3.468548
  H       4.982632      4.773644      1.675635
  H       4.893347      2.596137      0.461992
  N      -1.943327     -2.782649     -0.535895
  N      -3.071551     -1.329033     -1.834510
  N      -1.283026      0.314093     -2.077405
  N       0.730297     -0.237412     -0.867477
  N       1.057249     -2.195651      0.336019
  C      -1.079692     -1.723617     -0.774344
  C      -1.802442     -0.834139     -1.593453
  C       0.250752     -1.411851     -0.430519
  C      -3.113781     -2.470144     -1.188318
  C      -0.039877      0.530782     -1.671468
  H      -1.803158     -3.582163      0.063315
  H      -3.969132     -3.132625     -1.149297
  H       0.460422      1.413798     -2.064692
  H       2.063627     -2.000100      0.333735
  H       0.793544     -3.157309      0.481195
33
Coordinates from ORCA-job phenylurea_adenine_opt_freq E -923.164394807874
  N       5.137812     -0.253680      1.869394
  C       4.022649     -0.466057      1.096065
  O       3.819172     -1.571936      0.563247
  N       3.167668      0.586771      0.919910
  C       3.234894      1.843351      1.605111
  C       2.332281      2.104586      2.650130
  C       2.368189      3.332015      3.311998
  C       3.326326      4.290866      2.963638
  C       4.238381      4.025208      1.936544
  C       4.191816      2.805957      1.248620
  H       5.635260     -1.090281      2.133236
  H       5.222283      0.556589      2.464482
  H       2.373873      0.408218      0.297326
  H       1.602982      1.348445      2.925693
  H       1.653794      3.533199      4.105409
  H       3.344441      5.252196      3.469220
  H       4.971324      4.777130      1.657129
  H       4.872218      2.608287      0.425608
  N      -1.930521     -2.782850     -0.541684
  N      -3.061075     -1.326232     -1.834209
  N      -1.280781      0.329960     -2.049891
  N       0.735310     -0.219518     -0.843683
  N       1.052729     -2.189876      0.359510
  C      -1.072027     -1.717103     -0.768033
  C      -1.797538     -0.825903     -1.581247
  C       0.254749     -1.400623     -0.411952
  C      -3.098625     -2.474392     -1.199398
  C      -0.041913      0.550913     -1.640580
  H      -1.784838     -3.594338      0.039763
  H      -3.949782     -3.142824     -1.172911
  H       0.455627      1.437458     -2.029290
  H       2.065537     -1.992441      0.368511
  H       0.791947     -3.155677      0.485474
33
Coordinates from ORCA-job phenylurea_adenine_opt_freq E -923.164524226465
  N       5.124228     -0.260085      1.883584
  C       4.020343     -0.474168      1.094040
  O       3.820376     -1.583340      0.566733
  N       3.173378      0.581947      0.894845
  C       3.230050      1.835105      1.584088
  C       2.328119      2.083996      2.631014
  C       2.355087      3.308094      3.296282
  C       3.304352      4.272680      2.944784
  C       4.214838      4.019219      1.915297
  C       4.178558      2.804553      1.224749
  H       5.618271     -1.092890      2.164938
  H       5.198717      0.558078      2.469063
  H       2.387889      0.401453      0.260674
  H       1.607204      1.318563      2.902844
  H       1.645505      3.501831      4.095959
  H       3.315776      5.232369      3.453938
  H       4.941825      4.777243      1.636871
  H       4.856588      2.610661      0.398976
  N      -1.919306     -2.770923     -0.538950
  N      -3.045885     -1.301834     -1.819925
  N      -1.264199      0.352572     -2.018801
  N       0.750356     -0.207476     -0.816875
  N       1.062103     -2.190635      0.371227
  C      -1.058956     -1.704316     -0.756614
  C      -1.780817     -0.806968     -1.562276
  C       0.266765     -1.392587     -0.393902
  C      -3.086634     -2.454868     -1.194532
  C      -0.024919      0.571083     -1.608435
  H      -1.774279     -3.584822      0.039258
  H      -3.939334     -3.121582     -1.175342
  H       0.473790      1.460659     -1.989737
  H       2.075930     -1.999142      0.380707
  H       0.798439     -3.157052      0.488658
33
Coordinates from ORCA-job phenylurea_adenine_opt_freq E -923.164436724295
  N       5.116054     -0.255093      1.902774
  C       4.032587     -0.454928      1.083577
  O       3.829459     -1.564876      0.559442
  N       3.204823      0.612893      0.849780
  C       3.241198      1.848119      1.556447
  C       2.343939      2.077877      2.611268
  C       2.386344      3.290806      3.309913
  C       3.329941      4.264297      2.969546
  C       4.216828      4.041000      1.920163
  C       4.171504      2.838854      1.210396
  H       5.605964     -1.086487      2.195009
  H       5.190619      0.573884      2.472192
  H       2.413131      0.415774      0.230480
  H       1.607917      1.317127      2.854327
  H       1.692046      3.486188      4.122737
  H       3.361229      5.205734      3.511838
  H       4.934859      4.807368      1.642288
  H       4.848807      2.655278      0.382104
  N      -1.939583     -2.780067     -0.543379
  N      -3.046082     -1.320723     -1.850134
  N      -1.260955      0.328184     -2.030722
  N       0.749004     -0.230173     -0.813961
  N       1.019111     -2.188397      0.425103
  C      -1.070893     -1.721614     -0.770972
  C      -1.780275     -0.832648     -1.586374
  C       0.246172     -1.405498     -0.381545
  C      -3.098393     -2.467971     -1.213890
  C      -0.026887      0.556050     -1.606099
  H      -1.791776     -3.592180      0.036421
  H      -3.956827     -3.127417     -1.201731
  H       0.468746      1.455150     -1.966576
  H       2.036280     -1.992529      0.437731
  H       0.779268     -3.166559      0.504987
33
Coordinates from ORCA-job phenylurea_adenine_opt_freq E -923.164743922873
  N       5.123302     -0.253023      1.907464
  C       4.032180     -0.471178      1.102054
  O       3.829575     -1.588309      0.593607
  N       3.201344      0.592129      0.864644
  C       3.239491      1.835734      1.565775
  C       2.337156      2.071992      2.615924
  C       2.367023      3.289397      3.299676
  C       3.308090      4.262423      2.952676
  C       4.205143      4.030825      1.907653
  C       4.170396      2.822414      1.208331
  H       5.618563     -1.079333      2.204000
  H       5.201065      0.581294      2.468952
  H       2.407051      0.394255      0.245543
  H       1.611613      1.306113      2.874100
  H       1.663266      3.479600      4.105411
  H       3.329228      5.210841      3.482593
  H       4.923322      4.796559      1.627845
  H       4.850669      2.633275      0.383058
  N      -1.929754     -2.768717     -0.537094
  N      -3.048186     -1.301463     -1.827261
  N      -1.264976      0.350431     -2.017922
  N       0.753217     -0.218396     -0.826706
  N       1.044514     -2.192174      0.390765
  C      -1.063475     -1.708370     -0.763096
  C      -1.780446     -0.811847     -1.570365
  C       0.260481     -1.397617     -0.394236
  C      -3.094177     -2.451879     -1.197215
  C      -0.025966      0.571551     -1.607291
  H      -1.780341     -3.586684      0.034108
  H      -3.950624     -3.113764     -1.178490
  H       0.467750      1.469386     -1.974703
  H       2.058544     -2.004381      0.394428
  H       0.789124     -3.163667      0.488913
33
Coordinates from ORCA-job phenylurea_adenine_opt_freq E -923.164775944827
  N       5.119022     -0.256815      1.886666
  C       4.022309     -0.477101      1.089167
  O       3.821609     -1.592663      0.576533
  N       3.186869      0.584572      0.862669
  C       3.232780      1.833405      1.561379
  C       2.331855      2.069738      2.612327
  C       2.359173      3.288079      3.295484
  C       3.300605      4.261699      2.949606
  C       4.203528      4.028307      1.905891
  C       4.169676      2.818391      1.206134
  H       5.616562     -1.082851      2.180466
  H       5.192415      0.573391      2.455198
  H       2.393663      0.390059      0.240130
  H       1.611700      1.299732      2.873303
  H       1.655094      3.471984      4.102089
  H       3.319984      5.210098      3.479347
  H       4.922849      4.794314      1.629500
  H       4.850181      2.628132      0.381331
  N      -1.922175     -2.766020     -0.537440
  N      -3.037380     -1.299169     -1.832954
  N      -1.252439      0.354215     -2.013239
  N       0.758698     -0.210766     -0.805378
  N       1.048247     -2.185798      0.399542
  C      -1.057445     -1.702576     -0.754960
  C      -1.772051     -0.806000     -1.567302
  C       0.265122     -1.389979     -0.380031
  C      -3.083966     -2.449807     -1.203828
  C      -0.013680      0.573988     -1.595386
  H      -1.777811     -3.580196      0.040501
  H      -3.937951     -3.115013     -1.189430
  H       0.481574      1.470593     -1.963056
  H       2.061374     -1.995927      0.426437
  H       0.784171     -3.152598      0.512445
33
Coordinates from ORCA-job phenylurea_adenine_opt_freq E -923.164859746609
  N       5.128453     -0.253966      1.893923
  C       4.032240     -0.480699      1.097705
  O       3.829887     -1.600179      0.595093
  N       3.197821      0.580081      0.861255
  C       3.234070      1.827270      1.559267
  C       2.330449      2.061823      2.608142
  C       2.351016      3.280589      3.289930
  C       3.287067      4.257397      2.941353
  C       4.189610      4.028175      1.898010
  C       4.163632      2.817256      1.201415
  H       5.629361     -1.076126      2.192632
  H       5.203863      0.582567      2.452630
  H       2.400199      0.377378      0.246574
  H       1.613986      1.288998      2.871163
  H       1.646033      3.463004      4.096136
  H       3.304454      5.205037      3.472620
  H       4.904874      4.797264      1.619811
  H       4.848301      2.627360      0.379972
  N      -1.924097     -2.758473     -0.534949
  N      -3.038029     -1.284935     -1.823174
  N      -1.248811      0.362675     -2.006495
  N       0.765399     -0.213306     -0.811303
  N       1.048415     -2.193074      0.393914
  C      -1.055468     -1.698954     -0.755763
  C      -1.769110     -0.797771     -1.562538
  C       0.268497     -1.391801     -0.384694
  C      -3.087049     -2.436362     -1.196047
  C      -0.007934      0.578822     -1.593460
  H      -1.778360     -3.575550      0.038482
  H      -3.943881     -3.097870     -1.179220
  H       0.485028      1.478056     -1.958438
  H       2.061685     -2.007375      0.416354
  H       0.782559     -3.159894      0.502841
33
Coordinates from ORCA-job phenylurea_adenine_opt_freq E -923.164918422645
  N       5.124518     -0.252553      1.904221
  C       4.029814     -0.480503      1.106738
  O       3.816851     -1.605847      0.621943
  N       3.209162      0.586016      0.848038
  C       3.238691      1.829720      1.550502
  C       2.337245      2.058228      2.601732
  C       2.356747      3.274433      3.290350
  C       3.287581      4.256395      2.942598
  C       4.183993      4.035419      1.892676
  C       4.159745      2.825969      1.192435
  H       5.618319     -1.074143      2.215801
  H       5.212568      0.594529      2.444599
  H       2.406488      0.379220      0.239417
  H       1.624481      1.281661      2.864241
  H       1.653335      3.449771      4.099527
  H       3.307696      5.199766      3.481478
  H       4.894251      4.808486      1.612937
  H       4.844703      2.639546      0.370281
  N      -1.926602     -2.758647     -0.537416
  N      -3.038667     -1.279921     -1.820894
  N      -1.246443      0.365103     -2.001749
  N       0.768023     -0.218601     -0.810816
  N       1.045333     -2.202714      0.391240
  C      -1.055536     -1.701405     -0.758063
  C      -1.768172     -0.796181     -1.561334
  C       0.268607     -1.397321     -0.386733
  C      -3.089483     -2.432551     -1.196429
  C      -0.004886      0.579224     -1.588159
  H      -1.779890     -3.578596      0.031623
  H      -3.947560     -3.092472     -1.179431
  H       0.485113      1.482318     -1.947742
  H       2.058174     -2.016649      0.415047
  H       0.779963     -3.170284      0.494479
33
Coordinates from ORCA-job phenylurea_adenine_opt_freq E -923.164994040830
  N       5.141073     -0.247234      1.902161
  C       4.044843     -0.485186      1.110423
  O       3.831694     -1.615489      0.637689
  N       3.222666      0.578095      0.841161
  C       3.238644      1.822046      1.542834
  C       2.333361      2.044788      2.591290
  C       2.341865      3.260450      3.281084
  C       3.264014      4.250933      2.932302
  C       4.160818      4.038113      1.881164
  C       4.148910      2.826609      1.183688
  H       5.639026     -1.064098      2.219602
  H       5.232406      0.606738      2.430928
  H       2.413134      0.357556      0.245375
  H       1.628377      1.261203      2.854532
  H       1.637405      3.426170      4.091312
  H       3.280702      5.191115      3.476888
  H       4.864229      4.816920      1.600250
  H       4.839700      2.643612      0.365646
  N      -1.931890     -2.745751     -0.535429
  N      -3.033997     -1.255995     -1.814380
  N      -1.229517      0.376277     -1.992886
  N       0.780801     -0.225596     -0.805022
  N       1.041903     -2.213576      0.394568
  C      -1.052586     -1.695632     -0.756022
  C      -1.759325     -0.782595     -1.556048
  C       0.272985     -1.401106     -0.383484
  C      -3.093113     -2.409161     -1.192009
  C       0.013557      0.581102     -1.578238
  H      -1.789214     -3.567711      0.031704
  H      -3.955845     -3.062999     -1.174577
  H       0.502567      1.488568     -1.928813
  H       2.054824     -2.031418      0.428369
  H       0.770146     -3.179332      0.497078
