33
Coordinates from ORCA-job phenylurea_adenine_opt_freq E -923.164994040830
  N           5.14107276537799     -0.24723435042107      1.90216102741712
  C           4.04484313710020     -0.48518584328577      1.11042262189543
  O           3.83169357026850     -1.61548851056538      0.63768874681577
  N           3.22266568170896      0.57809488625279      0.84116137617248
  C           3.23864438724485      1.82204620631112      1.54283448775847
  C           2.33336071847016      2.04478813958728      2.59128954039027
  C           2.34186549172994      3.26044988111827      3.28108410611287
  C           3.26401389834803      4.25093324422184      2.93230176783221
  C           4.16081759051971      4.03811337953686      1.88116369293870
  C           4.14891017985538      2.82660892742230      1.18368796633232
  H           5.63902614736137     -1.06409775599606      2.21960185425484
  H           5.23240564169173      0.60673754133475      2.43092752624381
  H           2.41313402504099      0.35755579897444      0.24537492120669
  H           1.62837664504405      1.26120316582155      2.85453189362682
  H           1.63740493815232      3.42617034322723      4.09131203775246
  H           3.28070205844463      5.19111511295774      3.47688832024238
  H           4.86422910900634      4.81691970196072      1.60024963746756
  H           4.83969953839156      2.64361248997308      0.36564613097219
  N          -1.93189039623863     -2.74575086865489     -0.53542894733089
  N          -3.03399706447426     -1.25599507647242     -1.81437954561604
  N          -1.22951707535768      0.37627704103197     -1.99288565104209
  N           0.78080112632446     -0.22559592531597     -0.80502190701107
  N           1.04190337270205     -2.21357599676815      0.39456766984831
  C          -1.05258597229905     -1.69563155749636     -0.75602188252816
  C          -1.75932537874276     -0.78259502951091     -1.55604815476091
  C           0.27298501237347     -1.40110599027829     -0.38348447955574
  C          -3.09311307081682     -2.40916112419495     -1.19200858404311
  C           0.01355651013464      0.58110194053461     -1.57823752542745
  H          -1.78921431859325     -3.56771118027325      0.03170351912856
  H          -3.95584504111482     -3.06299891140925     -1.17457733324487
  H           0.50256720857870      1.48856782118449     -1.92881306358382
  H           2.05482408229081     -2.03141771318394      0.42836890111681
  H           0.77014648147619     -3.17933178762441      0.49707832861799
