25
Coordinates from ORCA-job semicarbazide_adenine_opt_freq E -747.554114676160
  N           4.75163006985339      1.53887104383129      1.84679581679760
  N           4.07373453405365      0.37857199028442      1.43119409777448
  C           4.72572972829826     -0.82088478931207      1.35715412569048
  O           4.12913465002048     -1.85659841760420      1.00654506891998
  N           6.05476668073416     -0.81253643358293      1.66472937555993
  H           4.75788740017739      2.22978668549304      1.09957214469774
  H           4.29125870202953      1.93757800791927      2.66166203058532
  H           3.08112419694984      0.40691076428674      1.16164731880591
  H           6.46904241081526      0.02221627658983      2.05228551875298
  H           6.51342276697914     -1.70505060191166      1.74548097116961
  N          -1.63946013887424     -1.74428884218632     -0.59420040151287
  N          -2.68335726941381      0.24605846604581     -0.72003807232440
  N          -0.82529571160719      1.61316685467506      0.07447743568654
  N           1.16901516820723      0.36069296589370      0.61060744540464
  N           1.35274171779330     -1.95653845324145      0.41465241563329
  C          -0.71968780496988     -0.79534547930900     -0.17230959721198
  C          -1.39318824754206      0.43514052051100     -0.25978751724900
  C           0.61816112433571     -0.82561565549012      0.27605976019776
  C          -2.78621782947062     -1.04982851088999     -0.90054473994867
  C           0.42585793935792      1.48496282197917      0.49238906798324
  H          -1.52812516587581     -2.74602716794467     -0.63670148995385
  H          -3.67297690102893     -1.55910512104845     -1.25582425042502
  H           0.93448937607392      2.40352889735243      0.77962694092553
  H           2.35817238907836     -1.89687358603882      0.63832186697658
  H           1.02452021402485     -2.81894923630203      0.01090366706413
