25
Coordinates from ORCA-job semicarbazide_adenine_opt_freq E -747.288507255005
  N       2.868136      0.799591      1.505306
  N       3.209977     -0.572117      1.499915
  C       4.515852     -1.005915      1.503663
  O       4.828916     -2.188152      1.499679
  N       5.433310     -0.005059      1.499914
  H       3.186090      1.190380      0.612334
  H       1.848712      0.880054      1.485277
  H       2.501451     -1.301870      1.537209
  H       5.102565      0.841414      1.944524
  H       6.380671     -0.293883      1.696478
  N      -1.199000     -1.399700      0.000000
  N      -2.075200      0.649900      0.000000
  N       0.033700      1.859400     -0.000100
  N       1.999800      0.415000      0.000000
  N       1.824100     -1.976000      0.000000
  C      -0.135900     -0.542100      0.000100
  C      -0.705600      0.724100      0.000100
  C       1.235900     -0.700400      0.000000
  C      -2.338600     -0.639400      0.000000
  C       1.360700      1.609200      0.000000
  H      -1.156600     -2.410300     -0.000200
  H      -3.322500     -1.086400     -0.000100
  H       2.003400      2.483100     -0.000100
  H       2.832200     -2.052800      0.000300
  H       1.250300     -2.808200      0.000400
25
Coordinates from ORCA-job semicarbazide_adenine_opt_freq E -747.371508996170
  N       2.929127      0.778634      1.580189
  N       3.273987     -0.592483      1.528623
  C       4.579532     -1.018246      1.508552
  O       4.889949     -2.206129      1.456125
  N       5.496076     -0.006360      1.534546
  H       3.248168      1.196562      0.710155
  H       1.924992      0.874789      1.592451
  H       2.563553     -1.324479      1.541333
  H       5.166873      0.824856      2.011392
  H       6.446202     -0.297707      1.712822
  N      -1.245129     -1.405410      0.002674
  N      -2.129161      0.646992     -0.038629
  N      -0.019441      1.860946     -0.075389
  N       1.964827      0.424580     -0.044142
  N       1.803531     -1.951871     -0.004393
  C      -0.181146     -0.540652     -0.020247
  C      -0.757599      0.727005     -0.045815
  C       1.199240     -0.689468     -0.025507
  C      -2.387615     -0.642677     -0.009443
  C       1.300886      1.620874     -0.071718
  H      -1.202743     -2.415080      0.023559
  H      -3.371105     -1.090949      0.003433
  H       1.934062      2.503120     -0.087140
  H       2.812067     -2.016109     -0.008291
  H       1.243247     -2.790894      0.009560
25
Coordinates from ORCA-job semicarbazide_adenine_opt_freq E -747.425543414812
  N       2.990783      0.780141      1.649216
  N       3.321689     -0.591726      1.558463
  C       4.618141     -1.024472      1.515441
  O       4.905822     -2.221619      1.416154
  N       5.547956     -0.014281      1.565780
  H       3.304701      1.211612      0.792457
  H       1.996949      0.887001      1.687459
  H       2.599621     -1.312407      1.551984
  H       5.234055      0.808068      2.070773
  H       6.496511     -0.321075      1.725357
  N      -1.289768     -1.420472      0.003887
  N      -2.171957      0.640768     -0.062877
  N      -0.056919      1.851877     -0.131890
  N       1.927807      0.426589     -0.089134
  N       1.796045     -1.924328     -0.017165
  C      -0.221439     -0.550242     -0.039633
  C      -0.798116      0.723222     -0.080490
  C       1.168419     -0.686078     -0.053831
  C      -2.428518     -0.648163     -0.012691
  C       1.254862      1.616026     -0.132324
  H      -1.254012     -2.429246      0.039390
  H      -3.413890     -1.092879      0.013030
  H       1.886910      2.500912     -0.162236
  H       2.806620     -1.962225     -0.028772
  H       1.260108     -2.777160      0.006350
25
Coordinates from ORCA-job semicarbazide_adenine_opt_freq E -747.465732788086
  N       3.072179      0.794182      1.714049
  N       3.385638     -0.581685      1.601986
  C       4.669413     -1.026656      1.537643
  O       4.926781     -2.230328      1.388483
  N       5.617783     -0.026240      1.602634
  H       3.360021      1.231932      0.847408
  H       2.075425      0.904612      1.787921
  H       2.652529     -1.282636      1.584295
  H       5.328206      0.791237      2.130062
  H       6.562225     -0.355303      1.742387
  N      -1.345715     -1.439136     -0.004043
  N      -2.221282      0.632138     -0.085482
  N      -0.101862      1.839472     -0.178783
  N       1.876054      0.428395     -0.131193
  N       1.776493     -1.899947     -0.035315
  C      -0.271887     -0.565882     -0.062657
  C      -0.844915      0.715441     -0.112419
  C       1.127544     -0.688649     -0.084869
  C      -2.476357     -0.654341     -0.021698
  C       1.203327      1.608355     -0.185962
  H      -1.322141     -2.447205      0.040685
  H      -3.464810     -1.093186      0.014156
  H       1.837617      2.493052     -0.233707
  H       2.789128     -1.907299     -0.055264
  H       1.270986     -2.770480     -0.015618
25
Coordinates from ORCA-job semicarbazide_adenine_opt_freq E -747.492153215310
  N       3.170389      0.842810      1.760322
  N       3.435007     -0.545256      1.654506
  C       4.697721     -1.040115      1.573539
  O       4.896776     -2.252971      1.399630
  N       5.691249     -0.081284      1.636048
  H       3.406880      1.264400      0.866956
  H       2.175621      0.962172      1.880995
  H       2.673332     -1.207912      1.644774
  H       5.449659      0.750980      2.163696
  H       6.618979     -0.458405      1.767925
  N      -1.382715     -1.463852     -0.013834
  N      -2.273605      0.604381     -0.097516
  N      -0.167418      1.832056     -0.214480
  N       1.816771      0.450536     -0.171257
  N       1.771721     -1.869609     -0.063952
  C      -0.313204     -0.580668     -0.083900
  C      -0.895380      0.701303     -0.136126
  C       1.092883     -0.683017     -0.115745
  C      -2.514846     -0.681664     -0.026297
  C       1.139450      1.619675     -0.232274
  H      -1.361800     -2.471320      0.035166
  H      -3.501338     -1.125568      0.019593
  H       1.767630      2.508402     -0.299075
  H       2.784606     -1.844513     -0.102589
  H       1.304012     -2.760718     -0.061406
25
Coordinates from ORCA-job semicarbazide_adenine_opt_freq E -747.508469435761
  N       3.271340      0.872958      1.814067
  N       3.510308     -0.520345      1.696723
  C       4.763608     -1.040201      1.592234
  O       4.935284     -2.250604      1.383033
  N       5.780259     -0.107759      1.663359
  H       3.440535      1.281569      0.897116
  H       2.280372      0.991262      1.986902
  H       2.734851     -1.165477      1.680440
  H       5.570615      0.729586      2.195753
  H       6.697353     -0.513737      1.783407
  N      -1.430350     -1.474411     -0.038005
  N      -2.330636      0.589442     -0.134327
  N      -0.234606      1.828538     -0.248740
  N       1.753569      0.459858     -0.194615
  N       1.732588     -1.860631     -0.061565
  C      -0.363464     -0.587762     -0.109397
  C      -0.950677      0.693244     -0.169074
  C       1.043786     -0.683757     -0.133967
  C      -2.565126     -0.696417     -0.058247
  C       1.076003      1.625351     -0.263147
  H      -1.411871     -2.481564      0.016776
  H      -3.550241     -1.144017     -0.012712
  H       1.700977      2.514711     -0.340639
  H       2.744938     -1.829107     -0.086577
  H       1.282961     -2.760888     -0.074098
25
Coordinates from ORCA-job semicarbazide_adenine_opt_freq E -747.516725972777
  N       3.348922      0.908312      1.854412
  N       3.540564     -0.494490      1.734477
  C       4.774764     -1.059982      1.611124
  O       4.900626     -2.272825      1.392426
  N       5.826303     -0.168603      1.675246
  H       3.474381      1.302843      0.923021
  H       2.367940      1.044892      2.068513
  H       2.742090     -1.111850      1.722508
  H       5.658470      0.681578      2.201553
  H       6.727916     -0.610272      1.785556
  N      -1.439916     -1.489153     -0.043494
  N      -2.371737      0.559709     -0.156294
  N      -0.295831      1.829821     -0.286371
  N       1.709676      0.486416     -0.221247
  N       1.734530     -1.825495     -0.067288
  C      -0.387098     -0.588096     -0.124210
  C      -0.993081      0.683497     -0.194898
  C       1.019222     -0.664731     -0.149758
  C      -2.587490     -0.729444     -0.068188
  C       1.019262      1.645037     -0.300207
  H      -1.407387     -2.495443      0.020251
  H      -3.565387     -1.191739     -0.016823
  H       1.632023      2.541430     -0.385533
  H       2.746449     -1.775239     -0.106702
  H       1.307169     -2.736330     -0.083372
25
Coordinates from ORCA-job semicarbazide_adenine_opt_freq E -747.520867832569
  N       3.402324      0.923182      1.888009
  N       3.571246     -0.482333      1.756560
  C       4.796608     -1.066044      1.616087
  O       4.902059     -2.276534      1.379018
  N       5.863324     -0.194258      1.682747
  H       3.496973      1.314365      0.950150
  H       2.429761      1.071796      2.135497
  H       2.763862     -1.088189      1.740189
  H       5.716431      0.657032      2.212883
  H       6.758679     -0.651100      1.780211
  N      -1.452107     -1.495157     -0.051501
  N      -2.399864      0.544576     -0.181855
  N      -0.333946      1.830381     -0.313960
  N       1.681240      0.500428     -0.233259
  N       1.719112     -1.813259     -0.059264
  C      -0.407085     -0.586787     -0.135321
  C      -1.022842      0.678534     -0.216792
  C       0.998114     -0.655163     -0.155095
  C      -2.606601     -0.746278     -0.085220
  C       0.982684      1.654885     -0.322239
  H      -1.410017     -2.500671      0.019737
  H      -3.580493     -1.216495     -0.033565
  H       1.588408      2.555020     -0.412790
  H       2.730320     -1.762596     -0.096852
  H       1.294190     -2.725491     -0.078677
25
Coordinates from ORCA-job semicarbazide_adenine_opt_freq E -747.525526149085
  N       3.484743      0.953653      1.925852
  N       3.605236     -0.457111      1.791043
  C       4.809304     -1.081375      1.629725
  O       4.869016     -2.291945      1.379792
  N       5.907817     -0.250989      1.692572
  H       3.531120      1.337199      0.979867
  H       2.532586      1.130217      2.230818
  H       2.778886     -1.037122      1.773539
  H       5.800400      0.608608      2.218081
  H       6.788091     -0.738478      1.776215
  N      -1.459956     -1.509636     -0.059177
  N      -2.439400      0.512894     -0.212245
  N      -0.393151      1.829704     -0.352100
  N       1.641615      0.529553     -0.252355
  N       1.709925     -1.783246     -0.054879
  C      -0.429945     -0.585573     -0.148945
  C      -1.065755      0.667866     -0.244818
  C       0.975032     -0.634279     -0.163522
  C      -2.626896     -0.780771     -0.103220
  C       0.925664      1.673493     -0.354439
  H      -1.399027     -2.513415      0.022493
  H      -3.592963     -1.266275     -0.049361
  H       1.517742      2.581596     -0.452064
  H       2.720382     -1.726466     -0.105131
  H       1.291915     -2.698260     -0.083040
25
Coordinates from ORCA-job semicarbazide_adenine_opt_freq E -747.530338558072
  N       3.606354      0.994908      1.963457
  N       3.660887     -0.419673      1.835836
  C       4.834299     -1.097352      1.652119
  O       4.832444     -2.305972      1.387095
  N       5.972829     -0.324979      1.710463
  H       3.571904      1.368642      1.011447
  H       2.697574      1.213211      2.363587
  H       2.810333     -0.963960      1.807969
  H       5.916642      0.547084      2.222033
  H       6.830725     -0.852367      1.779755
  N      -1.476930     -1.529885     -0.074932
  N      -2.495501      0.470095     -0.257624
  N      -0.474710      1.826269     -0.397030
  N       1.584660      0.567049     -0.270943
  N       1.688083     -1.748262     -0.044150
  C      -0.465327     -0.585866     -0.168419
  C      -1.126149      0.652318     -0.281779
  C       0.940442     -0.608935     -0.171506
  C      -2.658241     -0.826198     -0.135313
  C       0.846263      1.695661     -0.387961
  H      -1.392815     -2.530836      0.020003
  H      -3.614479     -1.330670     -0.082179
  H       1.421283      2.613717     -0.492048
  H       2.696691     -1.689254     -0.111109
  H       1.275122     -2.664902     -0.094073
25
Coordinates from ORCA-job semicarbazide_adenine_opt_freq E -747.534748965526
  N       3.756938      1.050498      1.971388
  N       3.720288     -0.364673      1.890704
  C       4.847026     -1.118071      1.691701
  O       4.760154     -2.326665      1.441671
  N       6.035605     -0.428471      1.729492
  H       3.606115      1.403825      1.022163
  H       2.938686      1.337810      2.502748
  H       2.838641     -0.857055      1.846191
  H       6.048244      0.470491      2.193787
  H       6.858683     -1.008152      1.797108
  N      -1.489544     -1.559288     -0.099759
  N      -2.558729      0.411669     -0.304333
  N      -0.572393      1.819620     -0.431463
  N       1.518641      0.615761     -0.278982
  N       1.669250     -1.702287     -0.033292
  C      -0.502157     -0.588744     -0.190071
  C      -1.194898      0.629969     -0.316545
  C       0.904683     -0.576602     -0.177940
  C      -2.688258     -0.887764     -0.175382
  C       0.750691      1.723550     -0.406979
  H      -1.377044     -2.556377      0.005587
  H      -3.631324     -1.416957     -0.127407
  H       1.303255      2.655566     -0.507537
  H       2.674315     -1.637779     -0.133637
  H       1.265514     -2.620030     -0.124514
25
Coordinates from ORCA-job semicarbazide_adenine_opt_freq E -747.537365704656
  N       3.867144      1.079583      1.985964
  N       3.773564     -0.330905      1.943272
  C       4.867798     -1.128780      1.718732
  O       4.726742     -2.333412      1.475477
  N       6.083016     -0.490769      1.726655
  H       3.622547      1.424568      1.054031
  H       3.144652      1.415489      2.618135
  H       2.873711     -0.790061      1.878258
  H       6.143750      0.424783      2.151568
  H       6.885395     -1.099593      1.778924
  N      -1.510670     -1.578620     -0.126498
  N      -2.607814      0.373928     -0.360540
  N      -0.641205      1.812431     -0.463374
  N       1.465540      0.642083     -0.273677
  N       1.646922     -1.670656     -0.003384
  C      -0.537406     -0.592861     -0.210009
  C      -1.247185      0.613858     -0.353458
  C       0.869289     -0.557958     -0.176404
  C      -2.718260     -0.926358     -0.224129
  C       0.682462      1.737319     -0.416014
  H      -1.383566     -2.572540     -0.008486
  H      -3.653647     -1.469873     -0.185648
  H       1.223000      2.677115     -0.509474
  H       2.650272     -1.597228     -0.114382
  H       1.256328     -2.591700     -0.120838
25
Coordinates from ORCA-job semicarbazide_adenine_opt_freq E -747.538799698958
  N       3.933765      1.097220      2.000877
  N       3.803328     -0.308488      1.987601
  C       4.871938     -1.134351      1.729276
  O       4.693603     -2.335559      1.494941
  N       6.102522     -0.529835      1.708535
  H       3.629929      1.442167      1.087651
  H       3.291626      1.468257      2.696204
  H       2.891379     -0.743152      1.910568
  H       6.196030      0.394181      2.107351
  H       6.891869     -1.156458      1.739992
  N      -1.523137     -1.592203     -0.146680
  N      -2.634808      0.349540     -0.404462
  N      -0.679990      1.805970     -0.485775
  N       1.433273      0.655795     -0.262240
  N       1.637046     -1.651102      0.026628
  C      -0.557815     -0.598075     -0.221494
  C      -1.276015      0.601994     -0.380465
  C       0.847846     -0.548677     -0.168205
  C      -2.734937     -0.950859     -0.263101
  C       0.643480      1.744117     -0.418787
  H      -1.389757     -2.584059     -0.018807
  H      -3.666004     -1.502411     -0.234126
  H       1.177105      2.688446     -0.505550
  H       2.639064     -1.565845     -0.090641
  H       1.261041     -2.576769     -0.104594
25
Coordinates from ORCA-job semicarbazide_adenine_opt_freq E -747.540419216025
  N       4.022134      1.119509      2.042624
  N       3.844576     -0.277568      2.072981
  C       4.871091     -1.135193      1.737218
  O       4.638294     -2.325086      1.496139
  N       6.116721     -0.572714      1.652415
  H       3.636514      1.470684      1.164846
  H       3.513169      1.535450      2.817159
  H       2.916144     -0.675889      1.974843
  H       6.260193      0.357534      2.019052
  H       6.888707     -1.219996      1.622253
  N      -1.541176     -1.610427     -0.179784
  N      -2.663546      0.317741     -0.490319
  N      -0.722264      1.793293     -0.525206
  N       1.393142      0.667050     -0.229574
  N       1.617375     -1.631673      0.096983
  C      -0.583723     -0.608078     -0.235555
  C      -1.307850      0.584080     -0.427632
  C       0.818611     -0.542324     -0.140636
  C      -2.754970     -0.981814     -0.338316
  C       0.599352      1.746986     -0.417438
  H      -1.404442     -2.599076     -0.032165
  H      -3.681320     -1.542061     -0.331431
  H       1.125899      2.695976     -0.493824
  H       2.618141     -1.533009     -0.020704
  H       1.261610     -2.563556     -0.049229
25
Coordinates from ORCA-job semicarbazide_adenine_opt_freq E -747.541559009529
  N       4.118963      1.143817      2.115476
  N       3.893616     -0.243225      2.193167
  C       4.852084     -1.122194      1.717902
  O       4.552455     -2.293641      1.462668
  N       6.107044     -0.606915      1.550961
  H       3.646018      1.509168      1.289413
  H       3.778006      1.597971      2.956547
  H       2.945851     -0.594247      2.073304
  H       6.310606      0.321420      1.891803
  H       6.850066     -1.274740      1.420559
  N      -1.556335     -1.631209     -0.221054
  N      -2.679048      0.282153     -0.612547
  N      -0.751411      1.774213     -0.579013
  N       1.356766      0.671822     -0.172076
  N       1.588123     -1.617488      0.210955
  C      -0.605656     -0.621860     -0.246464
  C      -1.329340      0.561468     -0.490962
  C       0.789552     -0.541285     -0.088081
  C      -2.766633     -1.015548     -0.444820
  C       0.564661      1.742344     -0.409977
  H      -1.421328     -2.615433     -0.045028
  H      -3.687691     -1.583865     -0.472686
  H       1.085654      2.695141     -0.474024
  H       2.589759     -1.512939      0.103349
  H       1.250600     -2.555085      0.055328
25
Coordinates from ORCA-job semicarbazide_adenine_opt_freq E -747.542196080860
  N       4.158977      1.153246      2.196238
  N       3.924937     -0.234185      2.283148
  C       4.832648     -1.097571      1.681854
  O       4.491519     -2.245268      1.375782
  N       6.077222     -0.589678      1.445521
  H       3.642982      1.537427      1.406108
  H       3.902190      1.610432      3.064193
  H       2.967830     -0.559968      2.156685
  H       6.315270      0.327425      1.793585
  H       6.797421     -1.251703      1.205099
  N      -1.565624     -1.637677     -0.243293
  N      -2.661858      0.272864     -0.714558
  N      -0.730092      1.756692     -0.628969
  N       1.354660      0.652561     -0.118499
  N       1.555588     -1.633265      0.318726
  C      -0.609678     -0.633252     -0.246874
  C      -1.316850      0.548527     -0.542334
  C       0.778295     -0.557258     -0.034075
  C      -2.762888     -1.021131     -0.526821
  C       0.578299      1.721751     -0.406371
  H      -1.444196     -2.618376     -0.039819
  H      -3.684704     -1.586155     -0.582413
  H       1.105650      2.671363     -0.465211
  H       2.561593     -1.546262      0.235108
  H       1.213189     -2.570696      0.171887
25
Coordinates from ORCA-job semicarbazide_adenine_opt_freq E -747.543250040194
  N       4.194796      1.153581      2.335642
  N       3.973312     -0.241496      2.396824
  C       4.781862     -1.031120      1.575493
  O       4.380007     -2.130476      1.176596
  N       5.997011     -0.509185      1.257573
  H       3.625633      1.576063      1.604372
  H       4.023546      1.588764      3.234138
  H       3.003034     -0.535985      2.289330
  H       6.278109      0.376552      1.651901
  H       6.667436     -1.127528      0.829974
  N      -1.575733     -1.637970     -0.265594
  N      -2.594204      0.276008     -0.874873
  N      -0.638954      1.721335     -0.710502
  N       1.382530      0.592181     -0.024089
  N       1.490479     -1.688704      0.504520
  C      -0.599182     -0.653875     -0.236602
  C      -1.258280      0.530051     -0.620540
  C       0.773567     -0.603535      0.065551
  C      -2.737379     -1.008284     -0.650201
  C       0.651147      1.664934     -0.399979
  H      -1.491883     -2.611700     -0.015238
  H      -3.665497     -1.556692     -0.749474
  H       1.202370      2.601176     -0.456477
  H       2.504849     -1.657465      0.481135
  H       1.113804     -2.616788      0.385219
25
Coordinates from ORCA-job semicarbazide_adenine_opt_freq E -747.544029290929
  N       4.174206      1.143426      2.403653
  N       3.996096     -0.259489      2.409539
  C       4.774630     -0.982639      1.497184
  O       4.374891     -2.067133      1.054228
  N       5.955317     -0.412541      1.150331
  H       3.585155      1.590004      1.701797
  H       3.987109      1.537051      3.318177
  H       3.032111     -0.571369      2.353288
  H       6.228596      0.460672      1.577568
  H       6.611907     -0.973275      0.631411
  N      -1.591899     -1.622502     -0.264152
  N      -2.532398      0.303005     -0.954898
  N      -0.541946      1.696032     -0.755091
  N       1.421072      0.526238      0.032953
  N       1.433758     -1.749522      0.610285
  C      -0.589470     -0.664723     -0.220546
  C      -1.200442      0.525867     -0.657223
  C       0.773542     -0.650168      0.130280
  C      -2.720675     -0.971290     -0.705981
  C       0.734238      1.607828     -0.397329
  H      -1.543844     -2.591371      0.012924
  H      -3.659423     -1.496642     -0.827156
  H       1.314820      2.526037     -0.459621
  H       2.454306     -1.774051      0.631601
  H       1.010724     -2.659602      0.511478
25
Coordinates from ORCA-job semicarbazide_adenine_opt_freq E -747.544498354369
  N       4.150936      1.167821      2.418527
  N       3.959048     -0.229831      2.404965
  C       4.697235     -0.970087      1.475007
  O       4.273321     -2.060673      1.066503
  N       5.870062     -0.416391      1.086641
  H       3.567705      1.629444      1.720103
  H       3.932742      1.545305      3.333558
  H       2.994497     -0.537061      2.425493
  H       6.161606      0.458140      1.499615
  H       6.498032     -0.974727      0.531380
  N      -1.558860     -1.623645     -0.257666
  N      -2.483862      0.308278     -0.951484
  N      -0.483820      1.689303     -0.741007
  N       1.464935      0.506499      0.067329
  N       1.467437     -1.773084      0.611814
  C      -0.551885     -0.669953     -0.203385
  C      -1.153190      0.523563     -0.643762
  C       0.811205     -0.666476      0.154657
  C      -2.680912     -0.965733     -0.706701
  C       0.788403      1.591351     -0.374025
  H      -1.515965     -2.593602      0.016204
  H      -3.621332     -1.486012     -0.836394
  H       1.375844      2.505670     -0.434153
  H       2.493647     -1.815442      0.619171
  H       1.025551     -2.672815      0.502308
25
Coordinates from ORCA-job semicarbazide_adenine_opt_freq E -747.544816480117
  N       4.129560      1.171681      2.387183
  N       3.958972     -0.225124      2.353037
  C       4.753509     -0.966043      1.481061
  O       4.394936     -2.094576      1.114202
  N       5.924727     -0.387267      1.122440
  H       3.537675      1.623430      1.687583
  H       3.882212      1.515877      3.309490
  H       3.004602     -0.565891      2.390438
  H       6.171735      0.509635      1.515773
  H       6.590733     -0.939837      0.607959
  N      -1.590209     -1.612209     -0.250889
  N      -2.496301      0.331350     -0.937223
  N      -0.478537      1.689118     -0.734100
  N       1.460725      0.483344      0.065400
  N       1.443644     -1.796271      0.593725
  C      -0.572169     -0.669557     -0.200847
  C      -1.161735      0.530918     -0.635318
  C       0.793937     -0.682368      0.149586
  C      -2.706415     -0.940754     -0.693814
  C       0.793391      1.575951     -0.372405
  H      -1.555730     -2.583522      0.019346
  H      -3.653659     -1.449611     -0.819279
  H       1.391848      2.482912     -0.436474
  H       2.472341     -1.841123      0.596684
  H       0.992590     -2.690220      0.471142
25
Coordinates from ORCA-job semicarbazide_adenine_opt_freq E -747.545369557893
  N       4.161064      1.176854      2.421938
  N       3.979724     -0.219529      2.377514
  C       4.734768     -0.939231      1.457581
  O       4.341338     -2.044531      1.056227
  N       5.900185     -0.364146      1.073114
  H       3.532318      1.628543      1.755553
  H       3.971367      1.510821      3.361390
  H       3.017084     -0.548686      2.416720
  H       6.169576      0.523720      1.471281
  H       6.529023     -0.899122      0.497587
  N      -1.596950     -1.615634     -0.266432
  N      -2.472079      0.328369     -0.991004
  N      -0.449864      1.673373     -0.751486
  N       1.461077      0.460661      0.103040
  N       1.417344     -1.815145      0.651620
  C      -0.573201     -0.680156     -0.201709
  C      -1.143030      0.520660     -0.659872
  C       0.784669     -0.699828      0.179295
  C      -2.697286     -0.939695     -0.740896
  C       0.811897      1.554712     -0.357905
  H      -1.577224     -2.584174      0.015035
  H      -3.645709     -1.442076     -0.882736
  H       1.418373      2.456794     -0.414861
  H       2.442799     -1.864786      0.691014
  H       0.965116     -2.707924      0.522691
25
Coordinates from ORCA-job semicarbazide_adenine_opt_freq E -747.545782046341
  N       4.183003      1.201113      2.427874
  N       3.977780     -0.197125      2.385662
  C       4.703489     -0.928324      1.456500
  O       4.285493     -2.028341      1.062756
  N       5.868915     -0.371832      1.042738
  H       3.525797      1.652424      1.790604
  H       4.042152      1.533434      3.375980
  H       3.011707     -0.512409      2.438072
  H       6.154658      0.522079      1.414295
  H       6.464740     -0.908840      0.434881
  N      -1.592389     -1.622918     -0.283481
  N      -2.452202      0.326415     -1.012728
  N      -0.430150      1.665352     -0.740806
  N       1.464071      0.445439      0.137789
  N       1.414627     -1.832166      0.670990
  C      -0.567213     -0.690658     -0.201672
  C      -1.126668      0.513554     -0.663444
  C       0.785513     -0.714600      0.195674
  C      -2.684336     -0.941623     -0.769514
  C       0.824983      1.543528     -0.327992
  H      -1.579935     -2.592277     -0.004429
  H      -3.632853     -1.439976     -0.924566
  H       1.433717      2.444947     -0.369387
  H       2.437785     -1.871271      0.722858
  H       0.969695     -2.726082      0.526046
25
Coordinates from ORCA-job semicarbazide_adenine_opt_freq E -747.546137442580
  N       4.199609      1.233322      2.421760
  N       3.975236     -0.165609      2.380973
  C       4.677092     -0.910119      1.449238
  O       4.252156     -2.018006      1.082561
  N       5.837151     -0.366922      1.003646
  H       3.503318      1.686394      1.829818
  H       4.114147      1.557900      3.379155
  H       3.011124     -0.475221      2.462555
  H       6.123062      0.544189      1.329933
  H       6.400468     -0.903702      0.365508
  N      -1.593608     -1.627260     -0.306095
  N      -2.420880      0.334023     -1.041296
  N      -0.393695      1.653744     -0.719842
  N       1.469893      0.412483      0.191329
  N       1.397643     -1.867814      0.701181
  C      -0.562279     -0.704950     -0.197575
  C      -1.100853      0.507139     -0.663819
  C       0.782002     -0.743118      0.225209
  C      -2.669240     -0.933174     -0.810165
  C       0.851071      1.519521     -0.280401
  H      -1.596000     -2.597990     -0.031598
  H      -3.619296     -1.421405     -0.986636
  H       1.467705      2.416322     -0.300862
  H       2.420890     -1.901036      0.767191
  H       0.955664     -2.758867      0.532931
25
Coordinates from ORCA-job semicarbazide_adenine_opt_freq E -747.546430451977
  N       4.210871      1.268574      2.394759
  N       3.971934     -0.129257      2.370887
  C       4.662444     -0.897220      1.451804
  O       4.240334     -2.019133      1.125112
  N       5.816343     -0.366693      0.975566
  H       3.477689      1.724743      1.852106
  H       4.181949      1.592810      3.356255
  H       3.010916     -0.435396      2.478745
  H       6.088801      0.568299      1.239765
  H       6.352530     -0.910781      0.320416
  N      -1.595523     -1.631032     -0.334809
  N      -2.392838      0.345804     -1.061293
  N      -0.363552      1.645667     -0.682589
  N       1.472135      0.378160      0.246688
  N       1.376806     -1.906754      0.725157
  C      -0.559396     -0.719037     -0.194280
  C      -1.079202      0.503679     -0.655588
  C       0.775715     -0.773273      0.253292
  C      -2.655711     -0.922108     -0.850923
  C       0.871521      1.496510     -0.220418
  H      -1.611302     -2.604736     -0.071463
  H      -3.606036     -1.400209     -1.051825
  H       1.494725      2.388992     -0.216185
  H       2.400709     -1.932777      0.803227
  H       0.940517     -2.794990      0.530292
25
Coordinates from ORCA-job semicarbazide_adenine_opt_freq E -747.546602699596
  N       4.220833      1.293238      2.369170
  N       3.975270     -0.101887      2.369112
  C       4.649265     -0.886494      1.449537
  O       4.224060     -2.015449      1.153060
  N       5.799261     -0.368686      0.951283
  H       3.462033      1.755117      1.867877
  H       4.240304      1.623556      3.329594
  H       3.014888     -0.401341      2.495268
  H       6.059935      0.581763      1.168410
  H       6.310427     -0.918352      0.280827
  N      -1.593509     -1.634787     -0.362684
  N      -2.370183      0.354084     -1.078097
  N      -0.343196      1.640564     -0.647714
  N       1.472722      0.352894      0.292722
  N       1.357516     -1.935179      0.749323
  C      -0.556107     -0.729436     -0.192890
  C      -1.063340      0.501492     -0.647815
  C       0.770329     -0.795359      0.277856
  C      -2.641854     -0.915332     -0.888365
  C       0.884086      1.479531     -0.168016
  H      -1.618077     -2.611165     -0.110075
  H      -3.590169     -1.387233     -1.112034
  H       1.510621      2.369438     -0.143624
  H       2.381486     -1.959768      0.845918
  H       0.925777     -2.821365      0.536057
25
Coordinates from ORCA-job semicarbazide_adenine_opt_freq E -747.546715238354
  N       4.227155      1.311385      2.333858
  N       3.976312     -0.080007      2.367275
  C       4.649521     -0.889439      1.465117
  O       4.218062     -2.021074      1.192298
  N       5.804168     -0.387987      0.959358
  H       3.462758      1.779266      1.846712
  H       4.272203      1.657077      3.288555
  H       3.012230     -0.369602      2.490941
  H       6.056323      0.572949      1.137795
  H       6.304851     -0.950825      0.291603
  N      -1.589924     -1.639661     -0.386235
  N      -2.370349      0.358702     -1.069892
  N      -0.350035      1.644171     -0.607423
  N       1.468327      0.345578      0.314041
  N       1.351657     -1.948256      0.744690
  C      -0.556080     -0.734190     -0.196456
  C      -1.066114      0.503054     -0.631722
  C       0.767485     -0.804045      0.281728
  C      -2.638585     -0.914816     -0.903654
  C       0.876636      1.477890     -0.127473
  H      -1.612216     -2.620123     -0.149658
  H      -3.583849     -1.386454     -1.140337
  H       1.499958      2.369582     -0.087565
  H       2.374108     -1.968667      0.854033
  H       0.927780     -2.834664      0.517109
25
Coordinates from ORCA-job semicarbazide_adenine_opt_freq E -747.546782820056
  N       4.235877      1.320896      2.315901
  N       3.981727     -0.067968      2.370412
  C       4.645358     -0.888138      1.468210
  O       4.204543     -2.017919      1.205506
  N       5.804419     -0.399074      0.960573
  H       3.470411      1.792654      1.834365
  H       4.297676      1.679046      3.265192
  H       3.013501     -0.347015      2.489874
  H       6.053937      0.565625      1.121950
  H       6.293873     -0.965198      0.287287
  N      -1.586399     -1.643494     -0.403250
  N      -2.368716      0.360075     -1.069010
  N      -0.353221      1.645218     -0.583113
  N       1.465525      0.340515      0.331355
  N       1.345323     -1.956054      0.746845
  C      -0.555550     -0.737353     -0.199612
  C      -1.066985      0.502893     -0.623746
  C       0.765173     -0.809398      0.286919
  C      -2.634517     -0.915864     -0.917575
  C       0.871822      1.475670     -0.100530
  H      -1.607100     -2.626256     -0.176277
  H      -3.577152     -1.387702     -1.164109
  H       1.492703      2.368662     -0.050224
  H       2.365441     -1.978117      0.876770
  H       0.924711     -2.841863      0.510983
25
Coordinates from ORCA-job semicarbazide_adenine_opt_freq E -747.546870981566
  N       4.244757      1.332789      2.284431
  N       3.981192     -0.052258      2.366860
  C       4.648777     -0.894402      1.486574
  O       4.198100     -2.022161      1.235305
  N       5.820423     -0.424310      0.988517
  H       3.490530      1.805730      1.787100
  H       4.307539      1.711318      3.225581
  H       3.006281     -0.317075      2.468483
  H       6.068317      0.544067      1.130298
  H       6.307526     -0.999921      0.321502
  N      -1.583204     -1.648365     -0.419873
  N      -2.381154      0.360983     -1.048580
  N      -0.371905      1.651046     -0.546837
  N       1.459514      0.342695      0.339376
  N       1.347784     -1.960315      0.724390
  C      -0.557428     -0.738579     -0.205651
  C      -1.078790      0.504707     -0.606211
  C       0.764333     -0.810219      0.279193
  C      -2.637888     -0.919147     -0.917916
  C       0.855316      1.480834     -0.071474
  H      -1.595975     -2.634904     -0.209338
  H      -3.578046     -1.393284     -1.169462
  H       1.470143      2.377379     -0.009060
  H       2.363889     -1.981378      0.874341
  H       0.932351     -2.845386      0.477148
25
Coordinates from ORCA-job semicarbazide_adenine_opt_freq E -747.547057757057
  N       4.263326      1.358136      2.220726
  N       3.976787     -0.018486      2.351854
  C       4.653560     -0.902367      1.520088
  O       4.185815     -2.026965      1.289686
  N       5.851664     -0.470926      1.048773
  H       3.532861      1.825172      1.684845
  H       4.319089      1.775946      3.145120
  H       2.991515     -0.256157      2.418657
  H       6.096124      0.503434      1.153086
  H       6.334496     -1.062650      0.392770
  N      -1.578885     -1.656284     -0.450667
  N      -2.402664      0.363467     -1.008985
  N      -0.403761      1.658954     -0.474571
  N       1.448001      0.342188      0.360229
  N       1.353209     -1.971610      0.677421
  C      -0.561569     -0.741712     -0.215300
  C      -1.099165      0.506797     -0.570833
  C       0.762018     -0.814654      0.266441
  C      -2.644599     -0.923072     -0.917944
  C       0.826272      1.486308     -0.010571
  H      -1.578073     -2.649309     -0.272908
  H      -3.580984     -1.399363     -1.179354
  H       1.430804      2.387863      0.078161
  H       2.360856     -1.991335      0.870179
  H       0.945685     -2.853532      0.407797
25
Coordinates from ORCA-job semicarbazide_adenine_opt_freq E -747.547306883587
  N       4.281390      1.383733      2.153859
  N       3.968047      0.016619      2.326046
  C       4.658807     -0.907307      1.552472
  O       4.176072     -2.028695      1.337391
  N       5.885909     -0.515214      1.120662
  H       3.579789      1.833669      1.567874
  H       4.312433      1.839440      3.060815
  H       2.975213     -0.196347      2.354521
  H       6.128885      0.463122      1.190921
  H       6.368606     -1.121684      0.477925
  N      -1.576940     -1.661901     -0.476596
  N      -2.423785      0.366204     -0.966171
  N      -0.433629      1.664285     -0.401919
  N       1.435989      0.339792      0.382249
  N       1.361744     -1.982985      0.624310
  C      -0.566695     -0.744542     -0.221402
  C      -1.118621      0.508079     -0.533052
  C       0.759522     -0.819818      0.254530
  C      -2.652701     -0.924989     -0.913862
  C       0.798971      1.489280      0.051189
  H      -1.563851     -2.660196     -0.332104
  H      -3.586379     -1.401802     -1.183867
  H       1.394414      2.393907      0.167473
  H       2.360585     -2.002288      0.855519
  H       0.958606     -2.860518      0.335917
25
Coordinates from ORCA-job semicarbazide_adenine_opt_freq E -747.547569417231
  N       4.296700      1.401858      2.117509
  N       3.961124      0.039585      2.300689
  C       4.659362     -0.904263      1.561701
  O       4.166501     -2.022208      1.345972
  N       5.906642     -0.538832      1.163921
  H       3.614464      1.833047      1.495754
  H       4.297286      1.875126      3.015571
  H       2.964530     -0.157586      2.304781
  H       6.152696      0.440170      1.219686
  H       6.387495     -1.150086      0.524032
  N      -1.577525     -1.664538     -0.488846
  N      -2.429923      0.367959     -0.949738
  N      -0.445775      1.664327     -0.362102
  N       1.425560      0.334450      0.407080
  N       1.365214     -1.992846      0.599526
  C      -0.570601     -0.748040     -0.218796
  C      -1.125817      0.507200     -0.512214
  C       0.755506     -0.826281      0.257577
  C      -2.655039     -0.924596     -0.916869
  C       0.785447      1.487459      0.092782
  H      -1.560734     -2.665212     -0.362426
  H      -3.587189     -1.399666     -1.195054
  H       1.377078      2.391860      0.228254
  H       2.359253     -2.011746      0.849966
  H       0.960125     -2.867299      0.305942
25
Coordinates from ORCA-job semicarbazide_adenine_opt_freq E -747.547847880058
  N       4.315998      1.419509      2.078293
  N       3.957752      0.061799      2.270478
  C       4.666715     -0.900476      1.569224
  O       4.168362     -2.016768      1.352232
  N       5.934191     -0.560400      1.211639
  H       3.650082      1.833684      1.427744
  H       4.286469      1.906614      2.968369
  H       2.959243     -0.122899      2.246027
  H       6.184030      0.418962      1.248413
  H       6.416346     -1.179837      0.580221
  N      -1.582823     -1.666776     -0.502202
  N      -2.438462      0.369751     -0.938138
  N      -0.462435      1.663416     -0.322820
  N       1.407851      0.328587      0.435342
  N       1.364934     -2.000887      0.580106
  C      -0.579606     -0.752409     -0.213987
  C      -1.136722      0.506111     -0.492070
  C       0.745566     -0.833206      0.263973
  C      -2.660304     -0.923737     -0.925433
  C       0.767116      1.484829      0.136610
  H      -1.563938     -2.669511     -0.393551
  H      -3.590198     -1.396660     -1.214525
  H       1.354932      2.388267      0.292351
  H       2.357219     -2.012847      0.839014
  H       0.960061     -2.875270      0.287390
25
Coordinates from ORCA-job semicarbazide_adenine_opt_freq E -747.548265947495
  N       4.347442      1.445950      2.020081
  N       3.953802      0.095767      2.220751
  C       4.674652     -0.892403      1.571921
  O       4.164540     -2.002799      1.346212
  N       5.969928     -0.591771      1.277574
  H       3.705767      1.843823      1.335206
  H       4.271756      1.949159      2.898787
  H       2.953684     -0.069427      2.150682
  H       6.231274      0.385762      1.287330
  H       6.449745     -1.223375      0.655659
  N      -1.588963     -1.670181     -0.524490
  N      -2.445895      0.371943     -0.929143
  N      -0.485011      1.659892     -0.263453
  N       1.379413      0.317334      0.486780
  N       1.361864     -2.012850      0.565321
  C      -0.592775     -0.760233     -0.202975
  C      -1.150602      0.503468     -0.462597
  C       0.728919     -0.845355      0.282732
  C      -2.663719     -0.922170     -0.946448
  C       0.740417      1.477818      0.207636
  H      -1.568188     -2.675389     -0.441902
  H      -3.588523     -1.391458     -1.256855
  H       1.322004      2.379102      0.394409
  H       2.353155     -2.013798      0.832679
  H       0.957692     -2.888966      0.278805
25
Coordinates from ORCA-job semicarbazide_adenine_opt_freq E -747.548952336695
  N       4.402623      1.479304      1.935010
  N       3.951859      0.142955      2.137826
  C       4.687450     -0.879793      1.566305
  O       4.161841     -1.979617      1.320111
  N       6.017671     -0.637339      1.379769
  H       3.799100      1.866537      1.209390
  H       4.262251      1.999776      2.796593
  H       2.953734      0.006296      1.986156
  H       6.306383      0.332874      1.356191
  H       6.498520     -1.289940      0.779173
  N      -1.597989     -1.675566     -0.557571
  N      -2.460088      0.371710     -0.920480
  N      -0.526784      1.653280     -0.177507
  N       1.329625      0.303542      0.565854
  N       1.355626     -2.022327      0.555734
  C      -0.616028     -0.771519     -0.183946
  C      -1.176792      0.498279     -0.419823
  C       0.699615     -0.859771      0.315397
  C      -2.668221     -0.922525     -0.982557
  C       0.692210      1.467873      0.312536
  H      -1.572589     -2.683069     -0.511866
  H      -3.582646     -1.388010     -1.327357
  H       1.261856      2.366093      0.543420
  H       2.346987     -2.005002      0.823825
  H       0.956168     -2.904196      0.282519
25
Coordinates from ORCA-job semicarbazide_adenine_opt_freq E -747.549651166884
  N       4.475948      1.514169      1.855631
  N       3.942501      0.198694      2.021462
  C       4.677831     -0.861561      1.525930
  O       4.127298     -1.940447      1.241355
  N       6.035325     -0.694375      1.463047
  H       3.922084      1.935962      1.107996
  H       4.265017      2.030425      2.707668
  H       2.950529      0.103229      1.777192
  H       6.379097      0.257395      1.417917
  H       6.508750     -1.376084      0.887195
  N      -1.592831     -1.684722     -0.593797
  N      -2.457646      0.364238     -0.935948
  N      -0.569886      1.642165     -0.088829
  N       1.265985      0.289984      0.680835
  N       1.350298     -2.025389      0.590749
  C      -0.636264     -0.786747     -0.150191
  C      -1.198032      0.488442     -0.377205
  C       0.666338     -0.874143      0.379595
  C      -2.651312     -0.929060     -1.042935
  C       0.635958      1.456005      0.438207
  H      -1.561465     -2.693120     -0.582270
  H      -3.546414     -1.392466     -1.437541
  H       1.188351      2.351286      0.715325
  H       2.344425     -1.985957      0.843206
  H       0.960492     -2.918079      0.340106
25
Coordinates from ORCA-job semicarbazide_adenine_opt_freq E -747.550253704402
  N       4.503324      1.515454      1.748031
  N       3.950859      0.215643      1.968521
  C       4.710177     -0.876011      1.588734
  O       4.172400     -1.967611      1.338234
  N       6.070280     -0.708563      1.600946
  H       4.000285      1.907806      0.950697
  H       4.268050      2.083450      2.559765
  H       2.975605      0.116029      1.665096
  H       6.412052      0.240379      1.505558
  H       6.579057     -1.424888      1.102283
  N      -1.604840     -1.680607     -0.626903
  N      -2.518356      0.363739     -0.852461
  N      -0.634426      1.641702      0.011313
  N       1.247458      0.294322      0.673957
  N       1.363203     -2.014592      0.495599
  C      -0.656050     -0.782213     -0.166119
  C      -1.248525      0.488772     -0.319181
  C       0.658011     -0.868210      0.336607
  C      -2.688451     -0.927278     -1.014743
  C       0.586825      1.457132      0.498728
  H      -1.551108     -2.687464     -0.662641
  H      -3.582794     -1.391448     -1.410274
  H       1.127737      2.352037      0.799882
  H       2.354592     -1.971621      0.772605
  H       0.987016     -2.906117      0.220466
25
Coordinates from ORCA-job semicarbazide_adenine_opt_freq E -747.549856118249
  N       4.569234      1.480668      1.779052
  N       3.957869      0.208800      1.954311
  C       4.673633     -0.910439      1.564168
  O       4.091676     -1.979534      1.343609
  N       6.033652     -0.763208      1.519802
  H       4.143771      2.051423      1.046725
  H       4.422644      2.047012      2.614374
  H       2.956940      0.172454      1.714631
  H       6.415635      0.170423      1.448292
  H       6.543609     -1.532484      1.111363
  N      -1.568952     -1.705815     -0.646282
  N      -2.561476      0.303872     -0.853909
  N      -0.718054      1.651170      0.013884
  N       1.218869      0.373204      0.663479
  N       1.372375     -1.959605      0.529842
  C      -0.656210     -0.769913     -0.180344
  C      -1.297841      0.475863     -0.323759
  C       0.658572     -0.818845      0.330940
  C      -2.679487     -0.991503     -1.026573
  C       0.513086      1.510335      0.483774
  H      -1.474163     -2.709768     -0.675591
  H      -3.552842     -1.490499     -1.426969
  H       1.025491      2.431349      0.758068
  H       2.373980     -1.918686      0.809801
  H       1.020371     -2.856429      0.232010
25
Coordinates from ORCA-job semicarbazide_adenine_opt_freq E -747.551839600474
  N       4.574905      1.506008      1.736698
  N       3.954409      0.239645      1.916956
  C       4.669126     -0.889059      1.567801
  O       4.082087     -1.957003      1.337487
  N       6.032240     -0.767733      1.573738
  H       4.147796      2.001565      0.952129
  H       4.379196      2.071024      2.561903
  H       2.964414      0.206252      1.639399
  H       6.416907      0.164188      1.490794
  H       6.534704     -1.527928      1.140489
  N      -1.568309     -1.700251     -0.657299
  N      -2.548592      0.317237     -0.845891
  N      -0.704248      1.639774      0.051921
  N       1.220677      0.338931      0.700153
  N       1.376439     -1.971143      0.515870
  C      -0.653097     -0.775595     -0.175000
  C      -1.286299      0.473856     -0.306408
  C       0.657986     -0.836058      0.343463
  C      -2.673750     -0.975405     -1.034602
  C       0.519879      1.482687      0.535238
  H      -1.477549     -2.703879     -0.703347
  H      -3.548841     -1.462908     -1.445165
  H       1.033622      2.392626      0.840478
  H       2.358642     -1.935255      0.837701
  H       1.020034     -2.861734      0.210191
25
Coordinates from ORCA-job semicarbazide_adenine_opt_freq E -747.552164137477
  N       4.617624      1.493022      1.722466
  N       3.978445      0.235070      1.880758
  C       4.699614     -0.897421      1.570225
  O       4.119039     -1.970466      1.335853
  N       6.062383     -0.786024      1.617012
  H       4.230977      1.959685      0.901195
  H       4.383022      2.060582      2.534142
  H       2.990379      0.197933      1.581671
  H       6.465067      0.140760      1.571420
  H       6.581960     -1.559862      1.230994
  N      -1.571925     -1.703427     -0.660353
  N      -2.589888      0.296461     -0.833944
  N      -0.768903      1.645341      0.066722
  N       1.178294      0.372919      0.704956
  N       1.380229     -1.928887      0.491064
  C      -0.672334     -0.765641     -0.174515
  C      -1.328735      0.472176     -0.296419
  C       0.641084     -0.805218      0.338486
  C      -2.692245     -0.997041     -1.029938
  C       0.458250      1.506072      0.548071
  H      -1.462571     -2.704801     -0.714608
  H      -3.559990     -1.497283     -1.440722
  H       0.958435      2.420103      0.862087
  H       2.359387     -1.895034      0.793986
  H       1.024781     -2.819177      0.184090
25
Coordinates from ORCA-job semicarbazide_adenine_opt_freq E -747.552567863245
  N       4.666837      1.535103      1.610440
  N       3.961012      0.313287      1.782398
  C       4.641317     -0.866132      1.593802
  O       4.025713     -1.933294      1.418242
  N       6.001923     -0.808352      1.694972
  H       4.338212      1.982001      0.756363
  H       4.447130      2.129902      2.404750
  H       2.981792      0.315871      1.459737
  H       6.429417      0.101487      1.584346
  H       6.499457     -1.615500      1.353044
  N      -1.547349     -1.701211     -0.705395
  N      -2.582648      0.295326     -0.790883
  N      -0.775221      1.614844      0.181738
  N       1.185980      0.330430      0.771878
  N       1.395251     -1.956910      0.446806
  C      -0.657139     -0.776188     -0.177814
  C      -1.323726      0.456267     -0.243755
  C       0.651628     -0.832273      0.346232
  C      -2.673626     -0.989292     -1.044991
  C       0.447514      1.461268      0.666905
  H      -1.425797     -2.697940     -0.802233
  H      -3.535869     -1.477256     -1.481278
  H       0.932981      2.361211      1.039862
  H       2.350930     -1.940868      0.827326
  H       1.046663     -2.831937      0.092204
25
Coordinates from ORCA-job semicarbazide_adenine_opt_freq E -747.553054881956
  N       4.667685      1.520280      1.671642
  N       3.975546      0.290286      1.822137
  C       4.661665     -0.877772      1.583509
  O       4.053971     -1.948443      1.399367
  N       6.022264     -0.803992      1.631738
  H       4.332298      1.997441      0.837239
  H       4.486554      2.103657      2.483605
  H       2.986360      0.287780      1.548199
  H       6.440228      0.113804      1.562993
  H       6.525089     -1.602998      1.280352
  N      -1.554694     -1.708806     -0.690729
  N      -2.592857      0.284250     -0.817771
  N      -0.785994      1.626421      0.125731
  N       1.179969      0.358764      0.738870
  N       1.376002     -1.947667      0.467455
  C      -0.663335     -0.770934     -0.188047
  C      -1.332290      0.458700     -0.277774
  C       0.645510     -0.815909      0.337622
  C      -2.682836     -1.005830     -1.042945
  C       0.437111      1.485110      0.613271
  H      -1.433141     -2.707618     -0.762684
  H      -3.545887     -1.504013     -1.465855
  H       0.922800      2.393378      0.965735
  H       2.335239     -1.933447      0.846407
  H       1.025124     -2.822600      0.114631
25
Coordinates from ORCA-job semicarbazide_adenine_opt_freq E -747.553320081285
  N       4.712487      1.517802      1.662901
  N       3.987799      0.304963      1.770760
  C       4.657742     -0.875945      1.559748
  O       4.037581     -1.940027      1.377860
  N       6.020481     -0.825643      1.622028
  H       4.414505      2.038823      0.839395
  H       4.523968      2.088545      2.483709
  H       2.990974      0.311422      1.506404
  H       6.471310      0.077764      1.575053
  H       6.513481     -1.650927      1.319560
  N      -1.547048     -1.716637     -0.699997
  N      -2.605154      0.265682     -0.832766
  N      -0.827988      1.624065      0.141041
  N       1.141456      0.375867      0.770443
  N       1.374118     -1.927683      0.493736
  C      -0.673152     -0.773295     -0.178684
  C      -1.354736      0.451974     -0.272668
  C       0.631020     -0.804094      0.359126
  C      -2.677224     -1.023911     -1.065984
  C       0.392818      1.495540      0.640551
  H      -1.415785     -2.713979     -0.775664
  H      -3.528641     -1.529530     -1.503364
  H       0.868585      2.407878      0.995713
  H       2.341681     -1.899905      0.848156
  H       1.032102     -2.808905      0.147643
25
Coordinates from ORCA-job semicarbazide_adenine_opt_freq E -747.553501553107
  N       4.730284      1.525442      1.642083
  N       3.992260      0.322830      1.733888
  C       4.653439     -0.867753      1.564317
  O       4.027907     -1.931929      1.399240
  N       6.014965     -0.826544      1.643659
  H       4.462249      2.043165      0.807034
  H       4.535182      2.098515      2.459076
  H       2.992737      0.333396      1.480786
  H       6.473720      0.072842      1.601902
  H       6.508323     -1.663396      1.376878
  N      -1.547737     -1.716448     -0.709056
  N      -2.614436      0.262871     -0.814157
  N      -0.837894      1.617308      0.166779
  N       1.139773      0.370244      0.774258
  N       1.373732     -1.933965      0.471457
  C      -0.674716     -0.775404     -0.182196
  C      -1.361607      0.447853     -0.258859
  C       0.631354     -0.808501      0.352737
  C      -2.682729     -1.024361     -1.061090
  C       0.385030      1.487942      0.659722
  H      -1.412900     -2.712298     -0.797039
  H      -3.534477     -1.528088     -1.500003
  H       0.858172      2.397339      1.025835
  H       2.338872     -1.911631      0.834885
  H       1.030877     -2.809587      0.112562
25
Coordinates from ORCA-job semicarbazide_adenine_opt_freq E -747.553666962946
  N       4.757952      1.540314      1.620945
  N       4.005575      0.348138      1.681416
  C       4.653126     -0.854092      1.553404
  O       4.018891     -1.914714      1.395845
  N       6.012218     -0.828922      1.663151
  H       4.523983      2.062262      0.779063
  H       4.555610      2.112131      2.436563
  H       3.004241      0.364003      1.440006
  H       6.484446      0.063354      1.637695
  H       6.502500     -1.679393      1.438870
  N      -1.553365     -1.717261     -0.723153
  N      -2.622725      0.261593     -0.804361
  N      -0.849656      1.605987      0.195929
  N       1.129770      0.355035      0.788090
  N       1.365207     -1.945012      0.465794
  C      -0.681780     -0.782041     -0.184506
  C      -1.370497      0.441256     -0.245787
  C       0.623220     -0.820125      0.354648
  C      -2.688995     -1.022416     -1.067773
  C       0.373073      1.472478      0.688180
  H      -1.417956     -2.711655     -0.825453
  H      -3.539643     -1.521374     -1.514244
  H       0.844384      2.377473      1.067262
  H       2.325371     -1.918997      0.846280
  H       1.027429     -2.818181      0.096834
25
Coordinates from ORCA-job semicarbazide_adenine_opt_freq E -747.553778437597
  N       4.763901      1.550515      1.613914
  N       4.015417      0.357860      1.642280
  C       4.662281     -0.847296      1.548784
  O       4.029477     -1.907774      1.387801
  N       6.018784     -0.822297      1.688334
  H       4.560646      2.072768      0.764022
  H       4.528048      2.119490      2.422857
  H       3.012426      0.367807      1.408842
  H       6.495155      0.067719      1.682041
  H       6.513750     -1.679044      1.502861
  N      -1.565817     -1.715166     -0.725074
  N      -2.631423      0.266220     -0.785097
  N      -0.849055      1.600463      0.211479
  N       1.130820      0.341472      0.782004
  N       1.360895     -1.957268      0.447091
  C      -0.688692     -0.785941     -0.185298
  C      -1.375349      0.439507     -0.233553
  C       0.620079     -0.830669      0.345901
  C      -2.702044     -1.015561     -1.057656
  C       0.377093      1.461243      0.693685
  H      -1.433299     -2.708684     -0.838978
  H      -3.556252     -1.509628     -1.502789
  H       0.852666      2.363534      1.073947
  H       2.322900     -1.930635      0.819875
  H       1.019971     -2.828792      0.077426
25
Coordinates from ORCA-job semicarbazide_adenine_opt_freq E -747.553855000157
  N       4.771844      1.560115      1.622102
  N       4.028156      0.365067      1.610345
  C       4.672445     -0.841886      1.531750
  O       4.038212     -1.899233      1.357967
  N       6.026173     -0.820993      1.694870
  H       4.595231      2.094080      0.773327
  H       4.506285      2.120563      2.428056
  H       3.023617      0.371948      1.385048
  H       6.508548      0.065243      1.715832
  H       6.521703     -1.683032      1.538523
  N      -1.577554     -1.716189     -0.723911
  N      -2.637389      0.268365     -0.780676
  N      -0.849695      1.596810      0.213647
  N       1.126812      0.331407      0.779781
  N       1.354257     -1.964506      0.447166
  C      -0.697190     -0.790130     -0.183847
  C      -1.380292      0.437601     -0.230351
  C       0.612160     -0.838395      0.345160
  C      -2.712040     -1.012873     -1.054678
  C       0.377815      1.453779      0.692470
  H      -1.447699     -2.709505     -0.842512
  H      -3.567866     -1.504326     -1.499601
  H       0.856957      2.355654      1.069267
  H       2.316950     -1.931861      0.814568
  H       1.014937     -2.837859      0.080396
25
Coordinates from ORCA-job semicarbazide_adenine_opt_freq E -747.553884432296
  N       4.772617      1.563212      1.632221
  N       4.035329      0.364412      1.596137
  C       4.681598     -0.841393      1.524790
  O       4.048969     -1.898132      1.341801
  N       6.033434     -0.819223      1.700586
  H       4.613488      2.102873      0.783475
  H       4.484113      2.119197      2.433442
  H       3.030762      0.369113      1.371259
  H       6.516487      0.065971      1.738634
  H       6.531698     -1.682437      1.560360
  N      -1.586451     -1.716933     -0.718863
  N      -2.643029      0.269532     -0.775740
  N      -0.849299      1.596499      0.210091
  N       1.126530      0.328031      0.773275
  N       1.351727     -1.965940      0.440719
  C      -0.702815     -0.791074     -0.183285
  C      -1.383956      0.437530     -0.229585
  C       0.607851     -0.840230      0.340525
  C      -2.720450     -1.011970     -1.047884
  C       0.379668      1.451834      0.685280
  H      -1.457465     -2.710302     -0.837875
  H      -3.578266     -1.502991     -1.489444
  H       0.861440      2.354246      1.057459
  H       2.315849     -1.931882      0.801714
  H       1.012553     -2.840100      0.075606
25
Coordinates from ORCA-job semicarbazide_adenine_opt_freq E -747.553898482666
  N       4.773856      1.563854      1.639892
  N       4.037917      0.364350      1.587864
  C       4.683650     -0.841314      1.520057
  O       4.050576     -1.897152      1.331999
  N       6.034469     -0.820601      1.702015
  H       4.626401      2.107824      0.791737
  H       4.472147      2.115791      2.439051
  H       3.033299      0.370263      1.362566
  H       6.519144      0.063057      1.752192
  H       6.532859     -1.685169      1.571018
  N      -1.589610     -1.718309     -0.714418
  N      -2.646295      0.268233     -0.772770
  N      -0.849785      1.596917      0.206110
  N       1.126936      0.328992      0.769094
  N       1.353064     -1.963787      0.435153
  C      -0.704777     -0.791211     -0.182630
  C      -1.385887      0.437252     -0.229842
  C       0.606750     -0.839011      0.337455
  C      -2.724474     -1.013908     -1.041732
  C       0.380016      1.452853      0.679486
  H      -1.459775     -2.711701     -0.832248
  H      -3.583440     -1.505921     -1.479942
  H       0.862540      2.356051      1.048793
  H       2.317558     -1.929131      0.794119
  H       1.015243     -2.838380      0.069680
25
Coordinates from ORCA-job semicarbazide_adenine_opt_freq E -747.553907552155
  N       4.772509      1.562745      1.651239
  N       4.039080      0.362235      1.583118
  C       4.686712     -0.841986      1.514837
  O       4.055720     -1.898146      1.319833
  N       6.036303     -0.820483      1.702541
  H       4.633159      2.113126      0.805920
  H       4.461654      2.109380      2.450454
  H       3.035279      0.369155      1.354833
  H       6.520486      0.062493      1.766297
  H       6.536430     -1.684965      1.578068
  N      -1.593830     -1.719882     -0.707070
  N      -2.649315      0.267285     -0.770502
  N      -0.848367      1.598453      0.197117
  N       1.128877      0.331019      0.761760
  N       1.353730     -1.961655      0.428672
  C      -0.706580     -0.791034     -0.182228
  C      -1.386868      0.437670     -0.232478
  C       0.606239     -0.837234      0.332974
  C      -2.729119     -1.015919     -1.033853
  C       0.382114      1.455059      0.668894
  H      -1.463927     -2.713777     -0.820431
  H      -3.590048     -1.509214     -1.466744
  H       0.865861      2.359127      1.034465
  H       2.319404     -1.927201      0.784388
  H       1.016875     -2.836408      0.062594
25
Coordinates from ORCA-job semicarbazide_adenine_opt_freq E -747.553914930398
  N       4.772030      1.560802      1.662693
  N       4.039331      0.361114      1.575070
  C       4.687350     -0.842525      1.508019
  O       4.057939     -1.898439      1.304873
  N       6.035527     -0.821907      1.703331
  H       4.642728      2.118491      0.820583
  H       4.451441      2.100000      2.463145
  H       3.036368      0.370663      1.342778
  H       6.519789      0.059537      1.784029
  H       6.536116     -1.687394      1.588555
  N      -1.596605     -1.721928     -0.699041
  N      -2.652617      0.264878     -0.766846
  N      -0.848129      1.600085      0.188923
  N       1.131239      0.335056      0.753080
  N       1.356679     -1.957621      0.420910
  C      -0.707422     -0.790727     -0.181686
  C      -1.388086      0.437698     -0.234277
  C       0.607370     -0.834176      0.327665
  C      -2.733334     -1.019521     -1.024018
  C       0.383459      1.458538      0.658102
  H      -1.465972     -2.716286     -0.807395
  H      -3.596205     -1.514728     -1.450822
  H       0.868232      2.363743      1.019522
  H       2.323820     -1.922816      0.773384
  H       1.021335     -2.832693      0.054123
25
Coordinates from ORCA-job semicarbazide_adenine_opt_freq E -747.553936000918
  N       4.767955      1.556817      1.685882
  N       4.039143      0.358567      1.560629
  C       4.690011     -0.843124      1.493117
  O       4.066092     -1.899185      1.272502
  N       6.035213     -0.821830      1.704065
  H       4.652740      2.130944      0.852948
  H       4.433635      2.079821      2.491472
  H       3.038323      0.371495      1.319772
  H       6.516416      0.057498      1.817382
  H       6.537513     -1.688352      1.607046
  N      -1.602584     -1.725017     -0.683705
  N      -2.657662      0.261936     -0.759656
  N      -0.844952      1.603335      0.171798
  N       1.137498      0.341270      0.733338
  N       1.360030     -1.953343      0.409505
  C      -0.708777     -0.790457     -0.180832
  C      -1.388804      0.438211     -0.238454
  C       0.610171     -0.830349      0.317536
  C      -2.741395     -1.024551     -1.005203
  C       0.389078      1.464347      0.634749
  H      -1.472555     -2.720542     -0.781640
  H      -3.608450     -1.522434     -1.420240
  H       0.876839      2.371345      0.987610
  H       2.331298     -1.917722      0.752298
  H       1.025603     -2.828837      0.042779
25
Coordinates from ORCA-job semicarbazide_adenine_opt_freq E -747.553981036435
  N       4.763743      1.553056      1.713599
  N       4.040965      0.358687      1.535351
  C       4.693277     -0.842019      1.471367
  O       4.075384     -1.896640      1.227159
  N       6.034175     -0.821983      1.705833
  H       4.669691      2.148863      0.893465
  H       4.408906      2.052959      2.525198
  H       3.042334      0.375507      1.285140
  H       6.510068      0.053166      1.863313
  H       6.535237     -1.691784      1.637766
  N      -1.609409     -1.728594     -0.666018
  N      -2.664149      0.258121     -0.747766
  N      -0.841920      1.606199      0.155114
  N       1.145414      0.347721      0.706952
  N       1.364194     -1.949600      0.397835
  C      -0.710248     -0.790657     -0.179642
  C      -1.390223      0.437987     -0.240502
  C       0.614371     -0.827065      0.304843
  C      -2.751075     -1.030348     -0.981758
  C       0.396214      1.470271      0.607348
  H      -1.480885     -2.725329     -0.753126
  H      -3.622794     -1.530902     -1.383577
  H       0.888163      2.379410      0.948728
  H       2.341444     -1.911441      0.725293
  H       1.029503     -2.825742      0.032784
25
Coordinates from ORCA-job semicarbazide_adenine_opt_freq E -747.554026446633
  N       4.756531      1.549053      1.752995
  N       4.046742      0.361764      1.498444
  C       4.701062     -0.837815      1.438414
  O       4.092108     -1.889272      1.160373
  N       6.035637     -0.819699      1.705526
  H       4.690984      2.177088      0.954696
  H       4.373294      2.014737      2.572140
  H       3.050777      0.381610      1.237941
  H       6.499459      0.048392      1.924783
  H       6.531272     -1.694697      1.679179
  N      -1.619357     -1.732657     -0.643986
  N      -2.671753      0.254765     -0.731798
  N      -0.835940      1.609038      0.133188
  N       1.156451      0.352766      0.669585
  N       1.365978     -1.949433      0.389406
  C      -0.712811     -0.791754     -0.177861
  C      -1.391251      0.437463     -0.242968
  C       0.618769     -0.826139      0.289678
  C      -2.764216     -1.035957     -0.951182
  C       0.408144      1.475673      0.569233
  H      -1.495134     -2.731014     -0.718066
  H      -3.642009     -1.538778     -1.336567
  H       0.906805      2.387438      0.893429
  H       2.352359     -1.906751      0.690414
  H       1.028480     -2.825977      0.027706
25
Coordinates from ORCA-job semicarbazide_adenine_opt_freq E -747.554064283165
  N       4.748278      1.543241      1.814599
  N       4.063833      0.375802      1.432812
  C       4.713775     -0.826222      1.383833
  O       4.114512     -1.867362      1.051358
  N       6.036864     -0.820867      1.704948
  H       4.738840      2.220437      1.055149
  H       4.309541      1.954003      2.635507
  H       3.070378      0.399988      1.161143
  H       6.475240      0.027609      2.028042
  H       6.506764     -1.709074      1.750825
  N      -1.632774     -1.740452     -0.608689
  N      -2.685242      0.246543     -0.701787
  N      -0.829993      1.611557      0.102942
  N       1.172289      0.360436      0.610280
  N       1.372480     -1.946285      0.376237
  C      -0.716092     -0.793975     -0.174881
  C      -1.394639      0.434706     -0.243256
  C       0.625829     -0.823865      0.264949
  C      -2.783348     -1.047036     -0.901716
  C       0.424191      1.483195      0.510863
  H      -1.514153     -2.740651     -0.665296
  H      -3.669266     -1.554204     -1.261940
  H       0.931889      2.399517      0.806918
  H       2.371430     -1.893596      0.632871
  H       1.031756     -2.823602      0.018987
25
Coordinates from ORCA-job semicarbazide_adenine_opt_freq E -747.554072761618
  N       4.732276      1.536644      1.855521
  N       4.071830      0.377743      1.410241
  C       4.728309     -0.820695      1.354579
  O       4.142605     -1.857184      0.986342
  N       6.046165     -0.813036      1.700490
  H       4.744480      2.238154      1.118783
  H       4.263513      1.917545      2.674167
  H       3.081305      0.400193      1.131191
  H       6.458398      0.025365      2.081250
  H       6.508266     -1.704146      1.772865
  N      -1.642354     -1.742262     -0.586912
  N      -2.689008      0.247425     -0.689245
  N      -0.819516      1.614614      0.077821
  N       1.184521      0.362211      0.574082
  N       1.370307     -1.950871      0.374045
  C      -0.717649     -0.794218     -0.173656
  C      -1.392591      0.435775     -0.247797
  C       0.628929     -0.825104      0.251980
  C      -2.794346     -1.048028     -0.872758
  C       0.439555      1.486590      0.470832
  H      -1.530507     -2.743840     -0.631767
  H      -3.685933     -1.556100     -1.217386
  H       0.953958      2.405119      0.747795
  H       2.376127     -1.895095      0.603323
  H       1.023738     -2.826959      0.018913
25
Coordinates from ORCA-job semicarbazide_adenine_opt_freq E -747.554094353971
  N       4.740243      1.538616      1.847818
  N       4.074602      0.380482      1.408574
  C       4.725482     -0.820988      1.359071
  O       4.134705     -1.857128      0.998572
  N       6.044569     -0.815896      1.703807
  H       4.756507      2.237830      1.109014
  H       4.271391      1.925396      2.663542
  H       3.083264      0.404848      1.132216
  H       6.460372      0.023875      2.078429
  H       6.504798     -1.707911      1.780281
  N      -1.640635     -1.742888     -0.590897
  N      -2.690984      0.245391     -0.687145
  N      -0.824164      1.613257      0.084694
  N       1.181525      0.362864      0.579070
  N       1.370089     -1.951182      0.371376
  C      -0.717557     -0.794445     -0.174587
  C      -1.394802      0.434687     -0.245038
  C       0.628146     -0.824587      0.252196
  C      -2.793659     -1.049538     -0.875154
  C       0.434852      1.486223      0.478481
  H      -1.527659     -2.744100     -0.640599
  H      -3.684061     -1.558339     -1.221823
  H       0.947070      2.404941      0.758765
  H       2.374510     -1.895779      0.601704
  H       1.023776     -2.825787      0.012333
25
Coordinates from ORCA-job semicarbazide_adenine_opt_freq E -747.554103971863
  N       4.746756      1.538355      1.849881
  N       4.080271      0.382384      1.405768
  C       4.727394     -0.821018      1.358491
  O       4.134779     -1.855553      0.996955
  N       6.046523     -0.818700      1.704813
  H       4.770778      2.237366      1.110986
  H       4.270357      1.926896      2.660389
  H       3.088875      0.408735      1.129846
  H       6.461245      0.018908      2.085139
  H       6.504090     -1.711562      1.785944
  N      -1.641382     -1.744438     -0.589600
  N      -2.694555      0.242570     -0.686978
  N      -0.829084      1.612856      0.083702
  N       1.178164      0.365180      0.579910
  N       1.369103     -1.948557      0.369852
  C      -0.719031     -0.794387     -0.175096
  C      -1.398141      0.433888     -0.245754
  C       0.626056     -0.822260      0.251492
  C      -2.795284     -1.052519     -0.874240
  C       0.429975      1.487417      0.478419
  H      -1.527387     -2.745472     -0.640334
  H      -3.685160     -1.563010     -1.219845
  H       0.940691      2.406878      0.758954
  H       2.372745     -1.892209      0.599880
  H       1.024602     -2.821904      0.006127
25
Coordinates from ORCA-job semicarbazide_adenine_opt_freq E -747.554110347997
  N       4.749473      1.538015      1.851606
  N       4.081782      0.382423      1.407740
  C       4.728077     -0.821379      1.358799
  O       4.134821     -1.855532      0.997771
  N       6.047871     -0.818990      1.702914
  H       4.772946      2.237407      1.112903
  H       4.272277      1.927814      2.661137
  H       3.090523      0.410215      1.132857
  H       6.461888      0.018214      2.085102
  H       6.506202     -1.711497      1.783835
  N      -1.642087     -1.745007     -0.588671
  N      -2.695267      0.241944     -0.689052
  N      -0.830003      1.612788      0.081286
  N       1.177341      0.365852      0.580552
  N       1.367227     -1.948678      0.370755
  C      -0.719614     -0.794413     -0.175669
  C      -1.398856      0.433809     -0.247675
  C       0.625025     -0.821643      0.251655
  C      -2.795943     -1.053382     -0.874318
  C       0.428656      1.487703      0.477528
  H      -1.528047     -2.746046     -0.639181
  H      -3.685812     -1.564456     -1.219112
  H       0.938866      2.407430      0.758151
  H       2.370731     -1.892124      0.601574
  H       1.024304     -2.820622      0.002211
25
Coordinates from ORCA-job semicarbazide_adenine_opt_freq E -747.554112243876
  N       4.750853      1.536536      1.860856
  N       4.085628      0.385782      1.400070
  C       4.729856     -0.819193      1.351304
  O       4.137026     -1.850997      0.983156
  N       6.048197     -0.820300      1.701037
  H       4.780661      2.242549      1.128647
  H       4.265687      1.919622      2.668990
  H       3.094780      0.415371      1.124107
  H       6.457072      0.012060      2.099056
  H       6.499976     -1.715239      1.791553
  N      -1.643755     -1.746754     -0.582656
  N      -2.697247      0.239840     -0.686861
  N      -0.830034      1.613010      0.074935
  N       1.178527      0.367574      0.573656
  N       1.367725     -1.947271      0.370509
  C      -0.720228     -0.794870     -0.175284
  C      -1.399663      0.433169     -0.249457
  C       0.625417     -0.820500      0.249108
  C      -2.798369     -1.056098     -0.867549
  C       0.429372      1.489054      0.469117
  H      -1.529814     -2.747950     -0.630305
  H      -3.689188     -1.568340     -1.208129
  H       0.940165      2.409518      0.746289
  H       2.372708     -1.888575      0.595260
  H       1.027028     -2.818156     -0.002709
25
Coordinates from ORCA-job semicarbazide_adenine_opt_freq E -747.554108542754
  N       4.751803      1.537053      1.856595
  N       4.083836      0.383830      1.405813
  C       4.729650     -0.820316      1.354661
  O       4.136949     -1.853260      0.989552
  N       6.049083     -0.819201      1.699925
  H       4.774637      2.239165      1.120315
  H       4.270974      1.923888      2.665601
  H       3.093072      0.413251      1.130058
  H       6.459833      0.015263      2.091757
  H       6.504754     -1.712763      1.784992
  N      -1.643471     -1.745981     -0.585055
  N      -2.695828      0.241062     -0.690679
  N      -0.829916      1.613075      0.076443
  N       1.177050      0.366626      0.579004
  N       1.365589     -1.948685      0.374351
  C      -0.720438     -0.794765     -0.175304
  C      -1.399176      0.433625     -0.250264
  C       0.624375     -0.821198      0.252297
  C      -2.797040     -1.054720     -0.872549
  C       0.428356      1.488435      0.473676
  H      -1.529406     -2.747122     -0.633612
  H      -3.687335     -1.566344     -1.215399
  H       0.938777      2.408407      0.753190
  H       2.370249     -1.890814      0.601396
  H       1.026006     -2.818670     -0.002065
25
Coordinates from ORCA-job semicarbazide_adenine_opt_freq E -747.554109970708
  N       4.752159      1.537790      1.853102
  N       4.081922      0.383116      1.409311
  C       4.728372     -0.820620      1.356793
  O       4.134841     -1.854338      0.995061
  N       6.048794     -0.818514      1.697915
  H       4.770000      2.237841      1.114683
  H       4.275651      1.926800      2.663642
  H       3.090827      0.412273      1.134558
  H       6.461795      0.017375      2.084144
  H       6.505992     -1.711528      1.779967
  N      -1.642708     -1.745405     -0.587385
  N      -2.694056      0.242070     -0.693679
  N      -0.829298      1.612933      0.078243
  N       1.176338      0.365418      0.583045
  N       1.364384     -1.950071      0.378222
  C      -0.720133     -0.794824     -0.175285
  C      -1.398313      0.433794     -0.250476
  C       0.624037     -0.822159      0.254836
  C      -2.795527     -1.053593     -0.876478
  C       0.428171      1.487606      0.477517
  H      -1.528476     -2.746492     -0.636684
  H      -3.685371     -1.564554     -1.221461
  H       0.938456      2.407148      0.758686
  H       2.368847     -1.892591      0.606431
  H       1.025675     -2.819632     -0.000010
25
Coordinates from ORCA-job semicarbazide_adenine_opt_freq E -747.554108907218
  N       4.752189      1.538022      1.852816
  N       4.081225      0.383154      1.410295
  C       4.727996     -0.820309      1.356282
  O       4.133968     -1.854067      0.995340
  N       6.049070     -0.818033      1.694948
  H       4.768118      2.237927      1.114188
  H       4.276833      1.926983      2.664075
  H       3.089879      0.412244      1.136143
  H       6.462350      0.017734      2.081079
  H       6.505626     -1.711324      1.777474
  N      -1.642361     -1.745277     -0.587953
  N      -2.693024      0.242463     -0.695431
  N      -0.828687      1.612951      0.078180
  N       1.176018      0.364803      0.584759
  N       1.363215     -1.951058      0.382588
  C      -0.719951     -0.794869     -0.175116
  C      -1.397683      0.433848     -0.251141
  C       0.623790     -0.822737      0.256612
  C      -2.794670     -1.053192     -0.878415
  C       0.428352      1.487299      0.478539
  H      -1.528018     -2.746361     -0.637090
  H      -3.684314     -1.563863     -1.224329
  H       0.938717      2.406701      0.760010
  H       2.367945     -1.893313      0.609444
  H       1.025795     -2.819882      0.001403
25
Coordinates from ORCA-job semicarbazide_adenine_opt_freq E -747.554110883000
  N       4.752975      1.538367      1.852046
  N       4.080203      0.382839      1.413572
  C       4.727643     -0.820024      1.355827
  O       4.132519     -1.853975      0.997059
  N       6.050320     -0.817292      1.688323
  H       4.765561      2.237426      1.112506
  H       4.280265      1.928271      2.664402
  H       3.088344      0.411817      1.140906
  H       6.464673      0.018303      2.073609
  H       6.506416     -1.710864      1.770350
  N      -1.641659     -1.745154     -0.589505
  N      -2.691032      0.243047     -0.700856
  N      -0.828316      1.612984      0.077601
  N       1.174304      0.363924      0.589912
  N       1.360261     -1.952458      0.391940
  C      -0.719940     -0.794912     -0.174674
  C      -1.396900      0.433974     -0.253062
  C       0.622411     -0.823463      0.261256
  C      -2.792846     -1.052679     -0.883484
  C       0.427575      1.486854      0.481349
  H      -1.527086     -2.746234     -0.638143
  H      -3.681788     -1.563011     -1.231687
  H       0.937714      2.406091      0.763733
  H       2.365298     -1.894227      0.616894
  H       1.025466     -2.819762      0.004826
25
Coordinates from ORCA-job semicarbazide_adenine_opt_freq E -747.554114433379
  N       4.752495      1.538257      1.852980
  N       4.080004      0.382652      1.414267
  C       4.727803     -0.819874      1.354722
  O       4.132541     -1.853671      0.995768
  N       6.051088     -0.816961      1.685186
  H       4.765802      2.237326      1.113461
  H       4.279442      1.927971      2.665190
  H       3.088024      0.411603      1.142006
  H       6.464705      0.017878      2.072951
  H       6.506396     -1.710839      1.768498
  N      -1.641493     -1.745238     -0.589262
  N      -2.690490      0.243099     -0.702393
  N      -0.828005      1.613105      0.076534
  N       1.174028      0.363922      0.591041
  N       1.359327     -1.952786      0.395267
  C      -0.719835     -0.794839     -0.174484
  C      -1.396589      0.434071     -0.253928
  C       0.622034     -0.823476      0.262550
  C      -2.792345     -1.052705     -0.884418
  C       0.427600      1.486939      0.481268
  H      -1.527012     -2.746370     -0.637074
  H      -3.681136     -1.563096     -1.232920
  H       0.937674      2.406276      0.763437
  H       2.364646     -1.894104      0.618773
  H       1.025676     -2.819298      0.005281
25
Coordinates from ORCA-job semicarbazide_adenine_opt_freq E -747.554113591738
  N       4.752037      1.538181      1.852281
  N       4.078656      0.381276      1.418873
  C       4.727776     -0.820174      1.354203
  O       4.132024     -1.854304      0.997147
  N       6.053078     -0.815964      1.677194
  H       4.765031      2.235379      1.111018
  H       4.281446      1.929985      2.664786
  H       3.086432      0.410038      1.147565
  H       6.466359      0.018004      2.067336
  H       6.508213     -1.709928      1.761122
  N      -1.640705     -1.745193     -0.590306
  N      -2.688612      0.243530     -0.708375
  N      -0.827723      1.613295      0.074851
  N       1.172073      0.363602      0.597348
  N       1.356456     -1.953513      0.404147
  C      -0.719768     -0.794698     -0.173863
  C      -1.395839      0.434448     -0.256426
  C       0.620353     -0.823537      0.267410
  C      -2.790376     -1.052396     -0.889389
  C       0.426529      1.486831      0.484027
  H      -1.526562     -2.746450     -0.636267
  H      -3.678379     -1.562813     -1.239876
  H       0.935923      2.406206      0.767283
  H       2.362130     -1.894017      0.625794
  H       1.025826     -2.817945      0.006817
25
Coordinates from ORCA-job semicarbazide_adenine_opt_freq E -747.554114081427
  N       4.751621      1.538430      1.850623
  N       4.076864      0.380180      1.423502
  C       4.727135     -0.820402      1.354856
  O       4.131030     -1.855067      1.000052
  N       6.053986     -0.814736      1.671673
  H       4.762544      2.233395      1.107234
  H       4.284396      1.932545      2.663884
  H       3.084382      0.408671      1.153264
  H       6.467717      0.019294      2.061294
  H       6.510298     -1.708272      1.754115
  N      -1.640149     -1.744896     -0.591598
  N      -2.686515      0.244437     -0.713382
  N      -0.826823      1.613307      0.074262
  N       1.170822      0.362656      0.602802
  N       1.354536     -1.954724      0.409801
  C      -0.719643     -0.794819     -0.173298
  C      -1.394785      0.434782     -0.258079
  C       0.619292     -0.824215      0.271301
  C      -2.788603     -1.051509     -0.893939
  C       0.426201      1.486236      0.487097
  H      -1.526789     -2.746304     -0.636268
  H      -3.676052     -1.561576     -1.246341
  H       0.935239      2.405403      0.771664
  H       2.360247     -1.894986      0.631592
  H       1.025429     -2.817988      0.008588
25
Coordinates from ORCA-job semicarbazide_adenine_opt_freq E -747.554113799346
  N       4.751701      1.538691      1.848343
  N       4.075303      0.379308      1.427503
  C       4.726458     -0.820698      1.356088
  O       4.130092     -1.855945      1.003568
  N       6.054455     -0.813686      1.668111
  H       4.760352      2.231453      1.102875
  H       4.288196      1.935327      2.662460
  H       3.082740      0.407667      1.157680
  H       6.468679      0.020750      2.056375
  H       6.512086     -1.706679      1.749301
  N      -1.639731     -1.744580     -0.593105
  N      -2.684878      0.245246     -0.717182
  N      -0.826219      1.613224      0.074441
  N       1.169646      0.361691      0.607382
  N       1.353398     -1.955630      0.412870
  C      -0.719685     -0.795059     -0.172797
  C      -1.394039      0.434987     -0.259037
  C       0.618508     -0.824887      0.274159
  C      -2.787274     -1.050671     -0.897702
  C       0.425771      1.485588      0.490190
  H      -1.527301     -2.746141     -0.636787
  H      -3.674283     -1.560362     -1.251759
  H       0.934483      2.404460      0.776288
  H       2.358980     -1.895890      0.635551
  H       1.024944     -2.818320      0.009884
25
Coordinates from ORCA-job semicarbazide_adenine_opt_freq E -747.554114676160
  N       4.751630      1.538871      1.846796
  N       4.073735      0.378572      1.431194
  C       4.725730     -0.820885      1.357154
  O       4.129135     -1.856598      1.006545
  N       6.054767     -0.812536      1.664729
  H       4.757887      2.229787      1.099572
  H       4.291259      1.937578      2.661662
  H       3.081124      0.406911      1.161647
  H       6.469042      0.022216      2.052286
  H       6.513423     -1.705051      1.745481
  N      -1.639460     -1.744289     -0.594200
  N      -2.683357      0.246058     -0.720038
  N      -0.825296      1.613167      0.074477
  N       1.169015      0.360693      0.610607
  N       1.352742     -1.956538      0.414652
  C      -0.719688     -0.795345     -0.172310
  C      -1.393188      0.435141     -0.259788
  C       0.618161     -0.825616      0.276060
  C      -2.786218     -1.049829     -0.900545
  C       0.425858      1.484963      0.492389
  H      -1.528125     -2.746027     -0.636701
  H      -3.672977     -1.559105     -1.255824
  H       0.934489      2.403529      0.779627
  H       2.358172     -1.896874      0.638322
  H       1.024520     -2.818949      0.010904
