23
Coordinates from ORCA-job thiourea_adenine_opt_freq E -1015.170316742303
  S           6.05373839195807     -1.80116696176108      2.72281411816966
  N           4.77800873256587     -0.95494434388180      0.51720794278076
  N           4.05561276995941     -0.02642650600364      2.48923049294407
  C           4.92629832210612     -0.87522373551662      1.89988568243021
  H           4.45888847133353     -0.11127048116029      0.04902984690624
  H           5.55932318950227     -1.41262099186578      0.06512488940663
  H           4.04152811264235     -0.00847521079892      3.49772390495373
  H           3.25409784222031      0.32910533246492      1.96037314656126
  N          -1.26568685156675     -1.37344482013885     -0.62652521837728
  N          -2.20295720691820      0.67283475142004     -0.55308132482149
  N          -0.24798534101510      1.87307236410973      0.27021598071958
  N           1.69179769586660      0.48333494559519      0.63019694089217
  N           1.75595516172394     -1.81444182164937      0.23314174076883
  C          -0.28178252980107     -0.51106322678104     -0.16692402012230
  C          -0.89039906591491      0.75756423269383     -0.13073076801890
  C           1.06588518233706     -0.63570003698549      0.21845253085907
  C          -2.38354607629653     -0.59726852302034     -0.82865266198173
  C           1.00698527374517      1.65337728419450      0.63183612402017
  H          -1.21578866962942     -2.37534662174001     -0.73537674361099
  H          -3.31004727210787     -1.02984890996535     -1.18406317536381
  H           1.57520133952910      2.51575883667750      0.97402145693873
  H           2.76778187395127     -1.76678438682007      0.34399057687723
  H           1.39853065380864     -2.61037016906701     -0.27104746293188
