23
Coordinates from ORCA-job thiourea_adenine_opt_freq E -1014.794979803812
  S       4.826421     -2.204726      1.500893
  N       5.433974      0.014452      1.500893
  N       3.211653     -0.565706      1.500893
  C       4.516007     -1.015263      1.500493
  H       5.142922      0.986271      1.500593
  H       6.431618     -0.169929      1.500893
  H       2.431576     -1.214178      1.500993
  H       2.990569      0.424330      1.500793
  N      -1.199000     -1.399700      0.000000
  N      -2.075200      0.649900      0.000000
  N       0.033700      1.859400     -0.000100
  N       1.999800      0.415000      0.000000
  N       1.824100     -1.976000      0.000000
  C      -0.135900     -0.542100      0.000100
  C      -0.705600      0.724100      0.000100
  C       1.235900     -0.700400      0.000000
  C      -2.338600     -0.639400      0.000000
  C       1.360700      1.609200      0.000000
  H      -1.156600     -2.410300     -0.000200
  H      -3.322500     -1.086400     -0.000100
  H       2.003400      2.483100     -0.000100
  H       2.832200     -2.052800      0.000300
  H       1.250300     -2.808200      0.000400
23
Coordinates from ORCA-job thiourea_adenine_opt_freq E -1014.949615982377
  S       4.843820     -2.273729      1.497787
  N       5.431183      0.019320      1.500711
  N       3.221775     -0.563691      1.513487
  C       4.508082     -0.982848      1.503555
  H       5.143925      0.990696      1.505245
  H       6.424788     -0.168601      1.493210
  H       2.455318     -1.211140      1.507797
  H       2.996102      0.419127      1.513772
  N      -1.209728     -1.406349     -0.000478
  N      -2.080857      0.653142     -0.002923
  N       0.032018      1.858858     -0.004803
  N       1.997050      0.416869     -0.002336
  N       1.832067     -1.967802      0.000218
  C      -0.139679     -0.546398     -0.001082
  C      -0.708465      0.727782     -0.002708
  C       1.239181     -0.701877     -0.000698
  C      -2.345728     -0.635971     -0.001536
  C       1.353465      1.609183     -0.005258
  H      -1.174377     -2.416424      0.000411
  H      -3.332038     -1.078488     -0.001357
  H       1.995842      2.484525     -0.007569
  H       2.843847     -2.044219      0.002178
  H       1.263848     -2.801317     -0.000778
23
Coordinates from ORCA-job thiourea_adenine_opt_freq E -1015.033654370470
  S       4.865094     -2.338567      1.494861
  N       5.450861      0.022640      1.501543
  N       3.239161     -0.558245      1.536773
  C       4.513738     -0.954061      1.511470
  H       5.176823      0.996374      1.513381
  H       6.438003     -0.179438      1.481163
  H       2.479947     -1.208666      1.522279
  H       3.005379      0.418197      1.537030
  N      -1.228076     -1.415302     -0.004912
  N      -2.094740      0.654061     -0.010028
  N       0.021995      1.856601     -0.011670
  N       1.986949      0.420983     -0.004406
  N       1.836354     -1.954052      0.000383
  C      -0.151336     -0.552313     -0.004767
  C      -0.719281      0.729995     -0.008248
  C       1.236254     -0.702733     -0.002207
  C      -2.359392     -0.633863     -0.007990
  C       1.336573      1.610118     -0.012156
  H      -1.201419     -2.424826     -0.003225
  H      -3.348268     -1.071796     -0.008734
  H       1.978066      2.487694     -0.018252
  H       2.852575     -2.031239      0.008720
  H       1.276181     -2.790910     -0.004165
23
Coordinates from ORCA-job thiourea_adenine_opt_freq E -1015.091927953548
  S       4.902704     -2.423462      1.495364
  N       5.516198      0.016559      1.509290
  N       3.282510     -0.545791      1.588339
  C       4.554650     -0.938473      1.534315
  H       5.269140      0.996667      1.534376
  H       6.493682     -0.216191      1.463708
  H       2.522472     -1.199371      1.553789
  H       3.037775      0.427607      1.585489
  N      -1.259873     -1.426444     -0.016600
  N      -2.131348      0.647540     -0.026096
  N      -0.015960      1.856818     -0.028517
  N       1.954302      0.437597     -0.011576
  N       1.831140     -1.926687     -0.001422
  C      -0.181480     -0.556090     -0.015365
  C      -0.753250      0.730660     -0.021966
  C       1.215389     -0.694398     -0.008909
  C      -2.389083     -0.639322     -0.022923
  C       1.293282      1.621058     -0.029825
  H      -1.239510     -2.435438     -0.013544
  H      -3.378659     -1.077211     -0.025053
  H       1.931662      2.502526     -0.046061
  H       2.851244     -2.006027      0.024079
  H       1.284451     -2.771477     -0.014047
23
Coordinates from ORCA-job thiourea_adenine_opt_freq E -1015.125696973316
  S       4.942611     -2.511071      1.502155
  N       5.601131     -0.005920      1.523731
  N       3.352394     -0.524720      1.660860
  C       4.619457     -0.941357      1.569783
  H       5.387060      0.980844      1.564014
  H       6.566695     -0.278115      1.446179
  H       2.586261     -1.176003      1.599772
  H       3.103099      0.450720      1.647768
  N      -1.294396     -1.436340     -0.031028
  N      -2.182635      0.633005     -0.047395
  N      -0.076204      1.861016     -0.055751
  N       1.904458      0.464442     -0.024085
  N       1.817881     -1.890022     -0.006752
  C      -0.222165     -0.554857     -0.030808
  C      -0.803643      0.729080     -0.042620
  C       1.180479     -0.675334     -0.021309
  C      -2.427578     -0.654643     -0.040682
  C       1.232505      1.641197     -0.056306
  H      -1.273004     -2.445049     -0.025032
  H      -3.414522     -1.099485     -0.042516
  H       1.865601      2.526698     -0.085715
  H       2.836356     -1.966882      0.032563
  H       1.289599     -2.746552     -0.029981
23
Coordinates from ORCA-job thiourea_adenine_opt_freq E -1015.142435422526
  S       4.966044     -2.585449      1.513293
  N       5.677435     -0.037993      1.538708
  N       3.424658     -0.498333      1.731730
  C       4.679533     -0.953426      1.605537
  H       5.497004      0.954333      1.590570
  H       6.628911     -0.350053      1.434718
  H       2.651745     -1.140675      1.650347
  H       3.182252      0.480470      1.700697
  N      -1.322790     -1.445011     -0.041849
  N      -2.231838      0.615595     -0.070314
  N      -0.138018      1.866059     -0.086872
  N       1.853678      0.491617     -0.036728
  N       1.804886     -1.853237     -0.012773
  C      -0.260220     -0.552010     -0.045477
  C      -0.853351      0.725650     -0.065726
  C       1.144742     -0.653853     -0.034504
  C      -2.463269     -0.674411     -0.056269
  C       1.172609      1.662317     -0.081016
  H      -1.295372     -2.453476     -0.030040
  H      -3.445867     -1.129043     -0.055860
  H       1.799205      2.551907     -0.117062
  H       2.820880     -1.917489      0.018466
  H       1.298582     -2.722841     -0.042731
23
Coordinates from ORCA-job thiourea_adenine_opt_freq E -1015.151070647575
  S       4.986287     -2.638234      1.525083
  N       5.755479     -0.074578      1.553880
  N       3.500550     -0.472127      1.797673
  C       4.740043     -0.968881      1.638531
  H       5.607445      0.922218      1.615569
  H       6.692947     -0.422307      1.431128
  H       2.718413     -1.102739      1.707549
  H       3.274357      0.510079      1.738530
  N      -1.350778     -1.452522     -0.052557
  N      -2.280823      0.598091     -0.098129
  N      -0.200867      1.870705     -0.116619
  N       1.802456      0.517082     -0.048175
  N       1.786453     -1.821005     -0.014379
  C      -0.298427     -0.548925     -0.059975
  C      -0.903709      0.721638     -0.090496
  C       1.106934     -0.633916     -0.046289
  C      -2.499489     -0.694702     -0.075214
  C       1.112236      1.681843     -0.100875
  H      -1.314281     -2.460619     -0.032900
  H      -3.477197     -1.159548     -0.073306
  H       1.730651      2.576743     -0.136675
  H       2.801322     -1.865037     -0.008319
  H       1.301438     -2.702608     -0.047191
23
Coordinates from ORCA-job thiourea_adenine_opt_freq E -1015.156045891509
  S       5.004932     -2.671757      1.535593
  N       5.836779     -0.115005      1.567444
  N       3.578388     -0.446699      1.858482
  C       4.800639     -0.984599      1.667667
  H       5.721006      0.885228      1.639347
  H       6.760293     -0.494246      1.430690
  H       2.784176     -1.062643      1.772043
  H       3.374124      0.537560      1.758656
  N      -1.380301     -1.460129     -0.065648
  N      -2.330024      0.580693     -0.129652
  N      -0.263564      1.874219     -0.142584
  N       1.751188      0.540529     -0.056818
  N       1.765225     -1.791647     -0.006916
  C      -0.337351     -0.546629     -0.073632
  C      -0.954601      0.717365     -0.115356
  C       1.067996     -0.616269     -0.053548
  C      -2.536681     -0.714562     -0.099104
  C       1.051594      1.698978     -0.115738
  H      -1.333513     -2.467638     -0.038128
  H      -3.509645     -1.189041     -0.098241
  H       1.660866      2.600056     -0.146396
  H       2.778700     -1.808961     -0.037681
  H       1.301214     -2.684152     -0.043637
23
Coordinates from ORCA-job thiourea_adenine_opt_freq E -1015.159214011926
  S       5.023514     -2.689874      1.544424
  N       5.920041     -0.157614      1.577946
  N       3.658727     -0.421724      1.916504
  C       4.861761     -0.998992      1.693450
  H       5.836694      0.844878      1.663028
  H       6.829434     -0.564494      1.426147
  H       2.849899     -1.021055      1.843268
  H       3.476883      0.560550      1.763506
  N      -1.411512     -1.467986     -0.081428
  N      -2.379147      0.563607     -0.164868
  N      -0.325335      1.876631     -0.164387
  N       1.700069      0.562154     -0.060703
  N       1.742331     -1.764514      0.011485
  C      -0.376886     -0.545097     -0.086069
  C      -1.005491      0.713106     -0.139225
  C       1.028471     -0.600743     -0.054870
  C      -2.574424     -0.733530     -0.128749
  C       0.991336      1.714010     -0.125550
  H      -1.354388     -2.474729     -0.046436
  H      -3.542970     -1.216861     -0.132798
  H       1.591402      2.621330     -0.149881
  H       2.752587     -1.751936     -0.060478
  H       1.298446     -2.666465     -0.037472
23
Coordinates from ORCA-job thiourea_adenine_opt_freq E -1015.161168260123
  S       5.038620     -2.697813      1.553584
  N       6.001025     -0.200914      1.582275
  N       3.739770     -0.396032      1.972916
  C       4.920883     -1.011443      1.715946
  H       5.951128      0.802345      1.684573
  H       6.895092     -0.632659      1.410080
  H       2.915438     -0.977272      1.920320
  H       3.576582      0.578759      1.758539
  N      -1.441901     -1.476141     -0.099163
  N      -2.426308      0.546470     -0.203711
  N      -0.384737      1.878167     -0.183086
  N       1.650489      0.582811     -0.057095
  N       1.719433     -1.739125      0.041357
  C      -0.415104     -0.543960     -0.096518
  C      -1.054478      0.708823     -0.162413
  C       0.990114     -0.586385     -0.049156
  C      -2.610344     -0.752081     -0.163712
  C       0.932968      1.727871     -0.129685
  H      -1.374898     -2.481957     -0.056636
  H      -3.574565     -1.243886     -0.176749
  H       1.524266      2.641019     -0.148355
  H       2.724525     -1.698138     -0.071662
  H       1.293442     -2.647806     -0.034803
23
Coordinates from ORCA-job thiourea_adenine_opt_freq E -1015.162153026127
  S       5.047582     -2.701110      1.563520
  N       6.071239     -0.239765      1.579216
  N       3.814505     -0.370556      2.023739
  C       4.972474     -1.021043      1.733643
  H       6.053894      0.762378      1.702606
  H       6.949335     -0.693028      1.382357
  H       2.976187     -0.934871      1.995479
  H       3.663940      0.592625      1.750986
  N      -1.467361     -1.483777     -0.116081
  N      -2.466858      0.530310     -0.243483
  N      -0.436866      1.879050     -0.199524
  N       1.606775      0.601745     -0.046417
  N       1.698099     -1.717604      0.077991
  C      -0.447942     -0.542905     -0.104674
  C      -1.096904      0.704741     -0.184217
  C       0.956717     -0.573386     -0.038593
  C      -2.640348     -0.769287     -0.199659
  C       0.881351      1.740400     -0.129076
  H      -1.391927     -2.488570     -0.064960
  H      -3.600373     -1.268963     -0.223458
  H       1.465001      2.658513     -0.142123
  H       2.697567     -1.656118     -0.069091
  H       1.285351     -2.628128     -0.041338
23
Coordinates from ORCA-job thiourea_adenine_opt_freq E -1015.162548244972
  S       5.051711     -2.703348      1.571330
  N       6.121107     -0.267229      1.570387
  N       3.872265     -0.350023      2.062308
  C       5.010271     -1.027314      1.744258
  H       6.130154      0.731984      1.717026
  H       6.985582     -0.735814      1.350512
  H       3.024441     -0.901920      2.057751
  H       3.729268      0.602271      1.747157
  N      -1.484852     -1.489436     -0.129412
  N      -2.495690      0.517805     -0.277626
  N      -0.474859      1.879426     -0.213608
  N       1.574567      0.616125     -0.032812
  N       1.680190     -1.703125      0.112135
  C      -0.471384     -0.541896     -0.110717
  C      -1.127375      0.701511     -0.203124
  C       0.932325     -0.563324     -0.027697
  C      -2.661050     -0.782483     -0.229765
  C       0.843319      1.749864     -0.126122
  H      -1.403745     -2.493237     -0.068721
  H      -3.617661     -1.288282     -0.262245
  H       1.421436      2.671482     -0.133394
  H       2.676072     -1.632081     -0.055087
  H       1.275348     -2.610304     -0.055690
23
Coordinates from ORCA-job thiourea_adenine_opt_freq E -1015.162736561788
  S       5.056158     -2.705053      1.573401
  N       6.152235     -0.281785      1.556733
  N       3.913075     -0.336902      2.089359
  C       5.036292     -1.030795      1.747530
  H       6.179757      0.713027      1.728984
  H       7.007194     -0.758577      1.317907
  H       3.060620     -0.881708      2.107154
  H       3.774715      0.608127      1.749469
  N      -1.496455     -1.492625     -0.139491
  N      -2.513761      0.510078     -0.306736
  N      -0.498724      1.879448     -0.225394
  N       1.553366      0.624744     -0.018116
  N       1.664417     -1.696123      0.140878
  C      -0.486904     -0.541026     -0.115006
  C      -1.146775      0.699496     -0.218967
  C       0.915643     -0.556915     -0.017336
  C      -2.674310     -0.790534     -0.254243
  C       0.818910      1.755491     -0.121840
  H      -1.412701     -2.495534     -0.068336
  H      -3.628653     -1.300179     -0.293446
  H       1.393854      2.679064     -0.123823
  H       2.659669     -1.624073     -0.031350
  H       1.263818     -2.596993     -0.070488
23
Coordinates from ORCA-job thiourea_adenine_opt_freq E -1015.162882804663
  S       5.064063     -2.705838      1.567101
  N       6.171864     -0.285877      1.535738
  N       3.944937     -0.329709      2.111059
  C       5.056599     -1.032071      1.743854
  H       6.213474      0.702163      1.740980
  H       7.020466     -0.765305      1.279805
  H       3.091730     -0.871383      2.153264
  H       3.809305      0.611400      1.758934
  N      -1.505850     -1.493871     -0.149122
  N      -2.525203      0.506277     -0.335864
  N      -0.513075      1.879134     -0.237016
  N       1.538567      0.628495     -0.000248
  N       1.647571     -1.695083      0.168663
  C      -0.498519     -0.540366     -0.118236
  C      -1.159379      0.698426     -0.234711
  C       0.902604     -0.553582     -0.005133
  C      -2.683838     -0.794377     -0.278741
  C       0.803370      1.757860     -0.115860
  H      -1.422101     -2.495821     -0.065311
  H      -3.636861     -1.305942     -0.324658
  H       1.377047      2.682169     -0.112385
  H       2.645112     -1.627833      0.005592
  H       1.249558     -2.588213     -0.080861
23
Coordinates from ORCA-job thiourea_adenine_opt_freq E -1015.163033680195
  S       5.075552     -2.704641      1.547730
  N       6.181220     -0.279397      1.501612
  N       3.971442     -0.327729      2.131408
  C       5.072816     -1.030475      1.731325
  H       6.236493      0.697257      1.753032
  H       7.025783     -0.756892      1.228767
  H       3.121414     -0.869657      2.203400
  H       3.835654      0.612862      1.778595
  N      -1.514457     -1.493471     -0.160286
  N      -2.530612      0.506097     -0.371078
  N      -0.518735      1.878242     -0.249583
  N       1.528484      0.627191      0.024464
  N       1.628121     -1.699591      0.200218
  C      -0.507649     -0.540214     -0.120186
  C      -1.166149      0.698035     -0.252091
  C       0.891648     -0.553588      0.012295
  C      -2.690625     -0.794208     -0.308175
  C       0.795468      1.756752     -0.106492
  H      -1.433726     -2.494189     -0.060105
  H      -3.643194     -1.305697     -0.363215
  H       1.369740      2.680616     -0.096717
  H       2.630617     -1.641698      0.062413
  H       1.232132     -2.584955     -0.080486
23
Coordinates from ORCA-job thiourea_adenine_opt_freq E -1015.163185658126
  S       5.084657     -2.699879      1.514695
  N       6.176853     -0.263693      1.452433
  N       3.990133     -0.329539      2.151153
  C       5.080883     -1.024983      1.710129
  H       6.248960      0.696045      1.759216
  H       7.018663     -0.737320      1.164042
  H       3.146554     -0.874154      2.256679
  H       3.849350      0.613746      1.808888
  N      -1.520674     -1.492090     -0.173122
  N      -2.528169      0.508972     -0.410410
  N      -0.514393      1.876475     -0.261246
  N       1.524117      0.620882      0.056319
  N       1.609803     -1.708240      0.235992
  C      -0.512722     -0.541128     -0.119807
  C      -1.165395      0.697824     -0.269695
  C       0.884374     -0.557484      0.036185
  C      -2.692753     -0.790659     -0.343184
  C       0.796364      1.752039     -0.092759
  H      -1.445832     -2.491310     -0.054808
  H      -3.645596     -1.300074     -0.410842
  H       1.372850      2.674425     -0.075953
  H       2.617821     -1.660482      0.134904
  H       1.215590     -2.588721     -0.061966
23
Coordinates from ORCA-job thiourea_adenine_opt_freq E -1015.163349695641
  S       5.083651     -2.690730      1.472181
  N       6.156740     -0.242631      1.388256
  N       4.000675     -0.332135      2.172391
  C       5.077409     -1.015629      1.682963
  H       6.252412      0.695290      1.752046
  H       6.994927     -0.714112      1.085024
  H       3.165321     -0.880136      2.313899
  H       3.849147      0.615759      1.848976
  N      -1.522529     -1.490740     -0.187792
  N      -2.516980      0.513195     -0.453562
  N      -0.500832      1.873681     -0.270071
  N       1.525367      0.610993      0.095144
  N       1.596578     -1.718787      0.276741
  C      -0.512447     -0.543386     -0.116758
  C      -1.156700      0.697187     -0.285771
  C       0.881986     -0.564848      0.066381
  C      -2.688547     -0.785412     -0.382658
  C       0.805347      1.744514     -0.073638
  H      -1.455492     -2.488334     -0.052221
  H      -3.641876     -1.291386     -0.466930
  H       1.384939      2.664811     -0.048758
  H       2.608513     -1.677991      0.214490
  H       1.203830     -2.598523     -0.023488
23
Coordinates from ORCA-job thiourea_adenine_opt_freq E -1015.163536731876
  S       5.066636     -2.677175      1.425370
  N       6.118277     -0.219236      1.308671
  N       4.003599     -0.333226      2.197313
  C       5.059922     -1.003185      1.652594
  H       6.243767      0.695071      1.722064
  H       6.950014     -0.691860      0.988269
  H       3.177209     -0.883973      2.376854
  H       3.834942      0.619826      1.898697
  N      -1.518150     -1.489874     -0.204624
  N      -2.496049      0.518053     -0.498320
  N      -0.478055      1.869792     -0.273920
  N       1.532570      0.598200      0.141880
  N       1.590772     -1.730366      0.324384
  C      -0.505513     -0.547021     -0.110718
  C      -1.139198      0.695882     -0.299444
  C       0.885384     -0.575511      0.103205
  C      -2.675939     -0.779456     -0.428130
  C       0.822442      1.734494     -0.047298
  H      -1.460188     -2.486033     -0.054982
  H      -3.629454     -1.281028     -0.533747
  H       1.405644      2.652261     -0.012685
  H       2.604279     -1.691478      0.294865
  H       1.198527     -2.613506      0.036545
23
Coordinates from ORCA-job thiourea_adenine_opt_freq E -1015.163713079602
  S       5.037904     -2.663199      1.389207
  N       6.073560     -0.201769      1.233591
  N       4.003520     -0.330812      2.223049
  C       5.035894     -0.992240      1.628884
  H       6.221847      0.698493      1.671371
  H       6.895850     -0.677014      0.891880
  H       3.183861     -0.882100      2.434001
  H       3.814587      0.624992      1.945362
  N      -1.509347     -1.489633     -0.221722
  N      -2.471060      0.522390     -0.537790
  N      -0.452971      1.865728     -0.270876
  N       1.542693      0.585479      0.187515
  N       1.591500     -1.740698      0.371767
  C      -0.494732     -0.550979     -0.103616
  C      -1.118348      0.694452     -0.307603
  C       0.892046     -0.586882      0.138666
  C      -2.658684     -0.774066     -0.470260
  C       0.842102      1.724230     -0.017984
  H      -1.458984     -2.485396     -0.066835
  H      -3.611733     -1.271400     -0.597942
  H       1.428558      2.639578      0.026419
  H       2.604670     -1.699425      0.356287
  H       1.198707     -2.629079      0.103474
23
Coordinates from ORCA-job thiourea_adenine_opt_freq E -1015.163845318638
  S       5.013154     -2.651158      1.366678
  N       6.042915     -0.192321      1.176010
  N       4.014731     -0.323782      2.249706
  C       5.022225     -0.984286      1.615000
  H       6.207423      0.702489      1.619668
  H       6.852214     -0.670172      0.807720
  H       3.200171     -0.873895      2.485177
  H       3.806599      0.630466      1.979742
  N      -1.503759     -1.489822     -0.238512
  N      -2.452879      0.525349     -0.571397
  N      -0.436297      1.862121     -0.265797
  N       1.547185      0.575510      0.228188
  N       1.587160     -1.749222      0.418501
  C      -0.488590     -0.554077     -0.098659
  C      -1.104188      0.693215     -0.314710
  C       0.893266     -0.595696      0.169190
  C      -2.645306     -0.770617     -0.510371
  C       0.853969      1.715825      0.009579
  H      -1.458861     -2.485854     -0.083822
  H      -3.597042     -1.264954     -0.658172
  H       1.442575      2.629340      0.063449
  H       2.600183     -1.708360      0.404038
  H       1.194589     -2.639448      0.155637
23
Coordinates from ORCA-job thiourea_adenine_opt_freq E -1015.163982693689
  S       4.993353     -2.636064      1.344387
  N       6.017189     -0.180197      1.118904
  N       4.039347     -0.313113      2.282205
  C       5.017125     -0.973908      1.602665
  H       6.197924      0.711670      1.561975
  H       6.808407     -0.658660      0.714192
  H       3.232705     -0.863724      2.544193
  H       3.807847      0.636439      2.013557
  N      -1.501588     -1.489482     -0.259335
  N      -2.434405      0.529747     -0.613881
  N      -0.419779      1.857548     -0.260938
  N       1.547763      0.562326      0.275780
  N       1.571334     -1.762788      0.476421
  C      -0.485986     -0.557676     -0.094866
  C      -1.091309      0.692170     -0.324771
  C       0.888559     -0.606434      0.203997
  C      -2.633371     -0.765331     -0.556775
  C       0.864031      1.705003      0.041557
  H      -1.463430     -2.486163     -0.107255
  H      -3.583469     -1.255662     -0.727034
  H       1.455629      2.615887      0.106949
  H       2.585237     -1.731014      0.463108
  H       1.178326     -2.649922      0.201811
23
Coordinates from ORCA-job thiourea_adenine_opt_freq E -1015.164135112626
  S       4.980176     -2.616886      1.320107
  N       5.990313     -0.159261      1.062734
  N       4.069726     -0.301169      2.315945
  C       5.016673     -0.958444      1.589221
  H       6.181393      0.734138      1.497686
  H       6.760518     -0.632740      0.614336
  H       3.276092     -0.857034      2.605379
  H       3.810679      0.641722      2.047413
  N      -1.502253     -1.487306     -0.280167
  N      -2.411445      0.538619     -0.658880
  N      -0.395805      1.851203     -0.256754
  N       1.548639      0.541464      0.328926
  N       1.544202     -1.785930      0.541010
  C      -0.484095     -0.562742     -0.091311
  C      -1.074365      0.691458     -0.337178
  C       0.880920     -0.622304      0.242562
  C      -2.620109     -0.755206     -0.608610
  C       0.879317      1.688797      0.076661
  H      -1.474268     -2.484870     -0.131910
  H      -3.569184     -1.238686     -0.802699
  H       1.476363      2.595113      0.155431
  H       2.560052     -1.774830      0.535386
  H       1.147900     -2.664457      0.241556
23
Coordinates from ORCA-job thiourea_adenine_opt_freq E -1015.164302725138
  S       4.959064     -2.590085      1.282310
  N       5.941595     -0.123520      0.987853
  N       4.103650     -0.287646      2.355348
  C       5.008645     -0.933722      1.565774
  H       6.147567      0.770541      1.413752
  H       6.682760     -0.586414      0.483321
  H       3.333896     -0.854065      2.683766
  H       3.810763      0.647619      2.093449
  N      -1.500312     -1.483309     -0.305083
  N      -2.371327      0.552295     -0.721341
  N      -0.353910      1.841068     -0.253835
  N       1.553276      0.508853      0.400574
  N       1.506310     -1.821380      0.621421
  C      -0.477590     -0.570768     -0.086038
  C      -1.044161      0.689946     -0.354507
  C       0.873617     -0.646372      0.294543
  C      -2.597699     -0.738633     -0.671917
  C       0.907058      1.663739      0.122925
  H      -1.488401     -2.481583     -0.159667
  H      -3.545857     -1.211030     -0.895601
  H       1.512508      2.562763      0.219569
  H       2.524462     -1.840906      0.641612
  H       1.105527     -2.686741      0.288616
23
Coordinates from ORCA-job thiourea_adenine_opt_freq E -1015.164466260111
  S       4.936202     -2.566327      1.255002
  N       5.891473     -0.090102      0.926930
  N       4.127795     -0.273260      2.385995
  C       4.995744     -0.908615      1.545249
  H       6.099187      0.813793      1.329962
  H       6.603685     -0.539298      0.371106
  H       3.383280     -0.851946      2.748344
  H       3.806723      0.654268      2.129264
  N      -1.497285     -1.478548     -0.322695
  N      -2.328491      0.567067     -0.770203
  N      -0.307144      1.829948     -0.249959
  N       1.560729      0.473768      0.464187
  N       1.472668     -1.857845      0.683700
  C      -0.468254     -0.579774     -0.080386
  C      -1.010082      0.687759     -0.368190
  C       0.870204     -0.672016      0.339931
  C      -2.572986     -0.720850     -0.725513
  C       0.939121      1.637047      0.165089
  H      -1.501570     -2.477487     -0.181540
  H      -3.520834     -1.181117     -0.974318
  H       1.553109      2.528260      0.278880
  H       2.491109     -1.903448      0.731972
  H       1.067059     -2.710626      0.324038
23
Coordinates from ORCA-job thiourea_adenine_opt_freq E -1015.164620718104
  S       4.921813     -2.552590      1.253440
  N       5.859921     -0.072074      0.894391
  N       4.140319     -0.258145      2.404821
  C       4.985541     -0.890249      1.536638
  H       6.059382      0.847547      1.263730
  H       6.550135     -0.510835      0.304015
  H       3.414793     -0.846019      2.789806
  H       3.803688      0.662529      2.144491
  N      -1.496271     -1.474849     -0.333437
  N      -2.297731      0.578117     -0.799503
  N      -0.273083      1.821072     -0.245087
  N       1.565959      0.446419      0.505539
  N       1.452574     -1.885201      0.710422
  C      -0.461654     -0.587240     -0.077418
  C      -0.985691      0.685414     -0.374973
  C       0.869524     -0.692172      0.366298
  C      -2.557719     -0.706891     -0.754584
  C       0.962225      1.616402      0.194899
  H      -1.511324     -2.474562     -0.198586
  H      -3.506216     -1.157571     -1.017833
  H       1.581779      2.501906      0.322211
  H       2.469473     -1.940022      0.780649
  H       1.044003     -2.730335      0.336915
23
Coordinates from ORCA-job thiourea_adenine_opt_freq E -1015.164736769524
  S       4.901334     -2.541369      1.259960
  N       5.819544     -0.061649      0.853628
  N       4.153688     -0.241794      2.424628
  C       4.968872     -0.875035      1.528240
  H       6.018909      0.870648      1.189431
  H       6.483837     -0.494909      0.230653
  H       3.448010     -0.834587      2.837324
  H       3.802679      0.672471      2.160605
  N      -1.491729     -1.471829     -0.348285
  N      -2.267827      0.587707     -0.825430
  N      -0.243222      1.813576     -0.234972
  N       1.570200      0.423279      0.549000
  N       1.441201     -1.907815      0.733038
  C      -0.454087     -0.593528     -0.074663
  C      -0.962414      0.683147     -0.379400
  C       0.870162     -0.710044      0.391789
  C      -2.539092     -0.695352     -0.788818
  C       0.981181      1.598523      0.228925
  H      -1.515816     -2.472051     -0.218431
  H      -3.486508     -1.138018     -1.068822
  H       1.603685      2.479687      0.371332
  H       2.456152     -1.958901      0.828885
  H       1.032680     -2.751506      0.358226
23
Coordinates from ORCA-job thiourea_adenine_opt_freq E -1015.164787577728
  S       4.911355     -2.542517      1.292546
  N       5.824688     -0.069886      0.856756
  N       4.155949     -0.230400      2.428278
  C       4.971744     -0.873066      1.538586
  H       6.007942      0.877428      1.157714
  H       6.482994     -0.504363      0.228567
  H       3.450726     -0.823675      2.844286
  H       3.802246      0.678613      2.150259
  N      -1.494656     -1.470956     -0.354261
  N      -2.268103      0.591568     -0.821633
  N      -0.242828      1.812930     -0.225164
  N       1.569018      0.416954      0.552208
  N       1.443247     -1.913897      0.720541
  C      -0.456047     -0.595050     -0.076108
  C      -0.962986      0.683394     -0.374321
  C       0.869151     -0.715904      0.388731
  C      -2.541662     -0.691179     -0.789630
  C       0.981159      1.594182      0.237607
  H      -1.518053     -2.472178     -0.232257
  H      -3.489650     -1.131514     -1.071303
  H       1.604231      2.474293      0.384443
  H       2.456902     -1.953729      0.816408
  H       1.034071     -2.760396      0.354592
23
Coordinates from ORCA-job thiourea_adenine_opt_freq E -1015.164820126530
  S       4.891374     -2.534886      1.295725
  N       5.781337     -0.066581      0.810131
  N       4.174350     -0.218853      2.446227
  C       4.955276     -0.865601      1.529225
  H       5.973889      0.883925      1.095040
  H       6.413973     -0.503066      0.157515
  H       3.485249     -0.810267      2.889571
  H       3.804182      0.684548      2.169633
  N      -1.485103     -1.469955     -0.374121
  N      -2.244022      0.596709     -0.846789
  N      -0.225368      1.809535     -0.211833
  N       1.570357      0.405182      0.590259
  N       1.437924     -1.924480      0.748922
  C      -0.449130     -0.597792     -0.073475
  C      -0.946634      0.682851     -0.376034
  C       0.868112     -0.725503      0.411653
  C      -2.522099     -0.685267     -0.824058
  C       0.990538      1.584629      0.269468
  H      -1.513324     -2.471336     -0.254657
  H      -3.466356     -1.121720     -1.123785
  H       1.613875      2.462500      0.428721
  H       2.450957     -1.960542      0.863953
  H       1.032082     -2.773379      0.385553
23
Coordinates from ORCA-job thiourea_adenine_opt_freq E -1015.164851570723
  S       4.900683     -2.538567      1.313592
  N       5.785171     -0.073740      0.811046
  N       4.175800     -0.215266      2.445874
  C       4.958392     -0.868233      1.534659
  H       5.972122      0.880954      1.085101
  H       6.417648     -0.514543      0.161340
  H       3.485100     -0.803700      2.891284
  H       3.804477      0.686046      2.163692
  N      -1.484942     -1.470353     -0.377648
  N      -2.249178      0.596831     -0.840333
  N      -0.231702      1.811508     -0.205061
  N       1.568748      0.407609      0.586808
  N       1.440911     -1.922082      0.742449
  C      -0.450506     -0.596857     -0.074231
  C      -0.950875      0.684058     -0.371734
  C       0.867189     -0.724171      0.407566
  C      -2.523417     -0.686016     -0.824515
  C       0.986215      1.586941      0.271698
  H      -1.511429     -2.471955     -0.259774
  H      -3.466991     -1.123328     -1.125230
  H       1.608948      2.465152      0.431698
  H       2.453746     -1.956976      0.856040
  H       1.035329     -2.772662      0.382522
23
Coordinates from ORCA-job thiourea_adenine_opt_freq E -1015.164891271027
  S       4.911555     -2.543649      1.349032
  N       5.773528     -0.084389      0.795801
  N       4.183048     -0.204332      2.450455
  C       4.957185     -0.869810      1.540859
  H       5.952690      0.878405      1.044883
  H       6.397487     -0.534875      0.144680
  H       3.497333     -0.786149      2.912449
  H       3.804047      0.691047      2.159339
  N      -1.479269     -1.470723     -0.390379
  N      -2.247815      0.598233     -0.839470
  N      -0.235540      1.813661     -0.189113
  N       1.567598      0.408260      0.593211
  N       1.443533     -1.921629      0.739028
  C      -0.448660     -0.596226     -0.074904
  C      -0.951270      0.685952     -0.365108
  C       0.867034     -0.724435      0.407874
  C      -2.518253     -0.685358     -0.833799
  C       0.982958      1.588237      0.286736
  H      -1.505058     -2.472584     -0.274789
  H      -3.459570     -1.122848     -1.141429
  H       1.604329      2.466340      0.452813
  H       2.454965     -1.959571      0.860094
  H       1.039584     -2.772904      0.378582
23
Coordinates from ORCA-job thiourea_adenine_opt_freq E -1015.164922086224
  S       4.915673     -2.547329      1.382274
  N       5.752090     -0.092816      0.774470
  N       4.189853     -0.192592      2.456840
  C       4.951019     -0.869313      1.544544
  H       5.926452      0.876713      0.999325
  H       6.365021     -0.552512      0.119325
  H       3.514146     -0.767870      2.940988
  H       3.802756      0.696938      2.158573
  N      -1.471433     -1.470642     -0.402358
  N      -2.241319      0.599931     -0.841933
  N      -0.234018      1.814451     -0.174765
  N       1.568453      0.407005      0.605120
  N       1.445708     -1.923636      0.737321
  C      -0.443909     -0.596394     -0.075764
  C      -0.947032      0.686944     -0.360976
  C       0.869680     -0.725760      0.411074
  C      -2.509394     -0.684076     -0.845942
  C       0.983095      1.587901      0.304701
  H      -1.498494     -2.472492     -0.286945
  H      -3.448523     -1.121017     -1.161001
  H       1.602300      2.465927      0.479092
  H       2.454972     -1.965104      0.871882
  H       1.044343     -2.773603      0.370998
23
Coordinates from ORCA-job thiourea_adenine_opt_freq E -1015.164958834416
  S       4.916204     -2.550050      1.423730
  N       5.714750     -0.102114      0.741642
  N       4.198480     -0.177043      2.466592
  C       4.939100     -0.867127      1.547720
  H       5.882857      0.875212      0.935123
  H       6.311288     -0.572934      0.079253
  H       3.540643     -0.744128      2.983602
  H       3.798947      0.704455      2.160982
  N      -1.458840     -1.469993     -0.418110
  N      -2.227659      0.602670     -0.849170
  N      -0.227097      1.814540     -0.157486
  N       1.571607      0.403669      0.625206
  N       1.448486     -1.928679      0.737529
  C      -0.434951     -0.597096     -0.077397
  C      -0.937234      0.687674     -0.357758
  C       0.875672     -0.728441      0.417743
  C      -2.494959     -0.681426     -0.862630
  C       0.986418      1.586032      0.330249
  H      -1.488778     -2.471759     -0.302357
  H      -3.431478     -1.116964     -1.187228
  H       1.602297      2.463906      0.516709
  H       2.454348     -1.974314      0.893303
  H       1.051338     -2.775440      0.359595
23
Coordinates from ORCA-job thiourea_adenine_opt_freq E -1015.165001694075
  S       4.912882     -2.551220      1.477754
  N       5.656138     -0.115927      0.693093
  N       4.213426     -0.155158      2.481095
  C       4.921236     -0.863736      1.551050
  H       5.815517      0.870217      0.844387
  H       6.227145     -0.601452      0.018900
  H       3.584948     -0.710711      3.044695
  H       3.793581      0.713769      2.166768
  N      -1.439771     -1.468861     -0.440071
  N      -2.206128      0.606467     -0.861667
  N      -0.215726      1.814209     -0.134229
  N       1.576004      0.398519      0.657046
  N       1.452091     -1.935824      0.742429
  C      -0.421298     -0.598080     -0.079806
  C      -0.921815      0.688299     -0.354551
  C       0.884507     -0.732071      0.429738
  C      -2.472440     -0.677707     -0.888460
  C       0.991437      1.582853      0.367251
  H      -1.473640     -2.470616     -0.324798
  H      -3.404822     -1.111275     -1.227181
  H       1.602112      2.460527      0.571040
  H       2.452925     -1.984072      0.926810
  H       1.063132     -2.777497      0.345551
23
Coordinates from ORCA-job thiourea_adenine_opt_freq E -1015.165048749888
  S       4.912138     -2.551537      1.542458
  N       5.586963     -0.136229      0.640353
  N       4.231360     -0.130342      2.495732
  C       4.902734     -0.861596      1.556828
  H       5.731352      0.858442      0.742791
  H       6.129355     -0.638723     -0.044899
  H       3.640041     -0.671782      3.110887
  H       3.785840      0.722249      2.171545
  N      -1.416671     -1.467346     -0.464918
  N      -2.183231      0.610341     -0.873592
  N      -0.205294      1.814839     -0.107244
  N       1.580503      0.394945      0.691434
  N       1.458238     -1.941910      0.747187
  C      -0.405245     -0.598185     -0.083384
  C      -0.905567      0.689434     -0.350288
  C       0.895236     -0.734186      0.442062
  C      -2.446949     -0.674095     -0.915740
  C       0.995064      1.581129      0.408163
  H      -1.453074     -2.469429     -0.352706
  H      -3.374325     -1.106223     -1.269559
  H       1.599159      2.458799      0.630893
  H       2.453024     -1.990368      0.961363
  H       1.080785     -2.777576      0.327478
23
Coordinates from ORCA-job thiourea_adenine_opt_freq E -1015.165098840774
  S       4.918817     -2.554008      1.595473
  N       5.543271     -0.156289      0.610334
  N       4.240755     -0.116405      2.502984
  C       4.895010     -0.864440      1.565569
  H       5.670799      0.843591      0.679005
  H       6.072211     -0.669732     -0.077260
  H       3.676464     -0.648476      3.150874
  H       3.776360      0.722963      2.170608
  N      -1.400622     -1.466159     -0.479559
  N      -2.173679      0.611517     -0.875466
  N      -0.204244      1.817550     -0.089280
  N       1.583144      0.398092      0.707618
  N       1.466178     -1.941184      0.744551
  C      -0.394432     -0.596180     -0.087747
  C      -0.898787      0.691100     -0.346199
  C       0.904086     -0.731006      0.445132
  C      -2.432766     -0.673607     -0.927966
  C       0.993523      1.584596      0.431077
  H      -1.435363     -2.468847     -0.371841
  H      -3.356972     -1.106707     -1.288709
  H       1.592284      2.463130      0.664630
  H       2.456763     -1.986385      0.975151
  H       1.098642     -2.772464      0.307867
23
Coordinates from ORCA-job thiourea_adenine_opt_freq E -1015.165175922831
  S       4.937516     -2.558814      1.648745
  N       5.510481     -0.177909      0.589917
  N       4.244904     -0.111440      2.506695
  C       4.896913     -0.872219      1.578094
  H       5.613143      0.826344      0.630287
  H       6.037110     -0.695909     -0.095858
  H       3.706806     -0.640373      3.179060
  H       3.759117      0.712352      2.166040
  N      -1.387762     -1.464528     -0.489100
  N      -2.172172      0.611473     -0.871489
  N      -0.209162      1.822769     -0.076622
  N       1.584645      0.407146      0.713516
  N       1.475525     -1.934361      0.740295
  C      -0.386029     -0.591648     -0.093315
  C      -0.897524      0.694033     -0.342644
  C       0.911869     -0.723097      0.443182
  C      -2.424386     -0.674752     -0.932563
  C       0.988609      1.592907      0.443370
  H      -1.416446     -2.468305     -0.389947
  H      -3.346221     -1.110828     -1.295721
  H       1.583108      2.472744      0.682861
  H       2.463074     -1.971617      0.981102
  H       1.118321     -2.763315      0.290940
23
Coordinates from ORCA-job thiourea_adenine_opt_freq E -1015.165228186529
  S       4.959571     -2.559377      1.693144
  N       5.468864     -0.196436      0.563350
  N       4.253161     -0.104885      2.511286
  C       4.896531     -0.876685      1.585398
  H       5.546871      0.810694      0.575060
  H       5.986601     -0.718294     -0.126028
  H       3.745589     -0.631147      3.209309
  H       3.741104      0.700456      2.164351
  N      -1.374429     -1.462458     -0.501506
  N      -2.164414      0.613258     -0.875072
  N      -0.209623      1.826727     -0.062987
  N       1.585279      0.412366      0.727023
  N       1.482702     -1.929027      0.745705
  C      -0.377619     -0.588081     -0.095848
  C      -0.892510      0.697156     -0.339687
  C       0.916655     -0.718699      0.448097
  C      -2.411095     -0.673498     -0.946172
  C       0.986449      1.597882      0.460924
  H      -1.398527     -2.467171     -0.411456
  H      -3.329303     -1.110873     -1.316947
  H       1.577809      2.477680      0.708289
  H       2.467195     -1.960308      0.999963
  H       1.134578     -2.758629      0.290647
23
Coordinates from ORCA-job thiourea_adenine_opt_freq E -1015.165317273923
  S       4.996390     -2.561140      1.741447
  N       5.420030     -0.218539      0.535591
  N       4.254795     -0.103724      2.513146
  C       4.896553     -0.884335      1.592757
  H       5.465047      0.790521      0.517089
  H       5.933619     -0.741702     -0.155769
  H       3.783984     -0.628677      3.237769
  H       3.710153      0.677301      2.159466
  N      -1.358343     -1.459660     -0.512471
  N      -2.156082      0.614751     -0.878417
  N      -0.211572      1.833246     -0.049767
  N       1.586461      0.422875      0.738306
  N       1.495333     -1.917643      0.751939
  C      -0.367426     -0.582415     -0.096347
  C      -0.887219      0.702139     -0.335675
  C       0.922906     -0.710970      0.453707
  C      -2.395265     -0.672654     -0.959195
  C       0.983996      1.607141      0.476890
  H      -1.375059     -2.465415     -0.433959
  H      -3.309052     -1.112371     -1.338197
  H       1.571992      2.487186      0.731297
  H       2.476149     -1.943694      1.017401
  H       1.154050     -2.751571      0.299835
23
Coordinates from ORCA-job thiourea_adenine_opt_freq E -1015.165444692552
  S       5.058976     -2.559310      1.805931
  N       5.340246     -0.251207      0.495285
  N       4.251078     -0.104212      2.513844
  C       4.892153     -0.894210      1.599778
  H       5.333486      0.757132      0.433828
  H       5.848323     -0.775435     -0.199163
  H       3.839579     -0.624852      3.277451
  H       3.656173      0.635917      2.150786
  N      -1.332497     -1.454833     -0.526486
  N      -2.139869      0.617281     -0.885624
  N      -0.211331      1.843110     -0.032238
  N       1.590151      0.439505      0.756630
  N       1.517501     -1.899558      0.761365
  C      -0.350250     -0.573741     -0.094959
  C      -0.876309      0.709911     -0.330431
  C       0.934507     -0.698973      0.463696
  C      -2.368665     -0.670846     -0.978886
  C       0.983022      1.621406      0.500506
  H      -1.338836     -2.461695     -0.463226
  H      -3.275735     -1.113678     -1.370445
  H       1.565110      2.502231      0.765399
  H       2.492625     -1.921991      1.043841
  H       1.182003     -2.741301      0.319960
23
Coordinates from ORCA-job thiourea_adenine_opt_freq E -1015.165624994230
  S       5.133892     -2.555132      1.852262
  N       5.269964     -0.278102      0.465447
  N       4.231526     -0.116705      2.509470
  C       4.887088     -0.905331      1.602805
  H       5.210425      0.726113      0.372007
  H       5.784400     -0.796154     -0.228956
  H       3.875365     -0.635615      3.301875
  H       3.587666      0.577516      2.136268
  N      -1.309120     -1.449725     -0.531270
  N      -2.124273      0.618991     -0.892643
  N      -0.209712      1.854149     -0.024075
  N       1.595401      0.460029      0.769004
  N       1.542299     -1.876748      0.770749
  C      -0.334018     -0.564134     -0.089625
  C      -0.865409      0.718357     -0.326972
  C       0.946759     -0.684420      0.473887
  C      -2.344200     -0.669886     -0.991563
  C       0.984556      1.638470      0.513741
  H      -1.304335     -2.457260     -0.481352
  H      -3.245595     -1.116361     -1.392217
  H       1.561197      2.521109      0.784022
  H       2.513502     -1.899113      1.060506
  H       1.204060     -2.729398      0.353476
23
Coordinates from ORCA-job thiourea_adenine_opt_freq E -1015.165859647262
  S       5.211396     -2.545239      1.883307
  N       5.210022     -0.297604      0.443810
  N       4.201654     -0.132868      2.502270
  C       4.877012     -0.914249      1.602055
  H       5.102387      0.699793      0.323385
  H       5.735234     -0.808519     -0.247943
  H       3.893573     -0.647101      3.317604
  H       3.513464      0.512009      2.115304
  N      -1.288712     -1.444576     -0.530026
  N      -2.106974      0.621037     -0.900284
  N      -0.203574      1.863912     -0.021633
  N       1.602256      0.478580      0.781354
  N       1.566554     -1.856086      0.777197
  C      -0.318921     -0.555802     -0.081559
  C      -0.852804      0.725971     -0.324850
  C       0.959645     -0.671153      0.484747
  C      -2.321655     -0.668427     -0.999809
  C       0.989884      1.653724      0.522785
  H      -1.275806     -2.452402     -0.488657
  H      -3.218811     -1.117454     -1.407138
  H       1.560791      2.538887      0.796319
  H       2.536062     -1.883161      1.069010
  H       1.218763     -2.718622      0.389595
23
Coordinates from ORCA-job thiourea_adenine_opt_freq E -1015.166106556191
  S       5.323512     -2.519032      1.935843
  N       5.137174     -0.328704      0.422429
  N       4.141737     -0.159779      2.486135
  C       4.860522     -0.926715      1.605532
  H       4.956176      0.652717      0.263379
  H       5.691118     -0.827919     -0.255655
  H       3.893239     -0.660130      3.332025
  H       3.401759      0.415504      2.071831
  N      -1.259398     -1.436786     -0.524792
  N      -2.088049      0.623649     -0.897647
  N      -0.195462      1.878457     -0.015935
  N       1.616854      0.506065      0.790664
  N       1.605517     -1.828829      0.770149
  C      -0.295783     -0.543297     -0.073214
  C      -0.836753      0.736407     -0.318192
  C       0.984303     -0.649936      0.491285
  C      -2.295278     -0.666984     -0.997816
  C       0.999011      1.677024      0.530891
  H      -1.235738     -2.444848     -0.493986
  H      -3.189027     -1.120343     -1.407739
  H       1.561673      2.566769      0.805881
  H       2.572250     -1.861861      1.065078
  H       1.242083     -2.700780      0.420699
23
Coordinates from ORCA-job thiourea_adenine_opt_freq E -1015.166005400524
  S       5.325261     -2.527985      1.873834
  N       5.204581     -0.266374      0.468766
  N       4.083614     -0.201636      2.470101
  C       4.846543     -0.929334      1.595873
  H       5.047563      0.724513      0.346693
  H       5.799560     -0.744052     -0.190359
  H       3.777694     -0.711717      3.275951
  H       3.376503      0.399659      2.057393
  N      -1.280792     -1.437570     -0.486218
  N      -2.090171      0.623902     -0.888326
  N      -0.171685      1.872097     -0.055840
  N       1.632275      0.494579      0.762331
  N       1.598325     -1.841055      0.753098
  C      -0.302316     -0.548944     -0.064138
  C      -0.831409      0.731758     -0.326904
  C       0.988941     -0.656701      0.482912
  C      -2.316167     -0.666079     -0.958956
  C       1.024964      1.667678      0.483833
  H      -1.271458     -2.445170     -0.433675
  H      -3.221293     -1.115740     -1.346927
  H       1.595853      2.558781      0.735859
  H       2.573037     -1.889279      1.016620
  H       1.202016     -2.710678      0.434923
23
Coordinates from ORCA-job thiourea_adenine_opt_freq E -1015.166463604827
  S       5.367368     -2.491595      1.959930
  N       5.123112     -0.323153      0.427208
  N       4.094282     -0.171096      2.473498
  C       4.842637     -0.924019      1.610198
  H       4.905296      0.647603      0.251451
  H       5.700650     -0.820563     -0.232266
  H       3.845555     -0.650679      3.327538
  H       3.355698      0.397823      2.050999
  N      -1.249383     -1.432657     -0.516854
  N      -2.079057      0.628574     -0.878523
  N      -0.173683      1.878382     -0.014420
  N       1.639379      0.500659      0.786188
  N       1.615716     -1.841972      0.743083
  C      -0.281469     -0.542673     -0.077219
  C      -0.822460      0.735995     -0.313966
  C       1.007118     -0.648821      0.481395
  C      -2.292768     -0.662244     -0.975624
  C       1.020378      1.675172      0.525789
  H      -1.235046     -2.440843     -0.477574
  H      -3.192312     -1.113945     -1.373839
  H       1.583725      2.566110      0.795356
  H       2.581355     -1.881950      1.047647
  H       1.235352     -2.703457      0.386850
23
Coordinates from ORCA-job thiourea_adenine_opt_freq E -1015.166528636893
  S       5.431365     -2.478080      2.027697
  N       5.139162     -0.356216      0.436297
  N       4.060681     -0.200950      2.456303
  C       4.867365     -0.938695      1.632939
  H       4.878875      0.601196      0.245378
  H       5.759803     -0.832635     -0.198837
  H       3.818104     -0.681932      3.313795
  H       3.313236      0.350425      2.014963
  N      -1.246428     -1.429369     -0.513894
  N      -2.103840      0.625824     -0.847825
  N      -0.197473      1.889679     -0.005797
  N       1.642274      0.524744      0.755976
  N       1.632495     -1.814833      0.720509
  C      -0.280692     -0.530883     -0.085355
  C      -0.839167      0.742525     -0.303782
  C       1.013937     -0.627555      0.458955
  C      -2.304669     -0.666442     -0.951055
  C       1.006718      1.695697      0.511930
  H      -1.219263     -2.437578     -0.487319
  H      -3.205002     -1.125978     -1.338478
  H       1.569851      2.588375      0.775979
  H       2.593587     -1.836320      1.021922
  H       1.260523     -2.680348      0.366542
23
Coordinates from ORCA-job thiourea_adenine_opt_freq E -1015.166657028295
  S       5.446657     -2.452617      2.050181
  N       5.108347     -0.372139      0.418668
  N       4.088930     -0.168948      2.465102
  C       4.867062     -0.926379      1.635194
  H       4.833485      0.576292      0.205814
  H       5.704385     -0.871305     -0.222179
  H       3.863026     -0.622864      3.342119
  H       3.336090      0.377905      2.027759
  N      -1.241371     -1.427804     -0.535988
  N      -2.094996      0.631809     -0.852798
  N      -0.190748      1.883738      0.014605
  N       1.642387      0.508098      0.777898
  N       1.622228     -1.832328      0.722293
  C      -0.278101     -0.534762     -0.093401
  C      -0.833123      0.740063     -0.301823
  C       1.012808     -0.637800      0.462927
  C      -2.297776     -0.659322     -0.969655
  C       1.007454      1.683169      0.539830
  H      -1.223595     -2.436186     -0.505437
  H      -3.196571     -1.114305     -1.365748
  H       1.569453      2.572580      0.817343
  H       2.581861     -1.849110      1.043338
  H       1.263550     -2.687136      0.330801
23
Coordinates from ORCA-job thiourea_adenine_opt_freq E -1015.166752801648
  S       5.483489     -2.433546      2.061345
  N       5.109285     -0.369551      0.418861
  N       4.080145     -0.172465      2.460837
  C       4.871268     -0.922330      1.636934
  H       4.820558      0.572828      0.197662
  H       5.715335     -0.865150     -0.215325
  H       3.851694     -0.620455      3.339069
  H       3.326356      0.367645      2.020472
  N      -1.246263     -1.425841     -0.535486
  N      -2.092333      0.636758     -0.853854
  N      -0.184837      1.882600      0.014955
  N       1.643703      0.501538      0.778206
  N       1.617336     -1.838265      0.724384
  C      -0.280044     -0.535954     -0.092378
  C      -0.830546      0.741021     -0.301696
  C       1.010354     -0.643028      0.463837
  C      -2.299524     -0.653662     -0.970137
  C       1.012385      1.678773      0.541038
  H      -1.234105     -2.434233     -0.501475
  H      -3.199576     -1.105611     -1.366910
  H       1.577030      2.565994      0.820147
  H       2.579993     -1.854771      1.038207
  H       1.259736     -2.691644      0.328150
23
Coordinates from ORCA-job thiourea_adenine_opt_freq E -1015.167017098707
  S       5.629035     -2.354660      2.140806
  N       5.101518     -0.398414      0.412734
  N       4.064209     -0.183913      2.447768
  C       4.901947     -0.914890      1.655422
  H       4.756778      0.515793      0.155686
  H       5.746917     -0.877848     -0.194529
  H       3.847268     -0.600653      3.342526
  H       3.299267      0.323844      1.992850
  N      -1.258914     -1.417735     -0.544636
  N      -2.096259      0.651065     -0.850316
  N      -0.184642      1.883511      0.028014
  N       1.640587      0.491569      0.776240
  N       1.604387     -1.845414      0.726158
  C      -0.288140     -0.534027     -0.097036
  C      -0.833496      0.746982     -0.298278
  C       1.000102     -0.649602      0.458999
  C      -2.308879     -0.637590     -0.973050
  C       1.011575      1.673509      0.552813
  H      -1.258888     -2.426008     -0.503963
  H      -3.210889     -1.083693     -1.372219
  H       1.580971      2.554123      0.842656
  H       2.573795     -1.845825      1.020780
  H       1.273190     -2.689471      0.287420
23
Coordinates from ORCA-job thiourea_adenine_opt_freq E -1015.167270206021
  S       5.770811     -2.259545      2.223817
  N       5.079266     -0.441963      0.401557
  N       4.054076     -0.195277      2.438046
  C       4.933357     -0.905297      1.674505
  H       4.681133      0.440413      0.111615
  H       5.765489     -0.894407     -0.181282
  H       3.859456     -0.578323      3.352769
  H       3.277265      0.283541      1.973549
  N      -1.269867     -1.409057     -0.555048
  N      -2.098723      0.665457     -0.849563
  N      -0.185620      1.885159      0.041625
  N       1.634171      0.482753      0.778047
  N       1.591305     -1.853946      0.731320
  C      -0.295455     -0.531540     -0.101565
  C      -0.835983      0.753723     -0.295497
  C       0.989086     -0.655840      0.455894
  C      -2.315922     -0.621475     -0.979129
  C       1.009023      1.668902      0.567788
  H      -1.279655     -2.417094     -0.509146
  H      -3.219214     -1.061967     -1.381843
  H       1.582132      2.542879      0.869709
  H       2.567813     -1.834769      1.003379
  H       1.297496     -2.681677      0.236297
23
Coordinates from ORCA-job thiourea_adenine_opt_freq E -1015.167484089962
  S       5.855619     -2.194968      2.271575
  N       5.054624     -0.476902      0.392808
  N       4.052176     -0.204202      2.436719
  C       4.952307     -0.899002      1.685689
  H       4.630136      0.388401      0.088055
  H       5.768476     -0.900882     -0.178480
  H       3.880483     -0.566171      3.363797
  H       3.269307      0.263365      1.972121
  N      -1.276453     -1.403329     -0.560263
  N      -2.098495      0.674187     -0.853528
  N      -0.185647      1.886498      0.046025
  N       1.626945      0.477196      0.783000
  N       1.582627     -1.859946      0.734470
  C      -0.300426     -0.529897     -0.102527
  C      -0.836948      0.758317     -0.295746
  C       0.981249     -0.659546      0.456000
  C      -2.319014     -0.611881     -0.985199
  C       1.007354      1.665480      0.576503
  H      -1.289600     -2.411228     -0.511430
  H      -3.222913     -1.048928     -1.390365
  H       1.581578      2.536410      0.884711
  H       2.562425     -1.828158      0.991511
  H       1.315631     -2.674163      0.201399
23
Coordinates from ORCA-job thiourea_adenine_opt_freq E -1015.167733949099
  S       5.924388     -2.133005      2.309352
  N       5.010500     -0.521535      0.381045
  N       4.048979     -0.211382      2.439619
  C       4.960278     -0.894471      1.693546
  H       4.564757      0.329172      0.064108
  H       5.748454     -0.911874     -0.184252
  H       3.914168     -0.551718      3.382049
  H       3.257124      0.248446      1.977683
  N      -1.273954     -1.397580     -0.565072
  N      -2.094005      0.680253     -0.858105
  N      -0.184676      1.889859      0.050394
  N       1.620974      0.476931      0.795201
  N       1.585376     -1.860332      0.726441
  C      -0.300138     -0.526606     -0.100520
  C      -0.835243      0.763262     -0.294247
  C       0.980459     -0.657878      0.457474
  C      -2.314933     -0.605696     -0.992429
  C       1.006796      1.665487      0.587272
  H      -1.283183     -2.405646     -0.517546
  H      -3.218178     -1.040980     -1.400782
  H       1.577614      2.537345      0.898859
  H       2.564326     -1.823890      0.981467
  H       1.331555     -2.667511      0.175289
23
Coordinates from ORCA-job thiourea_adenine_opt_freq E -1015.167955213960
  S       5.994391     -2.076704      2.339100
  N       4.960008     -0.581368      0.371302
  N       4.070207     -0.215792      2.453847
  C       4.976032     -0.894745      1.703743
  H       4.520861      0.274440      0.055962
  H       5.722861     -0.931157     -0.188605
  H       3.971838     -0.524518      3.408107
  H       3.280490      0.259544      2.012034
  N      -1.276572     -1.393526     -0.575264
  N      -2.095944      0.684275     -0.867825
  N      -0.190662      1.892113      0.051809
  N       1.607178      0.475534      0.808389
  N       1.579109     -1.863653      0.714745
  C      -0.306956     -0.524205     -0.101660
  C      -0.840712      0.766712     -0.296501
  C       0.973207     -0.656147      0.456122
  C      -2.316639     -0.601738     -1.004911
  C       0.997936      1.664279      0.597093
  H      -1.283991     -2.401259     -0.519945
  H      -3.218881     -1.035596     -1.416760
  H       1.563560      2.538468      0.911538
  H       2.558939     -1.820516      0.963772
  H       1.345175     -2.653791      0.130752
23
Coordinates from ORCA-job thiourea_adenine_opt_freq E -1015.168006562670
  S       6.142111     -1.908728      2.412202
  N       4.895802     -0.709366      0.364529
  N       4.076706     -0.200681      2.450587
  C       4.997518     -0.880834      1.722241
  H       4.402961      0.096296     -0.002166
  H       5.683783     -1.028104     -0.179960
  H       4.044690     -0.427430      3.446684
  H       3.256207      0.233160      2.000232
  N      -1.269087     -1.382510     -0.607712
  N      -2.098855      0.696625     -0.859680
  N      -0.203509      1.894897      0.095217
  N       1.597988      0.473133      0.837249
  N       1.587875     -1.859734      0.679467
  C      -0.309071     -0.518097     -0.108844
  C      -0.847769      0.773341     -0.280009
  C       0.971581     -0.651557      0.449708
  C      -2.312932     -0.587695     -1.023845
  C       0.981898      1.663122      0.644626
  H      -1.277884     -2.390502     -0.554606
  H      -3.211502     -1.017162     -1.447912
  H       1.537018      2.536303      0.979753
  H       2.568504     -1.796615      0.931133
  H       1.377409     -2.627213      0.057950
23
Coordinates from ORCA-job thiourea_adenine_opt_freq E -1015.168267043946
  S       6.098052     -1.952642      2.365259
  N       4.865243     -0.677406      0.361652
  N       4.095221     -0.181239      2.468285
  C       4.979868     -0.879143      1.714870
  H       4.376931      0.139204      0.012823
  H       5.624177     -1.027416     -0.205052
  H       4.068530     -0.415038      3.454451
  H       3.278210      0.262130      2.027800
  N      -1.257802     -1.386071     -0.608890
  N      -2.083665      0.693078     -0.871569
  N      -0.191633      1.893120      0.089146
  N       1.603080      0.472091      0.849586
  N       1.592650     -1.867483      0.683082
  C      -0.300468     -0.521158     -0.104920
  C      -0.836258      0.769919     -0.283907
  C       0.979137     -0.654897      0.460108
  C      -2.297727     -0.591288     -1.034897
  C       0.989622      1.662054      0.645469
  H      -1.264910     -2.394308     -0.560404
  H      -3.193764     -1.020693     -1.464334
  H       1.542974      2.536985      0.979347
  H       2.577559     -1.831903      0.937742
  H       1.346413     -2.647249      0.091195
23
Coordinates from ORCA-job thiourea_adenine_opt_freq E -1015.168414368082
  S       6.131568     -1.938364      2.405064
  N       4.908672     -0.690436      0.380282
  N       4.110350     -0.184814      2.473455
  C       5.008879     -0.882533      1.737635
  H       4.435697      0.131623      0.023192
  H       5.681435     -1.038407     -0.168455
  H       4.061399     -0.406204      3.451148
  H       3.309264      0.272387      2.037527
  N      -1.278746     -1.385706     -0.609386
  N      -2.109157      0.694046     -0.856986
  N      -0.209548      1.891784      0.091202
  N       1.594373      0.468676      0.826630
  N       1.581311     -1.865973      0.654108
  C      -0.317447     -0.520693     -0.110120
  C      -0.856256      0.769920     -0.279952
  C       0.967795     -0.656073      0.441095
  C      -2.322822     -0.589616     -1.022945
  C       0.976612      1.659064      0.634717
  H      -1.288955     -2.393765     -0.558045
  H      -3.222086     -1.018697     -1.446166
  H       1.534703      2.530850      0.969063
  H       2.568186     -1.825299      0.874944
  H       1.326213     -2.641119      0.058840
23
Coordinates from ORCA-job thiourea_adenine_opt_freq E -1015.168710675718
  S       6.173770     -1.879918      2.410878
  N       4.852617     -0.745041      0.382246
  N       4.120719     -0.163399      2.480175
  C       5.005853     -0.875446      1.743972
  H       4.362014      0.060934      0.011919
  H       5.619489     -1.098859     -0.171194
  H       4.109180     -0.341701      3.472078
  H       3.306960      0.275821      2.044122
  N      -1.265123     -1.382423     -0.625932
  N      -2.104493      0.696226     -0.852907
  N      -0.212972      1.892825      0.113915
  N       1.594659      0.470524      0.841997
  N       1.597687     -1.861495      0.631056
  C      -0.310640     -0.518239     -0.111214
  C      -0.854400      0.771397     -0.269485
  C       0.975416     -0.653287      0.439777
  C      -2.311215     -0.586330     -1.034676
  C       0.972059      1.660288      0.658448
  H      -1.272460     -2.390914     -0.583920
  H      -3.206695     -1.014648     -1.466646
  H       1.525248      2.530997      1.003687
  H       2.589262     -1.828079      0.841205
  H       1.324504     -2.638582      0.047343
23
Coordinates from ORCA-job thiourea_adenine_opt_freq E -1015.169102042879
  S       6.257246     -1.764560      2.427111
  N       4.751269     -0.869961      0.407044
  N       4.139795     -0.120932      2.489688
  C       5.005311     -0.865065      1.765161
  H       4.240570     -0.089322      0.008868
  H       5.509507     -1.239918     -0.148596
  H       4.197005     -0.204053      3.497005
  H       3.303834      0.277410      2.046800
  N      -1.241156     -1.374984     -0.660392
  N      -2.109954      0.697423     -0.828611
  N      -0.233073      1.894352      0.167499
  N       1.597051      0.480214      0.856505
  N       1.638911     -1.840176      0.567742
  C      -0.299690     -0.511091     -0.117973
  C      -0.861122      0.773559     -0.241448
  C       0.991973     -0.642797      0.423297
  C      -2.297826     -0.581846     -1.047348
  C       0.956280      1.665844      0.701442
  H      -1.238252     -2.384168     -0.647628
  H      -3.186512     -1.010768     -1.492757
  H       1.502205      2.532728      1.067352
  H       2.643721     -1.809906      0.738618
  H       1.324348     -2.631333      0.027463
23
Coordinates from ORCA-job thiourea_adenine_opt_freq E -1015.169306085350
  S       6.263665     -1.751179      2.439676
  N       4.718133     -0.909089      0.425019
  N       4.144086     -0.106465      2.497249
  C       4.998915     -0.868419      1.781155
  H       4.238031     -0.113324      0.017084
  H       5.476538     -1.290870     -0.123420
  H       4.217134     -0.149076      3.508093
  H       3.310970      0.291735      2.054065
  N      -1.234483     -1.373841     -0.668919
  N      -2.120586      0.693637     -0.805453
  N      -0.243107      1.893745      0.185450
  N       1.602219      0.484976      0.843819
  N       1.658587     -1.831284      0.525300
  C      -0.295353     -0.509035     -0.123265
  C      -0.867229      0.772269     -0.228148
  C       1.002940     -0.637795      0.404731
  C      -2.300773     -0.584402     -1.036962
  C       0.952611      1.668199      0.705022
  H      -1.227680     -2.383034     -0.666443
  H      -3.189707     -1.015346     -1.479950
  H       1.498189      2.533512      1.075172
  H       2.666253     -1.806691      0.670816
  H       1.322088     -2.627572      0.006750
23
Coordinates from ORCA-job thiourea_adenine_opt_freq E -1015.169624868475
  S       6.220793     -1.783395      2.493489
  N       4.744269     -0.893759      0.444675
  N       4.121544     -0.102975      2.504046
  C       4.990732     -0.872466      1.813301
  H       4.324580     -0.063681      0.035994
  H       5.504377     -1.303743     -0.082456
  H       4.169903     -0.121192      3.511939
  H       3.302705      0.293278      2.040973
  N      -1.244321     -1.373681     -0.661419
  N      -2.145763      0.689477     -0.749560
  N      -0.247079      1.889313      0.198400
  N       1.623609      0.483246      0.787769
  N       1.678201     -1.830088      0.463269
  C      -0.293349     -0.509412     -0.136066
  C      -0.876203      0.768265     -0.208962
  C       1.018280     -0.639420      0.360950
  C      -2.325545     -0.587068     -0.989885
  C       0.964779      1.665409      0.678293
  H      -1.234428     -2.382462     -0.684895
  H      -3.223272     -1.020076     -1.412714
  H       1.523605      2.525599      1.040446
  H       2.687270     -1.811250      0.567901
  H       1.306754     -2.639268     -0.008646
23
Coordinates from ORCA-job thiourea_adenine_opt_freq E -1015.169879773373
  S       6.221045     -1.739617      2.563980
  N       4.738945     -0.944184      0.475183
  N       4.107876     -0.079989      2.504485
  C       4.986698     -0.863974      1.844329
  H       4.335499     -0.120429      0.037092
  H       5.505545     -1.361829     -0.037213
  H       4.161932     -0.052907      3.512670
  H       3.291508      0.303932      2.026575
  N      -1.250978     -1.368378     -0.665279
  N      -2.166627      0.689796     -0.692784
  N      -0.253340      1.884261      0.230286
  N       1.636532      0.478176      0.752260
  N       1.701436     -1.830167      0.392486
  C      -0.292861     -0.508893     -0.146850
  C      -0.885160      0.766553     -0.181477
  C       1.028830     -0.641726      0.321228
  C      -2.344334     -0.583258     -0.953826
  C       0.971560      1.658595      0.676715
  H      -1.232656     -2.375917     -0.718871
  H      -3.248659     -1.014559     -1.364022
  H       1.535412      2.515790      1.038241
  H       2.713684     -1.793929      0.475746
  H       1.329552     -2.636694     -0.084109
23
Coordinates from ORCA-job thiourea_adenine_opt_freq E -1015.170083197869
  S       6.160717     -1.762305      2.638801
  N       4.764953     -0.945920      0.490846
  N       4.075123     -0.074919      2.499594
  C       4.966933     -0.867702      1.866987
  H       4.416810     -0.104290      0.039843
  H       5.543459     -1.363395     -0.002647
  H       4.113549     -0.035467      3.504819
  H       3.266432      0.298703      1.996165
  N      -1.264694     -1.368541     -0.647401
  N      -2.185030      0.686987     -0.635874
  N      -0.250770      1.879690      0.241528
  N       1.655222      0.474597      0.701918
  N       1.718154     -1.831329      0.340908
  C      -0.293297     -0.511331     -0.154837
  C      -0.889908      0.764309     -0.162160
  C       1.036817     -0.644526      0.282760
  C      -2.366942     -0.584979     -0.902113
  C       0.988220      1.652775      0.653275
  H      -1.237151     -2.374330     -0.725294
  H      -3.281513     -1.015653     -1.289284
  H       1.556660      2.512673      1.000819
  H       2.730525     -1.776506      0.436596
  H       1.367169     -2.627892     -0.168404
23
Coordinates from ORCA-job thiourea_adenine_opt_freq E -1015.170129459863
  S       6.082036     -1.780989      2.710250
  N       4.765645     -0.960364      0.515256
  N       4.053154     -0.037988      2.489658
  C       4.934146     -0.869513      1.893888
  H       4.404397     -0.132233      0.050210
  H       5.522378     -1.429167      0.034903
  H       4.073945      0.029106      3.493562
  H       3.254174      0.331070      1.962811
  N      -1.256728     -1.370309     -0.641128
  N      -2.194625      0.675662     -0.565379
  N      -0.246685      1.871023      0.278139
  N       1.687335      0.478160      0.654104
  N       1.753533     -1.821944      0.257952
  C      -0.277808     -0.512058     -0.167107
  C      -0.886725      0.757294     -0.130532
  C       1.064548     -0.639658      0.234057
  C      -2.373435     -0.593255     -0.848591
  C       1.005661      1.649329      0.649128
  H      -1.219033     -2.373194     -0.746670
  H      -3.295576     -1.025531     -1.215356
  H       1.572775      2.511618      0.993169
  H       2.765901     -1.765763      0.366462
  H       1.402427     -2.610644     -0.261939
23
Coordinates from ORCA-job thiourea_adenine_opt_freq E -1015.170231820571
  S       6.102641     -1.785986      2.690109
  N       4.768331     -0.960511      0.511265
  N       4.062005     -0.051822      2.494106
  C       4.942304     -0.877505      1.890126
  H       4.428182     -0.121962      0.048517
  H       5.539609     -1.412088      0.037044
  H       4.085703      0.011057      3.499414
  H       3.261588      0.318582      1.971663
  N      -1.261254     -1.371868     -0.639591
  N      -2.196413      0.676357     -0.586401
  N      -0.252448      1.875214      0.263643
  N       1.677419      0.482942      0.663104
  N       1.744482     -1.816282      0.272301
  C      -0.284571     -0.511069     -0.163433
  C      -0.891359      0.759616     -0.141906
  C       1.056331     -0.635880      0.243014
  C      -2.375139     -0.594308     -0.860364
  C       0.996262      1.654513      0.646837
  H      -1.224306     -2.376243     -0.730159
  H      -3.295916     -1.027256     -1.229946
  H       1.559698      2.518356      0.993096
  H       2.757113     -1.765894      0.377315
  H       1.391177     -2.607312     -0.242909
23
Coordinates from ORCA-job thiourea_adenine_opt_freq E -1015.170252687917
  S       6.095235     -1.789228      2.693345
  N       4.775354     -0.958146      0.508912
  N       4.056364     -0.055806      2.491509
  C       4.939909     -0.879403      1.889044
  H       4.438446     -0.117774      0.047228
  H       5.555393     -1.400851      0.040495
  H       4.072054     -0.001798      3.497087
  H       3.258546      0.318913      1.970426
  N      -1.263184     -1.372460     -0.634866
  N      -2.197045      0.676539     -0.584810
  N      -0.251282      1.876376      0.260463
  N       1.678663      0.484090      0.658431
  N       1.744654     -1.815541      0.269517
  C      -0.285135     -0.510841     -0.161756
  C      -0.890977      0.760438     -0.142594
  C       1.056544     -0.635398      0.241201
  C      -2.376543     -0.594443     -0.855983
  C       0.997852      1.655556      0.642476
  H      -1.223712     -2.376887     -0.723453
  H      -3.298555     -1.027141     -1.222840
  H       1.560659      2.520192      0.987928
  H       2.755874     -1.768559      0.380713
  H       1.392329     -2.607175     -0.245627
23
Coordinates from ORCA-job thiourea_adenine_opt_freq E -1015.170266046435
  S       6.082353     -1.790975      2.705766
  N       4.774071     -0.965103      0.513611
  N       4.050478     -0.051877      2.490173
  C       4.932933     -0.881898      1.894871
  H       4.449612     -0.122181      0.047442
  H       5.559089     -1.409495      0.054899
  H       4.062028      0.004540      3.495715
  H       3.254224      0.316374      1.963032
  N      -1.263640     -1.373231     -0.630590
  N      -2.200714      0.674119     -0.572221
  N      -0.252550      1.876317      0.264715
  N       1.683681      0.488160      0.646929
  N       1.752847     -1.809939      0.251054
  C      -0.283917     -0.509958     -0.162371
  C      -0.891949      0.759975     -0.137514
  C       1.060713     -0.632536      0.231144
  C      -2.379110     -0.596547     -0.844680
  C       0.999243      1.657596      0.639078
  H      -1.219211     -2.376928     -0.724282
  H      -3.302819     -1.029867     -1.206599
  H       1.561263      2.522640      0.984867
  H       2.765193     -1.764732      0.360260
  H       1.397623     -2.603803     -0.258454
23
Coordinates from ORCA-job thiourea_adenine_opt_freq E -1015.170277201564
  S       6.076583     -1.788976      2.713173
  N       4.779278     -0.962587      0.514811
  N       4.048290     -0.048086      2.488559
  C       4.932037     -0.879868      1.896926
  H       4.450813     -0.121940      0.047266
  H       5.565197     -1.408385      0.058911
  H       4.054134      0.002618      3.494795
  H       3.251861      0.316851      1.959011
  N      -1.265360     -1.373105     -0.628458
  N      -2.201065      0.674709     -0.567275
  N      -0.250437      1.875334      0.266230
  N       1.686539      0.486164      0.642119
  N       1.752911     -1.811532      0.244666
  C      -0.283800     -0.510255     -0.163246
  C      -0.891148      0.759627     -0.135833
  C       1.061836     -0.633925      0.227162
  C      -2.380868     -0.595813     -0.839648
  C       1.002025      1.655762      0.637627
  H      -1.219090     -2.376423     -0.725164
  H      -3.305864     -1.028344     -1.199204
  H       1.565162      2.520070      0.983418
  H       2.764256     -1.766597      0.357277
  H       1.398149     -2.604647     -0.266279
23
Coordinates from ORCA-job thiourea_adenine_opt_freq E -1015.170291249663
  S       6.066776     -1.789176      2.718552
  N       4.776456     -0.960015      0.515859
  N       4.048177     -0.038979      2.488109
  C       4.928267     -0.876322      1.898330
  H       4.448272     -0.119860      0.047393
  H       5.560457     -1.410766      0.061530
  H       4.048261      0.002764      3.495223
  H       3.250815      0.322747      1.958224
  N      -1.264969     -1.373033     -0.627257
  N      -2.200261      0.674631     -0.560584
  N      -0.247350      1.873804      0.269334
  N       1.690419      0.483500      0.637340
  N       1.754674     -1.814390      0.237466
  C      -0.281870     -0.510785     -0.164564
  C      -0.889099      0.758687     -0.132989
  C       1.064821     -0.635866      0.223055
  C      -2.381040     -0.595604     -0.834365
  C       1.005988      1.653382      0.636791
  H      -1.216477     -2.375705     -0.729374
  H      -3.307071     -1.027531     -1.191921
  H       1.571405      2.516333      0.982199
  H       2.765801     -1.769970      0.351578
  H       1.398986     -2.607193     -0.273086
23
Coordinates from ORCA-job thiourea_adenine_opt_freq E -1015.170309371798
  S       6.061607     -1.791424      2.723759
  N       4.780021     -0.957620      0.516931
  N       4.050146     -0.032839      2.487623
  C       4.928082     -0.874777      1.899788
  H       4.454156     -0.117231      0.047429
  H       5.563746     -1.411610      0.065288
  H       4.041804     -0.003467      3.495494
  H       3.250761      0.323858      1.956674
  N      -1.266181     -1.372800     -0.626582
  N      -2.202004      0.674317     -0.555459
  N      -0.247414      1.873317      0.270578
  N       1.691510      0.482834      0.632575
  N       1.754945     -1.814918      0.233795
  C      -0.282193     -0.510687     -0.166064
  C      -0.889829      0.758291     -0.131334
  C       1.065241     -0.636109      0.219743
  C      -2.383148     -0.595801     -0.830259
  C       1.006861      1.652901      0.634341
  H      -1.216475     -2.374974     -0.732947
  H      -3.309749     -1.027780     -1.186203
  H       1.574413      2.514975      0.978381
  H       2.766401     -1.768652      0.347306
  H       1.398738     -2.609151     -0.274011
23
Coordinates from ORCA-job thiourea_adenine_opt_freq E -1015.170316742303
  S       6.053738     -1.801167      2.722814
  N       4.778009     -0.954944      0.517208
  N       4.055613     -0.026427      2.489230
  C       4.926298     -0.875224      1.899886
  H       4.458888     -0.111270      0.049030
  H       5.559323     -1.412621      0.065125
  H       4.041528     -0.008475      3.497724
  H       3.254098      0.329105      1.960373
  N      -1.265687     -1.373445     -0.626525
  N      -2.202957      0.672835     -0.553081
  N      -0.247985      1.873072      0.270216
  N       1.691798      0.483335      0.630197
  N       1.755955     -1.814442      0.233142
  C      -0.281783     -0.511063     -0.166924
  C      -0.890399      0.757564     -0.130731
  C       1.065885     -0.635700      0.218453
  C      -2.383546     -0.597269     -0.828653
  C       1.006985      1.653377      0.631836
  H      -1.215789     -2.375347     -0.735377
  H      -3.310047     -1.029849     -1.184063
  H       1.575201      2.515759      0.974021
  H       2.767782     -1.766784      0.343991
  H       1.398531     -2.610370     -0.271047
