23
Coordinates from ORCA-job urea_adenine_opt_freq E -692.254033268346
  O           5.79823723701849     -1.57395018348874      2.47879549280921
  N           4.78029714882474     -0.97278603990099      0.50010536472936
  N           4.12961293228981      0.00823492356971      2.50700367798193
  C           4.96873268016587     -0.88446121794005      1.89714322368555
  H           4.51908843039157     -0.10431889037580      0.04341903591861
  H           5.57000715359204     -1.42847113817421      0.05769762940338
  H           4.12323575232735     -0.02595604736671      3.51559065012684
  H           3.27687645793357      0.29866441225749      2.02618120969479
  N          -1.23759807051024     -1.38699723175989     -0.67841822828821
  N          -2.22898131966801      0.62735885173301     -0.50078532423802
  N          -0.31051878823041      1.83142653323366      0.40011700628992
  N           1.66332970593208      0.47521218374622      0.69803698758433
  N           1.79245840091741     -1.79369917815079      0.17483826716458
  C          -0.27936043786091     -0.52592989378441     -0.16463253321107
  C          -0.92098441682593      0.72314914714825     -0.06477319721627
  C           1.06972421724677     -0.63506489335850      0.22074682808625
  C          -2.37452732732746     -0.63000488614343     -0.84559580096621
  C           0.94853315920939      1.62419988552466      0.75857402887326
  H          -1.16508711908161     -2.38118266238256     -0.83450088738688
  H          -3.28743333036260     -1.06672236273028     -1.23005578668530
  H           1.49039096192036      2.48202109784722      1.15126396272722
  H           2.80507303822285     -1.71938351453662      0.28481562901806
  H           1.46033353387481     -2.56068789496721     -0.38872323610136
