23
Coordinates from ORCA-job urea_adenine_opt_freq E -692.164914952273
  O       4.826421     -2.204726      1.500893
  N       5.433974      0.014452      1.500893
  N       3.211653     -0.565706      1.500893
  C       4.516007     -1.015263      1.500493
  H       5.142922      0.986271      1.500593
  H       6.431618     -0.169929      1.500893
  H       2.431576     -1.214178      1.500993
  H       2.990569      0.424330      1.500793
  N      -1.199000     -1.399700      0.000000
  N      -2.075200      0.649900      0.000000
  N       0.033700      1.859400     -0.000100
  N       1.999800      0.415000      0.000000
  N       1.824100     -1.976000      0.000000
  C      -0.135900     -0.542100      0.000100
  C      -0.705600      0.724100      0.000100
  C       1.235900     -0.700400      0.000000
  C      -2.338600     -0.639400      0.000000
  C       1.360700      1.609200      0.000000
  H      -1.156600     -2.410300     -0.000200
  H      -3.322500     -1.086400     -0.000100
  H       2.003400      2.483100     -0.000100
  H       2.832200     -2.052800      0.000300
  H       1.250300     -2.808200      0.000400
23
Coordinates from ORCA-job urea_adenine_opt_freq E -692.186228069720
  O       4.864059     -2.207742      1.566393
  N       5.510214     -0.001389      1.559447
  N       3.273183     -0.562199      1.515085
  C       4.568486     -1.009923      1.554160
  H       5.249332      0.972883      1.542149
  H       6.494736     -0.219320      1.578726
  H       2.494286     -1.201411      1.479182
  H       3.043022      0.411149      1.476515
  N      -1.244522     -1.416942      0.001748
  N      -2.118429      0.648093      0.015897
  N      -0.005977      1.856454     -0.015803
  N       1.965899      0.422846     -0.041953
  N       1.813767     -1.946634     -0.040921
  C      -0.172666     -0.550785     -0.012197
  C      -0.744539      0.727408     -0.003373
  C       1.212011     -0.697767     -0.031163
  C      -2.379417     -0.641793      0.018368
  C       1.311475      1.610217     -0.038395
  H      -1.212121     -2.426390      0.000120
  H      -3.366213     -1.083964      0.031635
  H       1.950088      2.489542     -0.054174
  H       2.823891     -2.003741     -0.053173
  H       1.260876     -2.787939     -0.041428
23
Coordinates from ORCA-job urea_adenine_opt_freq E -692.201181993022
  O       4.893287     -2.211312      1.645860
  N       5.585935     -0.025305      1.623557
  N       3.335035     -0.551253      1.520567
  C       4.617563     -1.005778      1.608359
  H       5.362367      0.956442      1.583209
  H       6.556562     -0.288244      1.674702
  H       2.553291     -1.183021      1.452800
  H       3.095636      0.419093      1.434883
  N      -1.288851     -1.432656      0.006856
  N      -2.161522      0.641231      0.037422
  N      -0.046840      1.851378     -0.031599
  N       1.925514      0.431704     -0.087191
  N       1.807695     -1.914186     -0.089728
  C      -0.212216     -0.560305     -0.023922
  C      -0.784575      0.725404     -0.004851
  C       1.183255     -0.693852     -0.066088
  C      -2.418291     -0.646669      0.043037
  C       1.261714      1.614084     -0.077778
  H      -1.266823     -2.441573      0.004044
  H      -3.406987     -1.085401      0.072374
  H       1.897843      2.496625     -0.110572
  H       2.818272     -1.943033     -0.117438
  H       1.283575     -2.772723     -0.091659
23
Coordinates from ORCA-job urea_adenine_opt_freq E -692.215979982537
  O       4.939392     -2.220034      1.752076
  N       5.680278     -0.057821      1.706774
  N       3.418034     -0.538331      1.527284
  C       4.687024     -1.009879      1.676228
  H       5.497204      0.931252      1.638562
  H       6.633646     -0.368998      1.803661
  H       2.634318     -1.164676      1.424077
  H       3.176680      0.427866      1.373043
  N      -1.336565     -1.442052      0.014804
  N      -2.216496      0.629636      0.063126
  N      -0.108111      1.851473     -0.055651
  N       1.865218      0.449665     -0.146308
  N       1.791472     -1.881833     -0.153611
  C      -0.263755     -0.563782     -0.039732
  C      -0.839307      0.721310     -0.009313
  C       1.136444     -0.681990     -0.113036
  C      -2.464984     -0.656630      0.075095
  C       1.197401      1.629661     -0.129121
  H      -1.319148     -2.450950      0.012805
  H      -3.452157     -1.097999      0.126531
  H       1.830987      2.513562     -0.182358
  H       2.801537     -1.877197     -0.201049
  H       1.302327     -2.761602     -0.157042
23
Coordinates from ORCA-job urea_adenine_opt_freq E -692.227929253647
  O       4.990627     -2.228966      1.890253
  N       5.787293     -0.093776      1.795734
  N       3.518914     -0.523403      1.529848
  C       4.771189     -1.019946      1.749025
  H       5.645289      0.898331      1.693311
  H       6.716617     -0.446865      1.957470
  H       2.736464     -1.148024      1.406352
  H       3.291067      0.429529      1.283928
  N      -1.384975     -1.448580      0.022741
  N      -2.277727      0.617191      0.086890
  N      -0.183448      1.855300     -0.084134
  N       1.792366      0.471173     -0.208887
  N       1.762766     -1.849113     -0.224063
  C      -0.321119     -0.563263     -0.058386
  C      -0.902605      0.717811     -0.018005
  C       1.078165     -0.665725     -0.165892
  C      -2.516529     -0.670452      0.107988
  C       1.122303      1.649359     -0.180484
  H      -1.366281     -2.457374      0.024169
  H      -3.499334     -1.118353      0.184603
  H       1.752243      2.534050     -0.248133
  H       2.769331     -1.811147     -0.308168
  H       1.308823     -2.747107     -0.229316
23
Coordinates from ORCA-job urea_adenine_opt_freq E -692.234811481802
  O       5.037007     -2.232091      2.013557
  N       5.881507     -0.120004      1.854811
  N       3.612286     -0.512663      1.534188
  C       4.848678     -1.029259      1.813872
  H       5.765349      0.871699      1.722126
  H       6.792998     -0.492456      2.068667
  H       2.833135     -1.142728      1.411849
  H       3.407404      0.421177      1.201695
  N      -1.424759     -1.451422      0.021338
  N      -2.330511      0.608288      0.093167
  N      -0.249516      1.860633     -0.102234
  N       1.731293      0.489844     -0.249306
  N       1.727156     -1.827649     -0.267575
  C      -0.369026     -0.560068     -0.074667
  C      -0.957668      0.716884     -0.028602
  C       1.027381     -0.651903     -0.201638
  C      -2.561297     -0.681961      0.119863
  C       1.057990      1.665240     -0.209777
  H      -1.400438     -2.460143      0.026501
  H      -3.539534     -1.136655      0.211109
  H       1.683413      2.552360     -0.278513
  H       2.728130     -1.772293     -0.393746
  H       1.290461     -2.734178     -0.279840
23
Coordinates from ORCA-job urea_adenine_opt_freq E -692.238275883138
  O       5.071264     -2.229710      2.104529
  N       5.952633     -0.136405      1.886813
  N       3.684018     -0.506692      1.534136
  C       4.908415     -1.034555      1.854726
  H       5.848038      0.853848      1.737926
  H       6.852359     -0.510288      2.142538
  H       2.908961     -1.144358      1.425754
  H       3.502812      0.406533      1.138473
  N      -1.455111     -1.453221      0.015313
  N      -2.369893      0.602948      0.090755
  N      -0.296255      1.864759     -0.110638
  N       1.689545      0.502553     -0.270477
  N       1.696668     -1.815303     -0.285577
  C      -0.403511     -0.557129     -0.085553
  C      -0.998300      0.717816     -0.036694
  C       0.991841     -0.642838     -0.219783
  C      -2.595158     -0.689083      0.118954
  C       1.012138      1.674341     -0.222871
  H      -1.425107     -2.461717      0.022974
  H      -3.570644     -1.148279      0.215567
  H       1.633041      2.564851     -0.288177
  H       2.691784     -1.755339     -0.449086
  H       1.261902     -2.722080     -0.312758
23
Coordinates from ORCA-job urea_adenine_opt_freq E -692.241134825791
  O       5.112282     -2.221334      2.214799
  N       6.040542     -0.157828      1.905666
  N       3.768968     -0.499874      1.540978
  C       4.979594     -1.037685      1.906414
  H       5.943802      0.831726      1.745939
  H       6.928829     -0.524895      2.207435
  H       2.998107     -1.146621      1.463070
  H       3.621322      0.381508      1.067187
  N      -1.491895     -1.455242      0.003375
  N      -2.418143      0.595904      0.078020
  N      -0.351003      1.869380     -0.118106
  N       1.641813      0.517543     -0.284169
  N       1.660532     -1.802371     -0.290036
  C      -0.444573     -0.553138     -0.097238
  C      -1.047430      0.719004     -0.047775
  C       0.950749     -0.631957     -0.231912
  C      -2.636273     -0.697570      0.106298
  C       0.958958      1.684461     -0.230007
  H      -1.453646     -2.463409      0.015262
  H      -3.609114     -1.162258      0.202799
  H       1.573729      2.579727     -0.288913
  H       2.645264     -1.740242     -0.507095
  H       1.219026     -2.704176     -0.355147
23
Coordinates from ORCA-job urea_adenine_opt_freq E -692.242761724479
  O       5.150305     -2.205416      2.316698
  N       6.121188     -0.177714      1.907674
  N       3.844153     -0.494867      1.547939
  C       5.044636     -1.037723      1.944825
  H       6.024852      0.813516      1.757679
  H       6.994778     -0.531484      2.262867
  H       3.074517     -1.145804      1.506388
  H       3.726240      0.348940      1.004351
  N      -1.525739     -1.457593     -0.007931
  N      -2.460070      0.590386      0.064143
  N      -0.396290      1.871959     -0.124002
  N       1.601184      0.527605     -0.290318
  N       1.629445     -1.793901     -0.283610
  C      -0.480936     -0.550801     -0.106271
  C      -1.089550      0.719631     -0.057756
  C       0.915235     -0.624460     -0.237899
  C      -2.672834     -0.703761      0.092206
  C       0.914543      1.691130     -0.233192
  H      -1.481240     -2.465347      0.009857
  H      -3.644233     -1.172034      0.186570
  H       1.524715      2.589938     -0.287188
  H       2.600481     -1.727971     -0.555692
  H       1.176062     -2.683576     -0.410495
23
Coordinates from ORCA-job urea_adenine_opt_freq E -692.243768231299
  O       5.191580     -2.186765      2.402010
  N       6.195349     -0.197268      1.889214
  N       3.908353     -0.489458      1.566309
  C       5.103087     -1.033749      1.983099
  H       6.091724      0.798946      1.776072
  H       7.053257     -0.536279      2.294925
  H       3.138502     -1.142252      1.557425
  H       3.816505      0.313390      0.959566
  N      -1.555551     -1.459276     -0.018240
  N      -2.496603      0.585907      0.045107
  N      -0.434870      1.873147     -0.132894
  N       1.566205      0.534147     -0.289612
  N       1.601739     -1.791698     -0.266923
  C      -0.512898     -0.549296     -0.114219
  C      -1.125871      0.719432     -0.070354
  C       0.883924     -0.619469     -0.239318
  C      -2.705048     -0.708521      0.075491
  C       0.877319      1.695899     -0.234455
  H      -1.505783     -2.466569      0.010313
  H      -3.675483     -1.179452      0.167116
  H       1.484641      2.596836     -0.283596
  H       2.556980     -1.717976     -0.590510
  H       1.134382     -2.659024     -0.479679
23
Coordinates from ORCA-job urea_adenine_opt_freq E -692.244259005233
  O       5.232415     -2.168457      2.466274
  N       6.255342     -0.211673      1.861978
  N       3.958784     -0.486711      1.583551
  C       5.152914     -1.032185      2.002512
  H       6.134209      0.789055      1.814890
  H       7.089122     -0.535255      2.328325
  H       3.186931     -1.137078      1.598619
  H       3.885610      0.278734      0.928688
  N      -1.579366     -1.460318     -0.022757
  N      -2.523807      0.584128      0.031146
  N      -0.462569      1.872887     -0.144637
  N       1.539460      0.535618     -0.291250
  N       1.579054     -1.794584     -0.256047
  C      -0.537932     -0.549055     -0.120668
  C      -1.152826      0.719216     -0.082379
  C       0.858886     -0.617591     -0.243221
  C      -2.729900     -0.710366      0.067120
  C       0.850365      1.697405     -0.239368
  H      -1.526561     -2.466962      0.020742
  H      -3.699828     -1.182155      0.160282
  H       1.457267      2.598676     -0.285396
  H       2.520855     -1.708472     -0.618414
  H       1.103016     -2.634206     -0.553145
23
Coordinates from ORCA-job urea_adenine_opt_freq E -692.244409842848
  O       5.246757     -2.165454      2.475600
  N       6.268701     -0.215202      1.838372
  N       3.965180     -0.483266      1.603313
  C       5.162507     -1.030833      2.009767
  H       6.140803      0.787140      1.832753
  H       7.097848     -0.540066      2.314801
  H       3.190430     -1.130434      1.620733
  H       3.897557      0.272856      0.936814
  N      -1.583825     -1.460113     -0.025007
  N      -2.529578      0.583985      0.024385
  N      -0.468408      1.872773     -0.150943
  N       1.533724      0.535605     -0.290176
  N       1.573673     -1.797737     -0.256964
  C      -0.543177     -0.548839     -0.123310
  C      -1.158470      0.719198     -0.088281
  C       0.853096     -0.616788     -0.245350
  C      -2.734883     -0.710576      0.063478
  C       0.845071      1.698158     -0.241131
  H      -1.529949     -2.466336      0.027745
  H      -3.704554     -1.182661      0.157711
  H       1.452816      2.598835     -0.284992
  H       2.517472     -1.708349     -0.616066
  H       1.098648     -2.631246     -0.576409
23
Coordinates from ORCA-job urea_adenine_opt_freq E -692.244576040632
  O       5.256158     -2.167714      2.466523
  N       6.264318     -0.212837      1.807895
  N       3.954164     -0.480569      1.631904
  C       5.158637     -1.032497      2.006799
  H       6.130651      0.789262      1.848818
  H       7.095946     -0.546222      2.276776
  H       3.173237     -1.120022      1.645198
  H       3.887105      0.276346      0.966160
  N      -1.582070     -1.459999     -0.027039
  N      -2.526956      0.585101      0.019212
  N      -0.464453      1.871812     -0.156497
  N       1.536655      0.533120     -0.288465
  N       1.574247     -1.800015     -0.264738
  C      -0.541289     -0.549618     -0.124909
  C      -1.155481      0.719122     -0.092968
  C       0.854494     -0.617218     -0.247856
  C      -2.732866     -0.709418      0.061140
  C       0.849059      1.697144     -0.242174
  H      -1.528601     -2.465598      0.037352
  H      -3.702766     -1.180741      0.156748
  H       1.458965      2.596339     -0.284263
  H       2.526496     -1.709128     -0.601104
  H       1.105789     -2.635999     -0.587668
23
Coordinates from ORCA-job urea_adenine_opt_freq E -692.244709090306
  O       5.262748     -2.173470      2.445447
  N       6.249520     -0.206892      1.785126
  N       3.937649     -0.479974      1.657540
  C       5.149663     -1.034264      2.001205
  H       6.114266      0.793747      1.849804
  H       7.091909     -0.548091      2.228617
  H       3.152360     -1.114846      1.667589
  H       3.865661      0.283857      0.999592
  N      -1.577972     -1.459728     -0.030845
  N      -2.520340      0.586593      0.012559
  N      -0.455627      1.870600     -0.157811
  N       1.544752      0.529867     -0.283772
  N       1.577348     -1.801182     -0.264180
  C      -0.535865     -0.550771     -0.124832
  C      -1.148299      0.718789     -0.095620
  C       0.860239     -0.619341     -0.245240
  C      -2.728119     -0.707634      0.054757
  C       0.857761      1.694766     -0.239334
  H      -1.525819     -2.464865      0.041436
  H      -3.698828     -1.177679      0.148218
  H       1.469258      2.592903     -0.280435
  H       2.535104     -1.710878     -0.581305
  H       1.114071     -2.640858     -0.581675
23
Coordinates from ORCA-job urea_adenine_opt_freq E -692.244761422986
  O       5.275068     -2.180633      2.416365
  N       6.231784     -0.198783      1.758225
  N       3.920601     -0.480738      1.688715
  C       5.142750     -1.036778      1.991172
  H       6.093669      0.799271      1.846403
  H       7.088286     -0.544980      2.168829
  H       3.132395     -1.112505      1.701443
  H       3.838977      0.289716      1.039228
  N      -1.574273     -1.458771     -0.037796
  N      -2.513084      0.589058      0.001379
  N      -0.445391      1.869727     -0.157830
  N       1.554241      0.526030     -0.276185
  N       1.580593     -1.803468     -0.254793
  C      -0.529990     -0.551575     -0.124639
  C      -1.140273      0.718871     -0.099079
  C       0.866942     -0.622630     -0.238980
  C      -2.723549     -0.704728      0.042518
  C       0.867852      1.691588     -0.233735
  H      -1.523762     -2.463362      0.043082
  H      -3.695536     -1.173126      0.130606
  H       1.480797      2.588875     -0.273139
  H       2.542689     -1.714799     -0.556722
  H       1.120653     -2.645610     -0.568224
23
Coordinates from ORCA-job urea_adenine_opt_freq E -692.244848591988
  O       5.289831     -2.188345      2.382496
  N       6.213676     -0.190355      1.729930
  N       3.904809     -0.482312      1.724325
  C       5.138122     -1.038618      1.980544
  H       6.073758      0.805394      1.834947
  H       7.086753     -0.538479      2.101158
  H       3.116764     -1.114506      1.746139
  H       3.808237      0.292223      1.081343
  N      -1.571253     -1.457286     -0.048017
  N      -2.506450      0.592110     -0.013254
  N      -0.435681      1.869637     -0.156898
  N       1.563174      0.522572     -0.265829
  N       1.584247     -1.806397     -0.237183
  C      -0.524465     -0.551580     -0.124864
  C      -1.132809      0.719646     -0.103428
  C       0.873568     -0.626048     -0.229657
  C      -2.719653     -0.701262      0.025366
  C       0.877465      1.688551     -0.226058
  H      -1.522373     -2.461331      0.040530
  H      -3.693087     -1.168088      0.105473
  H       1.491560      2.585305     -0.262661
  H       2.549447     -1.720471     -0.528962
  H       1.125799     -2.649709     -0.548596
23
Coordinates from ORCA-job urea_adenine_opt_freq E -692.245001407554
  O       5.318429     -2.200049      2.320260
  N       6.181800     -0.175678      1.673486
  N       3.881566     -0.487223      1.795913
  C       5.133479     -1.040816      1.960943
  H       6.039692      0.816049      1.804520
  H       7.082540     -0.521901      1.971485
  H       3.098906     -1.125334      1.843193
  H       3.750552      0.286980      1.158026
  N      -1.566509     -1.454013     -0.068989
  N      -2.496105      0.598066     -0.045206
  N      -0.420091      1.870581     -0.155697
  N       1.577078      0.517439     -0.242364
  N       1.590492     -1.811967     -0.196825
  C      -0.515564     -0.550372     -0.125741
  C      -1.120992      0.722072     -0.113198
  C       0.884255     -0.631117     -0.209172
  C      -2.713559     -0.694665     -0.011456
  C       0.893088      1.684221     -0.209636
  H      -1.520498     -2.456908      0.033330
  H      -3.689475     -1.158974      0.051498
  H       1.509022      2.580178     -0.240189
  H       2.560075     -1.731470     -0.475106
  H       1.133261     -2.654449     -0.512230
23
Coordinates from ORCA-job urea_adenine_opt_freq E -692.245187780599
  O       5.344221     -2.209271      2.257518
  N       6.145971     -0.162156      1.609964
  N       3.862364     -0.494740      1.876794
  C       5.128561     -1.042023      1.941612
  H       6.003196      0.827019      1.755854
  H       7.071402     -0.501310      1.828413
  H       3.093311     -1.146304      1.957986
  H       3.685409      0.270619      1.238227
  N      -1.560066     -1.450108     -0.092066
  N      -2.485530      0.604167     -0.083302
  N      -0.405188      1.872781     -0.155901
  N       1.590141      0.514332     -0.211529
  N       1.597645     -1.816611     -0.148369
  C      -0.505887     -0.547789     -0.126659
  C      -1.109181      0.725566     -0.125662
  C       0.895185     -0.634031     -0.183774
  C      -2.706117     -0.688079     -0.054115
  C       0.908278      1.682018     -0.189819
  H      -1.516948     -2.451810      0.022751
  H      -3.684069     -1.150421     -0.010772
  H       1.525729      2.577324     -0.212743
  H       2.571575     -1.742188     -0.413670
  H       1.141437     -2.656334     -0.473894
23
Coordinates from ORCA-job urea_adenine_opt_freq E -692.245445820592
  O       5.365832     -2.215861      2.191532
  N       6.095566     -0.150625      1.522964
  N       3.845307     -0.504669      1.981443
  C       5.118688     -1.042622      1.920288
  H       5.953238      0.837903      1.671950
  H       7.042349     -0.478064      1.645226
  H       3.104692     -1.181173      2.110774
  H       3.599584      0.237593      1.335975
  N      -1.548310     -1.445384     -0.119059
  N      -2.471587      0.610350     -0.135391
  N      -0.388290      1.876661     -0.158989
  N       1.604974      0.514595     -0.164805
  N       1.608323     -1.818771     -0.085764
  C      -0.492286     -0.543434     -0.127254
  C      -1.094326      0.730483     -0.143576
  C       0.909329     -0.633389     -0.148279
  C      -2.693848     -0.681613     -0.109644
  C       0.925547      1.683309     -0.162120
  H      -1.508448     -2.445736      0.008276
  H      -3.673210     -1.142740     -0.091042
  H       1.544100      2.578110     -0.173861
  H       2.588353     -1.750530     -0.331197
  H       1.155864     -2.653742     -0.430604
23
Coordinates from ORCA-job urea_adenine_opt_freq E -692.245657280622
  O       5.372198     -2.217038      2.162597
  N       6.056904     -0.149874      1.453368
  N       3.838136     -0.508368      2.054543
  C       5.108100     -1.042989      1.909651
  H       5.917110      0.840281      1.595212
  H       7.011496     -0.472091      1.515959
  H       3.126303     -1.207424      2.220077
  H       3.538442      0.210624      1.403057
  N      -1.537199     -1.442809     -0.134876
  N      -2.462051      0.612230     -0.175625
  N      -0.379113      1.879671     -0.165347
  N       1.613543      0.519132     -0.123514
  N       1.617035     -1.815964     -0.045625
  C      -0.482189     -0.540070     -0.127301
  C      -1.084694      0.733500     -0.159229
  C       0.918987     -0.628377     -0.121135
  C      -2.683369     -0.679866     -0.148859
  C       0.934875      1.688331     -0.139982
  H      -1.498862     -2.442665     -0.003076
  H      -3.662652     -1.141564     -0.145990
  H       1.553403      2.583023     -0.141812
  H       2.603194     -1.749062     -0.267296
  H       1.171843     -2.647979     -0.407953
23
Coordinates from ORCA-job urea_adenine_opt_freq E -692.245875987955
  O       5.379273     -2.212340      2.138672
  N       6.000093     -0.147068      1.364758
  N       3.829679     -0.513442      2.130265
  C       5.090446     -1.042153      1.896586
  H       5.862051      0.843610      1.506768
  H       6.958850     -0.464050      1.369152
  H       3.148102     -1.231653      2.338757
  H       3.473979      0.179248      1.476146
  N      -1.522585     -1.439605     -0.150231
  N      -2.445722      0.615612     -0.220437
  N      -0.362362      1.881433     -0.171284
  N       1.627113      0.521220     -0.071616
  N       1.626570     -1.814948     -0.007513
  C      -0.468153     -0.537971     -0.126037
  C      -1.068660      0.736150     -0.176037
  C       0.932120     -0.624628     -0.089838
  C      -2.668073     -0.676312     -0.191687
  C       0.950368      1.691893     -0.110636
  H      -1.487965     -2.439319     -0.016263
  H      -3.647576     -1.137307     -0.205327
  H       1.570260      2.585289     -0.099123
  H       2.620663     -1.748469     -0.189809
  H       1.192968     -2.644538     -0.388423
23
Coordinates from ORCA-job urea_adenine_opt_freq E -692.246071233113
  O       5.391211     -2.198514      2.123829
  N       5.917268     -0.147112      1.247891
  N       3.822300     -0.517858      2.208097
  C       5.066675     -1.038774      1.879697
  H       5.775831      0.844987      1.376532
  H       6.877220     -0.455405      1.188561
  H       3.180693     -1.251774      2.481796
  H       3.400495      0.141360      1.555841
  N      -1.503472     -1.435254     -0.171544
  N      -2.420292      0.621241     -0.276851
  N      -0.336527      1.882587     -0.170646
  N       1.645779      0.520764      0.002310
  N       1.637994     -1.815180      0.042399
  C      -0.448989     -0.536682     -0.122513
  C      -1.044602      0.738975     -0.193553
  C       0.949719     -0.622743     -0.045290
  C      -2.646090     -0.670216     -0.249642
  C       0.972462      1.693577     -0.063621
  H      -1.475008     -2.436078     -0.044788
  H      -3.625901     -1.129107     -0.287594
  H       1.594577      2.584709     -0.032003
  H       2.640183     -1.749672     -0.085216
  H       1.219915     -2.643181     -0.356849
23
Coordinates from ORCA-job urea_adenine_opt_freq E -692.246316626514
  O       5.409980     -2.177392      2.140632
  N       5.860039     -0.159617      1.149934
  N       3.825377     -0.511643      2.242741
  C       5.056280     -1.033259      1.868391
  H       5.715353      0.834945      1.254517
  H       6.819335     -0.464001      1.062778
  H       3.214009     -1.243551      2.582133
  H       3.363100      0.129352      1.601907
  N      -1.493772     -1.432849     -0.193374
  N      -2.402847      0.625274     -0.323135
  N      -0.320237      1.881743     -0.159190
  N       1.654124      0.517395      0.073009
  N       1.640761     -1.816567      0.083551
  C      -0.439331     -0.537843     -0.119046
  C      -1.029624      0.739555     -0.203623
  C       0.957482     -0.624044     -0.004297
  C      -2.632412     -0.665784     -0.303517
  C       0.983714      1.692079     -0.011998
  H      -1.470133     -2.436218     -0.088177
  H      -3.611953     -1.122410     -0.366093
  H       1.607453      2.580952      0.041217
  H       2.647751     -1.750626      0.005708
  H       1.236990     -2.644842     -0.327223
23
Coordinates from ORCA-job urea_adenine_opt_freq E -692.246762910324
  O       5.451921     -2.131893      2.155274
  N       5.737830     -0.178972      0.987587
  N       3.831930     -0.502849      2.298279
  C       5.036045     -1.019820      1.844016
  H       5.579732      0.816835      1.055194
  H       6.694628     -0.468519      0.840714
  H       3.269043     -1.211823      2.751163
  H       3.308937      0.104084      1.670517
  N      -1.472435     -1.426935     -0.238397
  N      -2.362715      0.636775     -0.395853
  N      -0.283899      1.880663     -0.126850
  N       1.671613      0.504306      0.185985
  N       1.644912     -1.827670      0.164103
  C      -0.417441     -0.539539     -0.112926
  C      -0.996118      0.741868     -0.213538
  C       0.973735     -0.633754      0.065455
  C      -2.600482     -0.653114     -0.397654
  C       1.009575      1.683301      0.079557
  H      -1.456837     -2.433198     -0.165112
  H      -3.578557     -1.103751     -0.507580
  H       1.636001      2.567417      0.169838
  H       2.654555     -1.767351      0.159406
  H       1.259469     -2.655408     -0.262333
23
Coordinates from ORCA-job urea_adenine_opt_freq E -692.247329760563
  O       5.518075     -2.065708      2.213613
  N       5.671960     -0.228319      0.849591
  N       3.860179     -0.473845      2.295036
  C       5.049370     -0.999408      1.826153
  H       5.496511      0.766754      0.845343
  H       6.627742     -0.508040      0.679829
  H       3.341374     -1.129665      2.862590
  H       3.305654      0.130771      1.701559
  N      -1.467909     -1.423017     -0.298576
  N      -2.339273      0.647328     -0.462564
  N      -0.272677      1.876881     -0.067693
  N       1.663817      0.485011      0.304718
  N       1.626938     -1.843215      0.253587
  C      -0.415171     -0.543380     -0.109524
  C      -0.983714      0.741775     -0.212212
  C       0.966729     -0.650291      0.137752
  C      -2.582377     -0.641083     -0.503302
  C       1.008355      1.667393      0.192206
  H      -1.453746     -2.431671     -0.281288
  H      -3.555198     -1.085077     -0.671296
  H       1.633374      2.547085      0.328178
  H       2.635823     -1.787315      0.304111
  H       1.255602     -2.672313     -0.180968
23
Coordinates from ORCA-job urea_adenine_opt_freq E -692.247985906750
  O       5.590410     -1.993249      2.226599
  N       5.541648     -0.271249      0.713280
  N       3.883249     -0.457617      2.334091
  C       5.044822     -0.977947      1.801795
  H       5.320939      0.711931      0.639235
  H       6.487574     -0.528535      0.469820
  H       3.436116     -1.063505      3.010008
  H       3.268590      0.104406      1.747468
  N      -1.439777     -1.414428     -0.360441
  N      -2.294122      0.661748     -0.533879
  N      -0.246156      1.877537     -0.017194
  N       1.667872      0.469643      0.413961
  N       1.620269     -1.858219      0.358680
  C      -0.393401     -0.541400     -0.106682
  C      -0.952758      0.746523     -0.215864
  C       0.973909     -0.663169      0.209684
  C      -2.539235     -0.624817     -0.609272
  C       1.021528      1.655398      0.293938
  H      -1.425913     -2.423169     -0.372290
  H      -3.503264     -1.062360     -0.835127
  H       1.642219      2.531134      0.471373
  H       2.625963     -1.811740      0.456074
  H       1.260958     -2.686266     -0.088415
23
Coordinates from ORCA-job urea_adenine_opt_freq E -692.248847672911
  O       5.724997     -1.857078      2.259879
  N       5.379169     -0.379454      0.540364
  N       3.939885     -0.416706      2.362550
  C       5.064570     -0.941890      1.770492
  H       5.081430      0.568358      0.353753
  H       6.307551     -0.609032      0.215011
  H       3.610399     -0.923462      3.174658
  H       3.247986      0.083199      1.793940
  N      -1.398602     -1.402418     -0.459446
  N      -2.240256      0.678954     -0.633553
  N      -0.237533      1.878612      0.068437
  N       1.645353      0.454006      0.574755
  N       1.595336     -1.873191      0.512432
  C      -0.372912     -0.535990     -0.105909
  C      -0.926079      0.753595     -0.216734
  C       0.964300     -0.675262      0.311083
  C      -2.476657     -0.604774     -0.766234
  C       1.008757      1.642734      0.452545
  H      -1.376283     -2.409678     -0.513225
  H      -3.419525     -1.034929     -1.079243
  H       1.613100      2.514065      0.696932
  H       2.594772     -1.833825      0.661509
  H       1.261682     -2.695182      0.032849
23
Coordinates from ORCA-job urea_adenine_opt_freq E -692.249421134684
  O       5.849902     -1.717463      2.281920
  N       5.264050     -0.502490      0.424400
  N       3.996565     -0.369104      2.364754
  C       5.094963     -0.907032      1.744937
  H       4.900942      0.400898      0.148053
  H       6.177625     -0.715819      0.047796
  H       3.761340     -0.767866      3.261320
  H       3.258693      0.095322      1.825647
  N      -1.362694     -1.391940     -0.544315
  N      -2.202140      0.691719     -0.706342
  N      -0.248925      1.875396      0.147425
  N       1.609018      0.440659      0.709368
  N       1.563537     -1.884896      0.622657
  C      -0.362495     -0.532131     -0.106872
  C      -0.914723      0.757992     -0.211678
  C       0.943527     -0.683613      0.388464
  C      -2.423706     -0.588369     -0.890713
  C       0.977677      1.631058      0.590267
  H      -1.329992     -2.396883     -0.628382
  H      -3.343615     -1.011462     -1.274019
  H       1.561717      2.497882      0.892781
  H       2.558249     -1.844388      0.815833
  H       1.261929     -2.696818      0.103543
23
Coordinates from ORCA-job urea_adenine_opt_freq E -692.249739232085
  O       5.922223     -1.612801      2.261915
  N       5.127203     -0.602203      0.358690
  N       4.022045     -0.333030      2.386001
  C       5.089024     -0.885043      1.724773
  H       4.703166      0.259815      0.038745
  H       6.022828     -0.805479     -0.064558
  H       3.883757     -0.662103      3.335044
  H       3.240795      0.082449      1.862097
  N      -1.320675     -1.386260     -0.587137
  N      -2.161176      0.697022     -0.753784
  N      -0.243286      1.873661      0.183362
  N       1.596559      0.440312      0.804514
  N       1.567706     -1.879739      0.662871
  C      -0.339690     -0.529623     -0.106411
  C      -0.891845      0.760785     -0.213370
  C       0.946803     -0.679225      0.435249
  C      -2.371538     -0.581427     -0.961109
  C       0.965300      1.631008      0.673046
  H      -1.280199     -2.389343     -0.687282
  H      -3.276770     -1.001908     -1.380395
  H       1.533603      2.495398      1.009395
  H       2.552989     -1.828668      0.913009
  H       1.302617     -2.682948      0.112177
23
Coordinates from ORCA-job urea_adenine_opt_freq E -692.249879861351
  O       5.977020     -1.564568      2.322632
  N       5.131883     -0.718196      0.358510
  N       4.066084     -0.288751      2.393924
  C       5.126023     -0.890063      1.753455
  H       4.677221      0.103584     -0.022941
  H       6.031031     -0.931629     -0.053749
  H       3.923392     -0.541859      3.349382
  H       3.289430      0.120319      1.887758
  N      -1.302804     -1.385943     -0.609729
  N      -2.181777      0.684960     -0.752540
  N      -0.288854      1.877624      0.206443
  N       1.548215      0.471747      0.857668
  N       1.567481     -1.869308      0.594081
  C      -0.342343     -0.523673     -0.111130
  C      -0.914202      0.764419     -0.203408
  C       0.938346     -0.650631      0.436044
  C      -2.369320     -0.594512     -0.970734
  C       0.912149      1.660565      0.723125
  H      -1.267954     -2.392379     -0.670025
  H      -3.268829     -1.022811     -1.394094
  H       1.462392      2.527109      1.078678
  H       2.541094     -1.832690      0.869484
  H       1.335762     -2.622663     -0.035988
23
Coordinates from ORCA-job urea_adenine_opt_freq E -692.250442717118
  O       6.009552     -1.519168      2.289769
  N       5.067577     -0.743109      0.342365
  N       4.081654     -0.275671      2.397251
  C       5.123909     -0.874806      1.735832
  H       4.602470      0.074084     -0.034026
  H       5.951699     -0.954218     -0.100825
  H       3.989957     -0.497664      3.375836
  H       3.281521      0.107533      1.894220
  N      -1.294269     -1.382078     -0.631660
  N      -2.161505      0.692928     -0.777661
  N      -0.280165      1.874526      0.222895
  N       1.549672      0.454972      0.883314
  N       1.565598     -1.871647      0.640827
  C      -0.337598     -0.524454     -0.111479
  C      -0.903672      0.764153     -0.207374
  C       0.937886     -0.662503      0.454910
  C      -2.350755     -0.584395     -1.007856
  C       0.913380      1.643020      0.751468
  H      -1.258153     -2.387746     -0.704842
  H      -3.243580     -1.007657     -1.450353
  H       1.459880      2.505780      1.124248
  H       2.541934     -1.822595      0.908653
  H       1.344446     -2.628632      0.011334
23
Coordinates from ORCA-job urea_adenine_opt_freq E -692.250614474745
  O       6.025915     -1.490628      2.278663
  N       5.018577     -0.776994      0.339965
  N       4.094778     -0.254157      2.405155
  C       5.120164     -0.866930      1.733555
  H       4.545291      0.031936     -0.044321
  H       5.885878     -1.008219     -0.126440
  H       4.032823     -0.437896      3.396392
  H       3.283541      0.112882      1.906114
  N      -1.280523     -1.379995     -0.646657
  N      -2.151072      0.693386     -0.786582
  N      -0.281172      1.873898      0.238210
  N       1.546574      0.452235      0.906075
  N       1.575475     -1.869590      0.639057
  C      -0.331325     -0.523727     -0.110463
  C      -0.899100      0.763479     -0.204530
  C       0.943521     -0.663173      0.462213
  C      -2.336250     -0.582854     -1.026058
  C       0.907541      1.638963      0.775791
  H      -1.245334     -2.385976     -0.716982
  H      -3.224298     -1.005802     -1.478343
  H       1.448984      2.499738      1.161169
  H       2.553218     -1.818639      0.903660
  H       1.358235     -2.621284      0.001200
23
Coordinates from ORCA-job urea_adenine_opt_freq E -692.250935313477
  O       6.006578     -1.511294      2.293265
  N       4.982457     -0.801885      0.361856
  N       4.111286     -0.220621      2.423407
  C       5.108080     -0.872982      1.752439
  H       4.554138      0.030670     -0.023681
  H       5.821585     -1.098927     -0.118428
  H       4.063033     -0.356839      3.425515
  H       3.298185      0.137258      1.920159
  N      -1.274538     -1.381787     -0.651257
  N      -2.157902      0.685717     -0.773301
  N      -0.290596      1.875108      0.249886
  N       1.548438      0.454611      0.903675
  N       1.606458     -1.858697      0.583820
  C      -0.331602     -0.523521     -0.106413
  C      -0.906217      0.758864     -0.194634
  C       0.959424     -0.659801      0.445367
  C      -2.338483     -0.590118     -1.019270
  C       0.899286      1.636994      0.781109
  H      -1.245517     -2.389309     -0.701472
  H      -3.226218     -1.017423     -1.467933
  H       1.439249      2.496102      1.174183
  H       2.594536     -1.808061      0.804521
  H       1.369779     -2.603408     -0.055969
23
Coordinates from ORCA-job urea_adenine_opt_freq E -692.251332500557
  O       6.007640     -1.491091      2.307760
  N       4.908457     -0.886613      0.379787
  N       4.137565     -0.162438      2.433336
  C       5.096452     -0.870855      1.767566
  H       4.502181     -0.058515     -0.038308
  H       5.715290     -1.247653     -0.112050
  H       4.131089     -0.219099      3.445192
  H       3.313354      0.176121      1.936235
  N      -1.249535     -1.381010     -0.673660
  N      -2.160105      0.675998     -0.760156
  N      -0.310795      1.872445      0.288212
  N       1.542077      0.460960      0.930384
  N       1.644471     -1.838001      0.524872
  C      -0.323993     -0.521089     -0.102909
  C      -0.913359      0.753917     -0.173513
  C       0.974986     -0.648957      0.437925
  C      -2.324123     -0.597640     -1.029159
  C       0.877929      1.637759      0.821539
  H      -1.218610     -2.388892     -0.717065
  H      -3.204910     -1.029385     -1.486991
  H       1.406359      2.494876      1.234480
  H       2.639798     -1.778333      0.717313
  H       1.399222     -2.571854     -0.123946
23
Coordinates from ORCA-job urea_adenine_opt_freq E -692.251813579167
  O       5.939677     -1.527772      2.359522
  N       4.799285     -1.008063      0.425871
  N       4.165370     -0.068098      2.439433
  C       5.051363     -0.887700      1.805038
  H       4.473028     -0.175966     -0.051599
  H       5.542818     -1.500948     -0.051768
  H       4.199849     -0.026309      3.442308
  H       3.338297      0.271509      1.948297
  N      -1.205182     -1.384023     -0.696963
  N      -2.178913      0.645085     -0.703274
  N      -0.350806      1.865061      0.355922
  N       1.549438      0.485984      0.941441
  N       1.733472     -1.775895      0.381143
  C      -0.307410     -0.516997     -0.095358
  C      -0.931777      0.738822     -0.123575
  C       1.014310     -0.617438      0.400201
  C      -2.309270     -0.623979     -1.012223
  C       0.848661      1.647988      0.868726
  H      -1.162614     -2.391853     -0.736020
  H      -3.182159     -1.069304     -1.471720
  H       1.360731      2.505426      1.301061
  H       2.745008     -1.686029      0.523743
  H       1.458264     -2.518850     -0.243363
23
Coordinates from ORCA-job urea_adenine_opt_freq E -692.252158769289
  O       5.916586     -1.568156      2.380134
  N       4.854174     -0.976693      0.422178
  N       4.164509     -0.080122      2.443702
  C       5.054086     -0.902952      1.814896
  H       4.580252     -0.114844     -0.035886
  H       5.618900     -1.455959     -0.035640
  H       4.181024     -0.060113      3.446458
  H       3.343841      0.270932      1.945911
  N      -1.227218     -1.386423     -0.687907
  N      -2.195084      0.646271     -0.695396
  N      -0.354585      1.865398      0.342795
  N       1.546442      0.485319      0.916029
  N       1.719455     -1.783310      0.373464
  C      -0.322452     -0.519249     -0.096580
  C      -0.942943      0.738891     -0.125403
  C       1.001377     -0.621251      0.387762
  C      -2.331250     -0.623857     -0.997747
  C       0.849646      1.649866      0.845010
  H      -1.189503     -2.394693     -0.719601
  H      -3.209097     -1.068343     -1.448562
  H       1.367885      2.508667      1.266666
  H       2.731916     -1.697921      0.504782
  H       1.433481     -2.530808     -0.240220
23
Coordinates from ORCA-job urea_adenine_opt_freq E -692.252097888533
  O       5.905567     -1.569681      2.400842
  N       4.821725     -1.023254      0.440145
  N       4.186036     -0.043333      2.444695
  C       5.041849     -0.911619      1.830339
  H       4.611130     -0.147673     -0.027056
  H       5.594656     -1.508333      0.001455
  H       4.236974      0.031802      3.468400
  H       3.356026      0.280940      1.943139
  N      -1.224436     -1.387050     -0.700949
  N      -2.208811      0.639787     -0.672970
  N      -0.369815      1.859352      0.366883
  N       1.540494      0.486265      0.902198
  N       1.734591     -1.779252      0.340510
  C      -0.321887     -0.520755     -0.100764
  C      -0.952212      0.735690     -0.109577
  C       1.004491     -0.620637      0.370899
  C      -2.336182     -0.627004     -0.991151
  C       0.840095      1.647763      0.855729
  H      -1.185915     -2.395283     -0.732387
  H      -3.213788     -1.070855     -1.443472
  H       1.353173      2.504241      1.288231
  H       2.740184     -1.692869      0.422130
  H       1.437494     -2.507590     -0.290425
23
Coordinates from ORCA-job urea_adenine_opt_freq E -692.252881282000
  O       5.803789     -1.633812      2.423660
  N       4.819489     -1.024413      0.426302
  N       4.161617     -0.026781      2.429400
  C       4.995739     -0.927575      1.830533
  H       4.648099     -0.142289     -0.047478
  H       5.593035     -1.530483      0.010084
  H       4.188345      0.008997      3.440495
  H       3.344994      0.337423      1.926434
  N      -1.207134     -1.388613     -0.701301
  N      -2.220489      0.624415     -0.626549
  N      -0.379621      1.851598      0.397358
  N       1.563699      0.508422      0.865136
  N       1.769038     -1.756998      0.318498
  C      -0.304558     -0.517703     -0.105965
  C      -0.953200      0.731096     -0.082634
  C       1.020487     -0.607253      0.347897
  C      -2.332813     -0.638796     -0.963280
  C       0.847979      1.660454      0.853589
  H      -1.148606     -2.394211     -0.766437
  H      -3.210866     -1.086582     -1.411146
  H       1.356977      2.523866      1.275235
  H       2.775971     -1.666205      0.423869
  H       1.459471     -2.523909     -0.256856
23
Coordinates from ORCA-job urea_adenine_opt_freq E -692.252935800131
  O       5.777832     -1.641125      2.491030
  N       4.823943     -1.057292      0.471063
  N       4.186622      0.014962      2.433537
  C       4.997851     -0.925466      1.872809
  H       4.701753     -0.182507     -0.030749
  H       5.567692     -1.623033      0.077152
  H       4.200492      0.068277      3.428284
  H       3.364942      0.356820      1.920241
  N      -1.215814     -1.388680     -0.710067
  N      -2.248259      0.610850     -0.580579
  N      -0.398159      1.840985      0.424712
  N       1.573326      0.511302      0.837456
  N       1.791226     -1.726828      0.230254
  C      -0.311894     -0.518570     -0.115051
  C      -0.972184      0.721575     -0.060188
  C       1.029641     -0.598056      0.304631
  C      -2.355707     -0.647872     -0.932935
  C       0.840788      1.652081      0.853750
  H      -1.156347     -2.394170     -0.774124
  H      -3.238591     -1.098307     -1.368399
  H       1.349685      2.515075      1.277344
  H       2.811031     -1.614943      0.296706
  H       1.471570     -2.494426     -0.340033
23
Coordinates from ORCA-job urea_adenine_opt_freq E -692.253372254508
  O       5.753619     -1.651394      2.477149
  N       4.825904     -1.028816      0.458170
  N       4.160112      0.002704      2.430983
  C       4.979109     -0.926671      1.862688
  H       4.683259     -0.148538     -0.027765
  H       5.581277     -1.573800      0.057336
  H       4.151132      0.025181      3.435052
  H       3.345825      0.344720      1.910194
  N      -1.213003     -1.388673     -0.700399
  N      -2.241862      0.612255     -0.568844
  N      -0.383140      1.842291      0.419821
  N       1.590712      0.514012      0.813627
  N       1.794845     -1.737215      0.252227
  C      -0.298779     -0.517281     -0.122624
  C      -0.959162      0.725036     -0.062288
  C       1.040550     -0.601325      0.300903
  C      -2.352729     -0.646703     -0.917314
  C       0.860911      1.653563      0.837187
  H      -1.146183     -2.392010     -0.786156
  H      -3.239715     -1.095997     -1.345834
  H       1.372695      2.518374      1.253881
  H       2.808832     -1.640730      0.343825
  H       1.477232     -2.508332     -0.314974
23
Coordinates from ORCA-job urea_adenine_opt_freq E -692.253580070264
  O       5.701701     -1.670209      2.506493
  N       4.821859     -1.039490      0.469465
  N       4.145733      0.020517      2.425069
  C       4.951154     -0.934330      1.876305
  H       4.704230     -0.156622     -0.018114
  H       5.582159     -1.590210      0.086721
  H       4.112063      0.032516      3.434633
  H       3.339464      0.361386      1.894862
  N      -1.209396     -1.389151     -0.694680
  N      -2.251961      0.601038     -0.521815
  N      -0.383268      1.838534      0.437699
  N       1.610103      0.525522      0.773723
  N       1.816776     -1.727497      0.210640
  C      -0.287664     -0.514617     -0.134813
  C      -0.958044      0.721805     -0.045228
  C       1.057432     -0.593774      0.269151
  C      -2.359193     -0.655191     -0.880531
  C       0.872169      1.657403      0.825430
  H      -1.130454     -2.388956     -0.807044
  H      -3.251765     -1.107505     -1.294108
  H       1.383908      2.523929      1.238710
  H       2.828656     -1.634204      0.306028
  H       1.495776     -2.500241     -0.351752
23
Coordinates from ORCA-job urea_adenine_opt_freq E -692.253730165779
  O       5.685410     -1.658384      2.550323
  N       4.849180     -1.043952      0.491878
  N       4.134602      0.037148      2.421509
  C       4.947897     -0.928533      1.898685
  H       4.723431     -0.166896     -0.003827
  H       5.623083     -1.586484      0.125292
  H       4.060050      0.029997      3.430407
  H       3.330489      0.352383      1.873834
  N      -1.219834     -1.386128     -0.690758
  N      -2.265455      0.597192     -0.472322
  N      -0.379558      1.833502      0.453885
  N       1.628724      0.527236      0.726590
  N       1.819674     -1.730088      0.169068
  C      -0.284939     -0.511634     -0.154735
  C      -0.959269      0.720568     -0.031692
  C       1.065619     -0.593148      0.231121
  C      -2.376693     -0.656057     -0.839979
  C       0.886525      1.653090      0.808984
  H      -1.132252     -2.380876     -0.835676
  H      -3.278000     -1.107619     -1.235016
  H       1.402431      2.519406      1.217837
  H       2.831204     -1.644814      0.275557
  H       1.499120     -2.495259     -0.404120
23
Coordinates from ORCA-job urea_adenine_opt_freq E -692.253797551694
  O       5.640080     -1.671879      2.579201
  N       4.841523     -1.048931      0.507467
  N       4.125622      0.056537      2.422372
  C       4.926049     -0.929945      1.915487
  H       4.748607     -0.168714      0.009516
  H       5.605706     -1.613088      0.153037
  H       4.028843      0.052780      3.429136
  H       3.328036      0.373062      1.867298
  N      -1.217794     -1.387079     -0.684443
  N      -2.269420      0.588101     -0.432042
  N      -0.374401      1.828887      0.469478
  N       1.646601      0.529625      0.696521
  N       1.835923     -1.722849      0.115365
  C      -0.278440     -0.510939     -0.161225
  C      -0.956917      0.714643     -0.015660
  C       1.079637     -0.589115      0.200570
  C      -2.381493     -0.663339     -0.807862
  C       0.898074      1.651157      0.800442
  H      -1.124368     -2.378721     -0.846281
  H      -3.287160     -1.117821     -1.189026
  H       1.417633      2.516819      1.206186
  H       2.848629     -1.637944      0.222387
  H       1.510469     -2.490597     -0.451080
23
Coordinates from ORCA-job urea_adenine_opt_freq E -692.253839699434
  O       5.666689     -1.645703      2.587863
  N       4.847267     -1.057972      0.513482
  N       4.130388      0.062114      2.421723
  C       4.939393     -0.920908      1.919892
  H       4.738905     -0.184902      0.006167
  H       5.618291     -1.613498      0.160391
  H       4.039755      0.070599      3.427592
  H       3.327134      0.368359      1.867599
  N      -1.223669     -1.384743     -0.688382
  N      -2.270477      0.592936     -0.433246
  N      -0.373358      1.826627      0.473556
  N       1.642786      0.519972      0.701945
  N       1.826273     -1.730285      0.108979
  C      -0.283207     -0.511701     -0.162392
  C      -0.958605      0.714597     -0.015194
  C       1.074009     -0.594126      0.200330
  C      -2.385462     -0.657679     -0.812545
  C       0.896897      1.644802      0.807047
  H      -1.130778     -2.375397     -0.856154
  H      -3.291635     -1.109465     -1.195544
  H       1.419088      2.506977      1.216604
  H       2.838742     -1.647091      0.222466
  H       1.503015     -2.492864     -0.465336
23
Coordinates from ORCA-job urea_adenine_opt_freq E -692.253854713019
  O       5.668136     -1.640776      2.589258
  N       4.848765     -1.052093      0.514660
  N       4.128309      0.062984      2.424759
  C       4.940578     -0.916324      1.921144
  H       4.733577     -0.180238      0.006741
  H       5.619213     -1.606696      0.158783
  H       4.040133      0.071305      3.430159
  H       3.322182      0.364705      1.869581
  N      -1.225824     -1.384741     -0.686388
  N      -2.268521      0.595426     -0.433088
  N      -0.368313      1.825187      0.472383
  N       1.645403      0.514423      0.700881
  N       1.823827     -1.734198      0.104783
  C      -0.283629     -0.512880     -0.161313
  C      -0.956616      0.714194     -0.015226
  C       1.073834     -0.597272      0.199532
  C      -2.386191     -0.655364     -0.811446
  C       0.901134      1.641546      0.805594
  H      -1.132969     -2.374500     -0.859038
  H      -3.293174     -1.106022     -1.193758
  H       1.426358      2.502214      1.214281
  H       2.835531     -1.652535      0.222113
  H       1.499698     -2.497694     -0.467549
23
Coordinates from ORCA-job urea_adenine_opt_freq E -692.253863060605
  O       5.679446     -1.627867      2.587977
  N       4.845891     -1.052799      0.515041
  N       4.130228      0.066338      2.423806
  C       4.944722     -0.910205      1.920207
  H       4.723802     -0.183514      0.004394
  H       5.618713     -1.602958      0.157434
  H       4.050304      0.082680      3.429696
  H       3.321849      0.366913      1.872047
  N      -1.228576     -1.383582     -0.689081
  N      -2.266798      0.599012     -0.436370
  N      -0.365314      1.822330      0.475467
  N       1.644831      0.506568      0.705270
  N       1.819329     -1.740881      0.106827
  C      -0.285178     -0.514464     -0.161090
  C      -0.955645      0.713849     -0.015173
  C       1.071588     -0.602484      0.201865
  C      -2.386478     -0.650857     -0.816990
  C       0.902872      1.635551      0.810741
  H      -1.135946     -2.372166     -0.868320
  H      -3.293526     -1.098911     -1.202218
  H       1.430031      2.493755      1.222077
  H       2.830330     -1.661554      0.228977
  H       1.494964     -2.504102     -0.465740
23
Coordinates from ORCA-job urea_adenine_opt_freq E -692.253871510625
  O       5.684343     -1.620868      2.586645
  N       4.840664     -1.052806      0.516004
  N       4.132445      0.070791      2.424840
  C       4.945315     -0.906212      1.920068
  H       4.713433     -0.185347      0.003520
  H       5.613368     -1.601516      0.155913
  H       4.061415      0.092960      3.431757
  H       3.321270      0.368387      1.875561
  N      -1.229792     -1.383093     -0.691035
  N      -2.265520      0.600644     -0.437070
  N      -0.362916      1.819898      0.478329
  N       1.645307      0.501894      0.706165
  N       1.817980     -1.745210      0.106434
  C      -0.285342     -0.515818     -0.161546
  C      -0.954451      0.713348     -0.014486
  C       1.071152     -0.605841      0.201918
  C      -2.386132     -0.648312     -0.819938
  C       0.904966      1.631752      0.813680
  H      -1.136712     -2.370431     -0.876783
  H      -3.293380     -1.094621     -1.206803
  H       1.433413      2.488336      1.226675
  H       2.828527     -1.668278      0.231423
  H       1.492087     -2.509008     -0.464425
23
Coordinates from ORCA-job urea_adenine_opt_freq E -692.253881453476
  O       5.686762     -1.618544      2.583358
  N       4.835800     -1.051104      0.516151
  N       4.135151      0.073822      2.426859
  C       4.945451     -0.903684      1.919153
  H       4.704387     -0.184527      0.003401
  H       5.607243     -1.599619      0.153258
  H       4.072094      0.098781      3.434415
  H       3.322205      0.372176      1.881755
  N      -1.230794     -1.383096     -0.692574
  N      -2.264483      0.601551     -0.438074
  N      -0.361210      1.818134      0.479703
  N       1.645809      0.498862      0.705921
  N       1.817235     -1.748374      0.107884
  C      -0.285255     -0.517230     -0.162622
  C      -0.953325      0.712952     -0.014630
  C       1.071144     -0.608555      0.201911
  C      -2.385900     -0.646788     -0.822093
  C       0.906664      1.628923      0.814821
  H      -1.136893     -2.368960     -0.885518
  H      -3.293446     -1.091687     -1.209987
  H       1.435810      2.484639      1.228763
  H       2.827278     -1.673460      0.235073
  H       1.489711     -2.513559     -0.460084
23
Coordinates from ORCA-job urea_adenine_opt_freq E -692.253897751585
  O       5.693034     -1.618033      2.576054
  N       4.828507     -1.047899      0.516090
  N       4.141220      0.075545      2.432779
  C       4.947263     -0.902046      1.917805
  H       4.691333     -0.181136      0.005323
  H       5.598321     -1.595057      0.147969
  H       4.088592      0.101494      3.440769
  H       3.325083      0.374351      1.894136
  N      -1.232140     -1.383522     -0.693838
  N      -2.263502      0.602358     -0.441196
  N      -0.360020      1.817351      0.477952
  N       1.645487      0.496570      0.705659
  N       1.815587     -1.751697      0.111227
  C      -0.285503     -0.518739     -0.164639
  C      -0.952328      0.712759     -0.016898
  C       1.070534     -0.611155      0.202321
  C      -2.385819     -0.645644     -0.825553
  C       0.907737      1.626997      0.813808
  H      -1.137381     -2.367893     -0.893798
  H      -3.293665     -1.089287     -1.214231
  H       1.437132      2.482505      1.227919
  H       2.825336     -1.678720      0.240923
  H       1.486633     -2.518449     -0.453737
23
Coordinates from ORCA-job urea_adenine_opt_freq E -692.253912019966
  O       5.698153     -1.622729      2.567222
  N       4.823470     -1.042263      0.515467
  N       4.147637      0.073142      2.441923
  C       4.949226     -0.903087      1.916359
  H       4.676543     -0.175152      0.008213
  H       5.590627     -1.588020      0.140024
  H       4.103747      0.094459      3.450123
  H       3.327927      0.377019      1.912746
  N      -1.232907     -1.384609     -0.693435
  N      -2.263008      0.602227     -0.444650
  N      -0.359686      1.818515      0.472247
  N       1.645295      0.497244      0.703078
  N       1.814657     -1.752898      0.115703
  C      -0.285327     -0.519378     -0.167272
  C      -0.951634      0.712955     -0.020841
  C       1.070364     -0.611921      0.202208
  C      -2.386081     -0.646333     -0.826940
  C       0.908232      1.627780      0.808354
  H      -1.136389     -2.367263     -0.900711
  H      -3.294244     -1.089872     -1.214976
  H       1.437179      2.484506      1.220683
  H       2.824271     -1.680547      0.244354
  H       1.483386     -2.523122     -0.443037
23
Coordinates from ORCA-job urea_adenine_opt_freq E -692.253941553744
  O       5.712258     -1.625394      2.553354
  N       4.816470     -1.034623      0.514004
  N       4.155144      0.065767      2.454855
  C       4.954872     -0.904297      1.914232
  H       4.659073     -0.164790      0.014732
  H       5.584965     -1.571696      0.129101
  H       4.117890      0.078397      3.462975
  H       3.330428      0.370283      1.934652
  N      -1.234540     -1.385828     -0.691644
  N      -2.262060      0.603328     -0.451984
  N      -0.358350      1.821485      0.460603
  N       1.644589      0.497763      0.701607
  N       1.810926     -1.754977      0.123689
  C      -0.285895     -0.519417     -0.170133
  C      -0.950770      0.714084     -0.028493
  C       1.068599     -0.612668      0.203745
  C      -2.386742     -0.646662     -0.829551
  C       0.908922      1.629752      0.799437
  H      -1.137499     -2.367868     -0.901467
  H      -3.295252     -1.090488     -1.216326
  H       1.437715      2.488271      1.208297
  H       2.820884     -1.682300      0.253088
  H       1.479813     -2.527472     -0.431929
23
Coordinates from ORCA-job urea_adenine_opt_freq E -692.253961463493
  O       5.728750     -1.627797      2.536315
  N       4.812140     -1.023302      0.510206
  N       4.158612      0.051704      2.468418
  C       4.960783     -0.906505      1.910345
  H       4.635290     -0.152117      0.019820
  H       5.581483     -1.549054      0.111559
  H       4.125374      0.050942      3.476642
  H       3.328664      0.361267      1.959101
  N      -1.234599     -1.387097     -0.688190
  N      -2.259504      0.605109     -0.462643
  N      -0.355658      1.826260      0.445276
  N       1.644372      0.499520      0.701596
  N       1.807298     -1.756985      0.137264
  C      -0.285455     -0.518358     -0.171202
  C      -0.948936      0.716181     -0.037975
  C       1.067177     -0.612698      0.208374
  C      -2.385574     -0.647074     -0.833233
  C       0.910389      1.633734      0.788467
  H      -1.137498     -2.369555     -0.895994
  H      -3.293841     -1.091970     -1.219238
  H       1.439128      2.494654      1.192394
  H       2.817908     -1.682745      0.261717
  H       1.475136     -2.533463     -0.412173
23
Coordinates from ORCA-job urea_adenine_opt_freq E -692.253974940693
  O       5.742216     -1.625417      2.524045
  N       4.808570     -1.014021      0.507183
  N       4.156569      0.039600      2.477273
  C       4.964454     -0.906636      1.907656
  H       4.618398     -0.141034      0.024944
  H       5.582098     -1.526319      0.099169
  H       4.123306      0.027645      3.485759
  H       3.323383      0.348570      1.972368
  N      -1.234836     -1.387748     -0.684681
  N      -2.256295      0.607765     -0.471055
  N      -0.350752      1.829493      0.433023
  N       1.645810      0.499208      0.701494
  N       1.804228     -1.759728      0.147044
  C      -0.284843     -0.517622     -0.170808
  C      -0.946325      0.718172     -0.045026
  C       1.066346     -0.613516      0.212029
  C      -2.384425     -0.646396     -0.834662
  C       0.913934      1.636017      0.779855
  H      -1.139246     -2.371500     -0.886932
  H      -3.292836     -1.091871     -1.219632
  H       1.444048      2.497927      1.179773
  H       2.815482     -1.684014      0.268067
  H       1.472155     -2.537922     -0.400043
23
Coordinates from ORCA-job urea_adenine_opt_freq E -692.253990256352
  O       5.752820     -1.620869      2.511178
  N       4.802839     -1.001987      0.503606
  N       4.148774      0.026654      2.485576
  C       4.964557     -0.905350      1.904634
  H       4.597326     -0.127422      0.030426
  H       5.581041     -1.498692      0.085251
  H       4.114700      0.002237      3.494236
  H       3.312501      0.335347      1.985256
  N      -1.234176     -1.388420     -0.679799
  N      -2.250944      0.610960     -0.477771
  N      -0.341910      1.832037      0.421071
  N       1.650418      0.497450      0.699696
  N       1.802834     -1.764219      0.155903
  C      -0.282606     -0.517510     -0.168976
  C      -0.941167      0.720198     -0.051140
  C       1.067643     -0.615594      0.215096
  C      -2.381501     -0.644756     -0.835221
  C       0.921512      1.637360      0.770449
  H      -1.141512     -2.374158     -0.873530
  H      -3.290421     -1.090337     -1.218923
  H       1.454444      2.499454      1.166065
  H       2.814835     -1.687457      0.271565
  H       1.469433     -2.544272     -0.387802
23
Coordinates from ORCA-job urea_adenine_opt_freq E -692.254007885898
  O       5.767125     -1.608994      2.497730
  N       4.795965     -0.988701      0.500556
  N       4.138654      0.014782      2.493611
  C       4.964796     -0.900612      1.901398
  H       4.570560     -0.114195      0.036226
  H       5.580038     -1.466622      0.071438
  H       4.107902     -0.019964      3.502536
  H       3.298290      0.319017      1.997789
  N      -1.234459     -1.388470     -0.675874
  N      -2.243283      0.616316     -0.486587
  N      -0.330110      1.833454      0.409968
  N       1.655857      0.492180      0.698322
  N       1.800454     -1.772316      0.165077
  C      -0.280515     -0.518872     -0.166490
  C      -0.934154      0.722230     -0.057031
  C       1.069017     -0.620528      0.218393
  C      -2.378379     -0.640952     -0.836495
  C       0.931641      1.635877      0.762492
  H      -1.146514     -2.376533     -0.859744
  H      -3.288350     -1.085034     -1.219514
  H       1.468675      2.496883      1.154755
  H       2.813116     -1.695786      0.275670
  H       1.465113     -2.552507     -0.377383
23
Coordinates from ORCA-job urea_adenine_opt_freq E -692.254019690641
  O       5.777150     -1.596400      2.488040
  N       4.788092     -0.979250      0.498973
  N       4.130382      0.009255      2.499139
  C       4.963651     -0.894618      1.898953
  H       4.547252     -0.105952      0.040086
  H       5.575803     -1.444271      0.062526
  H       4.106109     -0.029849      3.507968
  H       3.285887      0.308940      2.008448
  N      -1.234770     -1.388256     -0.674129
  N      -2.236401      0.620695     -0.491349
  N      -0.319702      1.833101      0.404387
  N       1.661082      0.485987      0.696807
  N       1.799099     -1.780640      0.170059
  C      -0.278577     -0.521382     -0.164418
  C      -0.927418      0.723111     -0.060045
  C       1.070946     -0.626216      0.219878
  C      -2.375353     -0.636736     -0.838686
  C       0.941049      1.632399      0.758413
  H      -1.151820     -2.378323     -0.849504
  H      -3.286527     -1.078346     -1.221773
  H       1.481507      2.491837      1.149359
  H       2.812030     -1.705306      0.277606
  H       1.461971     -2.559130     -0.373894
23
Coordinates from ORCA-job urea_adenine_opt_freq E -692.254028645665
  O       5.789283     -1.581404      2.481239
  N       4.782477     -0.973148      0.498920
  N       4.125843      0.007153      2.503709
  C       4.964888     -0.887804      1.897391
  H       4.526999     -0.102576      0.042762
  H       5.572846     -1.428714      0.057450
  H       4.111210     -0.031559      3.512468
  H       3.276844      0.300130      2.017874
  N      -1.236200     -1.387540     -0.674947
  N      -2.230529      0.625293     -0.496870
  N      -0.311820      1.832162      0.401340
  N       1.664038      0.479118      0.696575
  N       1.796327     -1.789172      0.173641
  C      -0.278155     -0.524389     -0.163308
  C      -0.922160      0.723470     -0.062315
  C       1.071433     -0.632248      0.220824
  C      -2.373915     -0.632212     -0.841790
  C       0.947969      1.627637      0.757261
  H      -1.158649     -2.379524     -0.841992
  H      -3.286316     -1.070656     -1.225605
  H       1.490826      2.485479      1.148432
  H       2.809330     -1.715372      0.280094
  H       1.458870     -2.563472     -0.376307
23
Coordinates from ORCA-job urea_adenine_opt_freq E -692.254028492852
  O       5.795312     -1.575300      2.478079
  N       4.779732     -0.971248      0.499183
  N       4.126370      0.007223      2.506209
  C       4.966493     -0.884836      1.896649
  H       4.518788     -0.101969      0.043765
  H       5.570244     -1.424808      0.056017
  H       4.117384     -0.029730      3.514691
  H       3.274719      0.298052      2.024014
  N      -1.237047     -1.387248     -0.676300
  N      -2.228414      0.627059     -0.499326
  N      -0.309350      1.831624      0.400190
  N       1.664564      0.475964      0.697102
  N       1.794324     -1.793035      0.175133
  C      -0.278412     -0.525914     -0.163487
  C      -0.920231      0.723334     -0.063772
  C       1.071062     -0.634926      0.221133
  C      -2.373594     -0.630224     -0.844340
  C       0.949974      1.625116      0.757457
  H      -1.162509     -2.380346     -0.838136
  H      -3.286504     -1.067108     -1.228662
  H       1.493042      2.482592      1.149185
  H       2.807160     -1.719692      0.282663
  H       1.458334     -2.563927     -0.380601
23
Coordinates from ORCA-job urea_adenine_opt_freq E -692.254031161547
  O       5.798667     -1.572844      2.478103
  N       4.779924     -0.972042      0.499825
  N       4.128407      0.007857      2.506995
  C       4.968370     -0.883983      1.896841
  H       4.517427     -0.103669      0.043644
  H       5.570159     -1.426254      0.056833
  H       4.122104     -0.027031      3.515529
  H       3.275693      0.297583      2.025915
  N      -1.237674     -1.387004     -0.677771
  N      -2.228402      0.627650     -0.500804
  N      -0.309756      1.831434      0.400077
  N       1.663705      0.474935      0.697942
  N       1.792788     -1.794073      0.175349
  C      -0.279158     -0.526216     -0.164130
  C      -0.920454      0.723211     -0.064515
  C       1.070069     -0.635515      0.221109
  C      -2.374189     -0.629659     -0.845628
  C       0.949313      1.624125      0.758309
  H      -1.164639     -2.380791     -0.836101
  H      -3.287170     -1.066093     -1.230239
  H       1.491750      2.481697      1.150742
  H       2.805515     -1.720331      0.284256
  H       1.458989     -2.562337     -0.385435
23
Coordinates from ORCA-job urea_adenine_opt_freq E -692.254033268346
  O       5.798237     -1.573950      2.478795
  N       4.780297     -0.972786      0.500105
  N       4.129613      0.008235      2.507004
  C       4.968733     -0.884461      1.897143
  H       4.519088     -0.104319      0.043419
  H       5.570007     -1.428471      0.057698
  H       4.123236     -0.025956      3.515591
  H       3.276876      0.298664      2.026181
  N      -1.237598     -1.386997     -0.678418
  N      -2.228981      0.627359     -0.500785
  N      -0.310519      1.831427      0.400117
  N       1.663330      0.475212      0.698037
  N       1.792458     -1.793699      0.174838
  C      -0.279360     -0.525930     -0.164633
  C      -0.920984      0.723149     -0.064773
  C       1.069724     -0.635065      0.220747
  C      -2.374527     -0.630005     -0.845596
  C       0.948533      1.624200      0.758574
  H      -1.165087     -2.381183     -0.834501
  H      -3.287433     -1.066722     -1.230056
  H       1.490391      2.482021      1.151264
  H       2.805073     -1.719384      0.284816
  H       1.460334     -2.560688     -0.388723
