28
Coordinates from ORCA-job biuret_guanine_opt_freq E -936.108869758038
  N           5.71778407193170     -2.74401558334890      2.93619738033118
  C           4.97675408846624     -2.98692885773436      1.78887432632000
  O           4.64687231661151     -4.10477364180736      1.43228005429739
  N           4.62903627581590     -1.86059826797509      1.02357993822798
  C           5.18333908417445     -0.58649528624640      0.91642246663960
  O           4.64458505685268      0.25916347155931      0.19312842025265
  N           6.31160068269764     -0.30757358476428      1.63409995604365
  H           5.82054083310941     -3.57613525264186      3.50396369687487
  H           5.51331203061795     -1.90159163583652      3.46119078315351
  H           3.91359300202286     -2.04823106825827      0.31637143287706
  H           6.90862369787657     -1.05149000490951      1.96968576266604
  H           6.73340995410496      0.58546131819103      1.42234944649412
  O           0.95378959416493      1.94004173760319      1.42896737122331
  N          -1.86576358021658      0.78039701313621      0.77836544922606
  N           1.69199942239925      0.26719133275053      0.01116744330141
  N           0.28470803561842     -1.30619376002792     -1.09209051634141
  N          -2.08218520387279     -0.98892328078193     -0.58749411724612
  N           2.60270998528070     -1.42465327739827     -1.33048163402820
  C          -0.59303348988654      0.43617209644272      0.37315896936921
  C          -0.75154369308882     -0.66427755135595     -0.47105198728483
  C           0.68560988062870      0.99179799605641      0.68983575793152
  C           1.46084196856867     -0.81147850304509     -0.81683364542285
  C          -2.70945698784055     -0.10603734553281      0.17010729083862
  H          -2.10723646385804      1.54300483755849      1.39504993310397
  H           2.65993993383345      0.54194306401488      0.19457186414811
  H          -3.78104299820362     -0.06465797074619      0.31348082284459
  H           2.36639408107419     -2.07981333257591     -2.06731249610840
  H           3.35647742111652     -0.78981166232606     -1.57544516973312
