28
Coordinates from ORCA-job biuret_guanine_opt_freq E -935.982877690785
  N       5.962930     -3.438071      1.500699
  C       4.675104     -3.059743      1.500697
  O       3.794313     -3.917047      1.500691
  N       4.343847     -1.731742      1.500701
  C       4.918447     -0.489505      1.500707
  O       4.214198      0.517866      1.500708
  N       6.254392     -0.359588      1.500711
  H       6.128876     -4.436737      1.500696
  H       6.762256     -2.840208      1.500704
  H       3.336672     -1.636385      1.500698
  H       6.927313     -1.096838      1.500711
  H       6.604811      0.590191      1.500716
  O       0.192100      2.665900     -0.000400
  N      -2.071500      0.658800      0.000600
  N       1.574000      0.803100      0.000100
  N       0.756600     -1.453600     -0.000300
  N      -1.719400     -1.543200     -0.000600
  N       3.054900     -1.010000      0.000500
  C      -0.718000      0.488500     -0.000100
  C      -0.524500     -0.873100     -0.000400
  C       0.338300      1.448600     -0.000100
  C       1.748300     -0.592400      0.000000
  C      -2.630800     -0.592600      0.000500
  H      -2.570600      1.538600      0.001200
  H       2.407800      1.383500      0.000300
  H      -3.701500     -0.739200      0.001000
  H       3.290500     -1.996500      0.000600
  H       3.822300     -0.347100      0.000800
28
Coordinates from ORCA-job biuret_guanine_opt_freq E -936.010256690668
  N       6.006131     -3.483595      1.526170
  C       4.707436     -3.082834      1.526650
  O       3.803059     -3.915454      1.517968
  N       4.373571     -1.739052      1.524483
  C       4.958921     -0.489204      1.518488
  O       4.251492      0.524715      1.515681
  N       6.310107     -0.365472      1.507943
  H       6.156548     -4.482408      1.521641
  H       6.817602     -2.896536      1.529838
  H       3.344934     -1.631152      1.513466
  H       6.981710     -1.108817      1.505044
  H       6.664447      0.580557      1.501918
  O       0.169510      2.694712      0.004473
  N      -2.111790      0.661684      0.001067
  N       1.541073      0.823014     -0.014637
  N       0.731994     -1.433053     -0.027138
  N      -1.725710     -1.544407     -0.016167
  N       3.016695     -0.986755     -0.031007
  C      -0.749486      0.502518     -0.006804
  C      -0.535877     -0.864999     -0.016879
  C       0.302711      1.470949     -0.004922
  C       1.713334     -0.567736     -0.025911
  C      -2.648737     -0.598544     -0.004921
  H      -2.619041      1.535820      0.009660
  H       2.370611      1.406720     -0.009434
  H      -3.717691     -0.760613     -0.000766
  H       3.256040     -1.976081     -0.031946
  H       3.802064     -0.332487     -0.021819
28
Coordinates from ORCA-job biuret_guanine_opt_freq E -936.029345529534
  N       6.046844     -3.504150      1.556224
  C       4.740697     -3.102217      1.551420
  O       3.826163     -3.919058      1.533456
  N       4.401726     -1.748126      1.545633
  C       5.001630     -0.497225      1.532618
  O       4.300098      0.521822      1.526015
  N       6.361771     -0.387958      1.510139
  H       6.195388     -4.502441      1.549623
  H       6.859209     -2.915583      1.567663
  H       3.368847     -1.629809      1.523289
  H       7.024205     -1.141496      1.505424
  H       6.725905      0.553444      1.497760
  O       0.153110      2.717992      0.017005
  N      -2.152294      0.665419      0.001358
  N       1.508668      0.837993     -0.024972
  N       0.702301     -1.413185     -0.055745
  N      -1.739944     -1.541248     -0.037032
  N       2.980107     -0.966941     -0.062044
  C      -0.782989      0.517877     -0.012348
  C      -0.552397     -0.854384     -0.035482
  C       0.266030      1.490046     -0.004828
  C       1.679346     -0.545758     -0.050460
  C      -2.670550     -0.600481     -0.014393
  H      -2.665131      1.535401      0.019506
  H       2.333600      1.427364     -0.011181
  H      -3.737685     -0.776532     -0.008400
  H       3.220082     -1.952450     -0.064912
  H       3.776923     -0.326824     -0.043195
28
Coordinates from ORCA-job biuret_guanine_opt_freq E -936.048943716928
  N       6.100227     -3.523776      1.607682
  C       4.791950     -3.125827      1.584045
  O       3.874690     -3.934229      1.551183
  N       4.450422     -1.762329      1.570269
  C       5.067154     -0.511791      1.546967
  O       4.374131      0.510220      1.535328
  N       6.430915     -0.415329      1.508855
  H       6.248579     -4.522152      1.602881
  H       6.909371     -2.933119      1.639937
  H       3.423782     -1.636720      1.533906
  H       7.083502     -1.176154      1.500647
  H       6.802627      0.522734      1.489939
  O       0.127857      2.738532      0.048677
  N      -2.205883      0.674786      0.004431
  N       1.463281      0.852014     -0.035037
  N       0.657429     -1.391453     -0.102680
  N      -1.776809     -1.528991     -0.074660
  N       2.934200     -0.947342     -0.112022
  C      -0.832020      0.538449     -0.017543
  C      -0.588684     -0.836791     -0.066052
  C       0.214600      1.509349      0.003271
  C       1.635855     -0.523081     -0.087136
  C      -2.710823     -0.593635     -0.031580
  H      -2.721014      1.542573      0.040322
  H       2.281049      1.450762     -0.003709
  H      -3.776290     -0.781623     -0.024385
  H       3.173041     -1.928568     -0.121230
  H       3.738522     -0.325016     -0.080166
28
Coordinates from ORCA-job biuret_guanine_opt_freq E -936.065502340181
  N       6.166229     -3.539258      1.695084
  C       4.859952     -3.150106      1.615942
  O       3.947304     -3.960147      1.553212
  N       4.519917     -1.780424      1.587077
  C       5.153338     -0.532179      1.549872
  O       4.466647      0.490352      1.534510
  N       6.516517     -0.446910      1.491436
  H       6.316921     -4.537242      1.702781
  H       6.967200     -2.943981      1.788086
  H       3.508308     -1.653621      1.537996
  H       7.161663     -1.213846      1.471333
  H       6.893320      0.488838      1.468810
  O       0.091809      2.754383      0.116378
  N      -2.267769      0.691248      0.012987
  N       1.406602      0.863631     -0.035911
  N       0.598384     -1.369993     -0.172244
  N      -1.833551     -1.506995     -0.137194
  N       2.875335     -0.931770     -0.183079
  C      -0.892275      0.561638     -0.018556
  C      -0.643571     -0.813385     -0.111749
  C       0.153653      1.527213      0.029827
  C       1.580935     -0.503145     -0.133283
  C      -2.767404     -0.576214     -0.060781
  H      -2.781188      1.558271      0.078940
  H       2.216352      1.471078      0.028226
  H      -3.831825     -0.771368     -0.055229
  H       3.106384     -1.911237     -0.206287
  H       3.682471     -0.323337     -0.136046
28
Coordinates from ORCA-job biuret_guanine_opt_freq E -936.076503672578
  N       6.229856     -3.546960      1.818740
  C       4.932506     -3.168740      1.631676
  O       4.033185     -3.984967      1.496957
  N       4.594508     -1.798871      1.582423
  C       5.238351     -0.554054      1.533397
  O       4.552111      0.467385      1.519697
  N       6.599165     -0.476951      1.449403
  H       6.384149     -4.544151      1.843846
  H       7.001265     -2.947650      2.044990
  H       3.591440     -1.673961      1.520821
  H       7.237878     -1.248131      1.394871
  H       6.979341      0.457413      1.425562
  O       0.052918      2.760958      0.215648
  N      -2.322479      0.709158      0.029364
  N       1.353681      0.871242     -0.022782
  N       0.538893     -1.350459     -0.251396
  N      -1.891701     -1.480923     -0.212853
  N       2.816282     -0.920800     -0.258909
  C      -0.947093      0.580014     -0.011637
  C      -0.700102     -0.790629     -0.162540
  C       0.100534      1.538790      0.075459
  C       1.525673     -0.488530     -0.178676
  C      -2.823834     -0.553555     -0.095116
  H      -2.831998      1.574758      0.133543
  H       2.158607      1.479993      0.081442
  H      -3.888151     -0.749579     -0.094401
  H       3.033484     -1.902360     -0.303352
  H       3.623192     -0.316949     -0.194037
28
Coordinates from ORCA-job biuret_guanine_opt_freq E -936.085995871514
  N       6.296046     -3.519205      1.980262
  C       5.020574     -3.182531      1.627819
  O       4.166924     -4.018555      1.370977
  N       4.669066     -1.822576      1.557557
  C       5.320919     -0.585114      1.503983
  O       4.637241      0.438834      1.497391
  N       6.679212     -0.529857      1.388432
  H       6.472517     -4.511899      2.028904
  H       6.959492     -2.905615      2.421880
  H       3.668686     -1.701617      1.477385
  H       7.295810     -1.315175      1.269151
  H       7.074327      0.398155      1.360625
  O       0.012930      2.756546      0.344569
  N      -2.372927      0.728388      0.056477
  N       1.303555      0.875504     -0.000365
  N       0.477448     -1.327579     -0.343576
  N      -1.952557     -1.448061     -0.299875
  N       2.756436     -0.909973     -0.342332
  C      -0.998495      0.595104      0.002956
  C      -0.758618     -0.766214     -0.219282
  C       0.053652      1.543685      0.137847
  C       1.468772     -0.475225     -0.229180
  C      -2.881031     -0.524361     -0.130551
  H      -2.876945      1.590219      0.208020
  H       2.107632      1.476638      0.147275
  H      -3.946079     -0.715936     -0.135369
  H       2.955485     -1.895243     -0.416925
  H       3.561586     -0.306844     -0.251915
28
Coordinates from ORCA-job biuret_guanine_opt_freq E -936.091416534173
  N       6.353096     -3.457676      2.079858
  C       5.092332     -3.188024      1.619787
  O       4.300377     -4.054957      1.281006
  N       4.709114     -1.844068      1.537993
  C       5.364108     -0.614844      1.485326
  O       4.688202      0.415812      1.483331
  N       6.721648     -0.592682      1.356809
  H       6.568057     -4.441490      2.157114
  H       6.876277     -2.823151      2.664963
  H       3.705720     -1.728102      1.440401
  H       7.301613     -1.400570      1.190012
  H       7.141992      0.323731      1.316646
  O      -0.010921      2.746170      0.436335
  N      -2.401286      0.745199      0.076397
  N       1.274423      0.874437      0.017865
  N       0.435178     -1.311211     -0.406437
  N      -1.996077     -1.419766     -0.360092
  N       2.716631     -0.907063     -0.396199
  C      -1.028442      0.603949      0.013946
  C      -0.798986     -0.748645     -0.258125
  C       0.029972      1.541968      0.182925
  C       1.430479     -0.469666     -0.262209
  C      -2.919064     -0.496795     -0.154629
  H      -2.899786      1.603837      0.260906
  H       2.082547      1.463098      0.191696
  H      -3.985482     -0.679818     -0.163204
  H       2.899128     -1.895287     -0.495989
  H       3.520808     -0.302895     -0.284295
28
Coordinates from ORCA-job biuret_guanine_opt_freq E -936.094082904463
  N       6.399512     -3.407021      2.132108
  C       5.143526     -3.192175      1.615899
  O       4.401771     -4.085980      1.238002
  N       4.728198     -1.858736      1.526801
  C       5.385729     -0.632538      1.471949
  O       4.717950      0.404007      1.470377
  N       6.744286     -0.636248      1.344984
  H       6.639295     -4.382893      2.240929
  H       6.803958     -2.762768      2.797904
  H       3.723667     -1.746982      1.415732
  H       7.288236     -1.463826      1.150261
  H       7.185027      0.269208      1.282598
  O      -0.024577      2.735291      0.499163
  N      -2.416514      0.757272      0.088836
  N       1.258496      0.871715      0.032712
  N       0.408534     -1.299884     -0.446550
  N      -2.024292     -1.399145     -0.401085
  N       2.691730     -0.906836     -0.428904
  C      -1.044989      0.608710      0.021311
  C      -0.824404     -0.737320     -0.283809
  C       0.018988      1.537891      0.214358
  C       1.406185     -0.467467     -0.281799
  C      -2.942245     -0.475767     -0.172101
  H      -2.911209      1.613246      0.294754
  H       2.072324      1.447867      0.221354
  H      -4.009929     -0.650667     -0.183940
  H       2.859907     -1.895445     -0.548297
  H       3.492501     -0.302016     -0.301409
28
Coordinates from ORCA-job biuret_guanine_opt_freq E -936.096036372113
  N       6.459397     -3.357839      2.199755
  C       5.212996     -3.197309      1.621138
  O       4.534069     -4.119164      1.200967
  N       4.761810     -1.872033      1.517693
  C       5.426064     -0.643975      1.448278
  O       4.767225      0.397904      1.438520
  N       6.786377     -0.671277      1.335273
  H       6.694255     -4.329758      2.354783
  H       6.695229     -2.734912      2.962765
  H       3.759532     -1.766356      1.386703
  H       7.285226     -1.519871      1.108194
  H       7.240730      0.221735      1.217915
  O      -0.042167      2.715418      0.586881
  N      -2.438212      0.769798      0.106369
  N       1.236561      0.865556      0.053505
  N       0.373083     -1.283590     -0.502415
  N      -2.062049     -1.371639     -0.457801
  N       2.658754     -0.905390     -0.474531
  C      -1.068306      0.613622      0.031269
  C      -0.858257     -0.722193     -0.319723
  C       0.002452      1.529196      0.258022
  C       1.374107     -0.464081     -0.309449
  C      -2.973268     -0.449866     -0.195874
  H      -2.928384      1.620720      0.342012
  H       2.057739      1.424820      0.260580
  H      -4.042404     -0.615125     -0.211978
  H       2.804971     -1.892142     -0.621434
  H       3.454129     -0.300756     -0.325278
28
Coordinates from ORCA-job biuret_guanine_opt_freq E -936.096637510458
  N       6.485284     -3.352970      2.208399
  C       5.232404     -3.199667      1.633138
  O       4.560680     -4.128411      1.217698
  N       4.776233     -1.873783      1.523753
  C       5.443170     -0.643187      1.439793
  O       4.785583      0.398485      1.415774
  N       6.804513     -0.672424      1.348742
  H       6.711189     -4.326437      2.374771
  H       6.698889     -2.737860      2.985490
  H       3.775110     -1.772184      1.385052
  H       7.297345     -1.526725      1.129582
  H       7.255610      0.216737      1.194193
  O      -0.046788      2.707277      0.615520
  N      -2.448120      0.775889      0.110183
  N       1.226954      0.860651      0.059589
  N       0.356669     -1.278515     -0.523658
  N      -2.079462     -1.359652     -0.479664
  N       2.644069     -0.908672     -0.490834
  C      -1.078925      0.616563      0.032519
  C      -0.873404     -0.715699     -0.334388
  C      -0.005313      1.525353      0.271682
  C       1.360444     -0.464829     -0.320371
  C      -2.987305     -0.438206     -0.206371
  H      -2.935853      1.625350      0.356026
  H       2.050842      1.414279      0.271144
  H      -4.057007     -0.599666     -0.224124
  H       2.780824     -1.895211     -0.647791
  H       3.438023     -0.304991     -0.333706
28
Coordinates from ORCA-job biuret_guanine_opt_freq E -936.097787751145
  N       6.531740     -3.360323      2.207790
  C       5.258890     -3.201842      1.664636
  O       4.575046     -4.135773      1.284318
  N       4.806483     -1.872775      1.545324
  C       5.477789     -0.638552      1.424779
  O       4.818660      0.398900      1.356371
  N       6.840986     -0.662862      1.392285
  H       6.739720     -4.337333      2.384557
  H       6.763477     -2.751499      2.986335
  H       3.807155     -1.781045      1.391553
  H       7.336268     -1.524472      1.207542
  H       7.280341      0.215018      1.156945
  O      -0.053431      2.691842      0.664659
  N      -2.468965      0.787960      0.114715
  N       1.206965      0.848836      0.069348
  N       0.322947     -1.269909     -0.563663
  N      -2.113892     -1.336037     -0.521683
  N       2.613374     -0.918407     -0.519963
  C      -1.100844      0.622929      0.032612
  C      -0.903300     -0.702894     -0.362787
  C      -0.022016      1.518030      0.294082
  C       1.332801     -0.467960     -0.340909
  C      -3.015461     -0.415419     -0.228066
  H      -2.951703      1.634899      0.378530
  H       2.035139      1.393469      0.287432
  H      -4.086112     -0.570350     -0.249480
  H       2.732830     -1.903685     -0.697808
  H       3.406770     -0.319253     -0.347314
28
Coordinates from ORCA-job biuret_guanine_opt_freq E -936.098472778055
  N       6.567636     -3.362358      2.209228
  C       5.281271     -3.199104      1.694305
  O       4.582558     -4.133290      1.344808
  N       4.835366     -1.871232      1.566540
  C       5.508481     -0.638977      1.412884
  O       4.846155      0.392081      1.295012
  N       6.872642     -0.657551      1.430235
  H       6.768633     -4.340737      2.385425
  H       6.824316     -2.756966      2.982823
  H       3.837069     -1.788730      1.398724
  H       7.370958     -1.523545      1.270424
  H       7.306364      0.206400      1.137253
  O      -0.058693      2.676854      0.708487
  N      -2.487640      0.798840      0.118517
  N       1.188908      0.836854      0.078658
  N       0.292347     -1.262614     -0.598140
  N      -2.144257     -1.314057     -0.559909
  N       2.584863     -0.928257     -0.544206
  C      -1.120257      0.627735      0.033955
  C      -0.929853     -0.691478     -0.387520
  C      -0.036584      1.510206      0.315443
  C       1.307497     -0.471704     -0.357933
  C      -3.040638     -0.394236     -0.248718
  H      -2.965620      1.643475      0.397882
  H       2.020244      1.374277      0.302497
  H      -4.112101     -0.542892     -0.274434
  H       2.691574     -1.911125     -0.743572
  H       3.380419     -0.336380     -0.356530
28
Coordinates from ORCA-job biuret_guanine_opt_freq E -936.099092868906
  N       6.594594     -3.368261      2.227588
  C       5.305710     -3.194971      1.723361
  O       4.589788     -4.124466      1.396629
  N       4.869314     -1.868985      1.585920
  C       5.541144     -0.642135      1.398162
  O       4.873224      0.377527      1.223182
  N       6.906211     -0.648964      1.456812
  H       6.790217     -4.348601      2.395965
  H       6.871388     -2.768000      2.997624
  H       3.872453     -1.794983      1.403082
  H       7.411436     -1.513900      1.309467
  H       7.334608      0.204911      1.126488
  O      -0.063744      2.659467      0.756143
  N      -2.506393      0.808270      0.125208
  N       1.170749      0.824164      0.088575
  N       0.261940     -1.254300     -0.633921
  N      -2.173821     -1.291260     -0.599503
  N       2.555971     -0.936687     -0.569364
  C      -1.139532      0.631331      0.037507
  C      -0.955886     -0.679800     -0.412436
  C      -0.051019      1.501246      0.338155
  C       1.282093     -0.475056     -0.375244
  C      -3.065468     -0.373312     -0.268947
  H      -2.979510      1.649818      0.421497
  H       2.004353      1.355275      0.318971
  H      -4.137665     -0.515762     -0.299107
  H       2.653773     -1.914697     -0.795556
  H       3.355732     -0.356376     -0.364121
28
Coordinates from ORCA-job biuret_guanine_opt_freq E -936.099640695224
  N       6.622659     -3.363338      2.251298
  C       5.334335     -3.192674      1.753119
  O       4.611566     -4.121155      1.435042
  N       4.900588     -1.870815      1.605032
  C       5.566152     -0.652911      1.383530
  O       4.893533      0.351612      1.147428
  N       6.931367     -0.646202      1.475897
  H       6.828415     -4.342838      2.408590
  H       6.911086     -2.761108      3.014613
  H       3.905302     -1.805048      1.407401
  H       7.445598     -1.507432      1.335915
  H       7.358189      0.203794      1.132495
  O      -0.066710      2.639895      0.803781
  N      -2.523246      0.821305      0.131212
  N       1.153954      0.808746      0.100132
  N       0.230013     -1.247109     -0.666889
  N      -2.205651     -1.264362     -0.639439
  N       2.526066     -0.948369     -0.592356
  C      -1.157454      0.634487      0.043552
  C      -0.983368     -0.667391     -0.435697
  C      -0.062522      1.489474      0.364104
  C       1.256053     -0.481427     -0.390356
  C      -3.090957     -0.346552     -0.290831
  H      -2.989965      1.660561      0.443631
  H       1.990567      1.332838      0.335724
  H      -4.164175     -0.479418     -0.326846
  H       2.618178     -1.920015     -0.850085
  H       3.332089     -0.383055     -0.367856
28
Coordinates from ORCA-job biuret_guanine_opt_freq E -936.100025161843
  N       6.642185     -3.358384      2.289511
  C       5.363575     -3.196355      1.772964
  O       4.642494     -4.127336      1.455391
  N       4.925442     -1.876345      1.614440
  C       5.582632     -0.665068      1.364866
  O       4.906535      0.324029      1.077999
  N       6.947755     -0.642719      1.475784
  H       6.856971     -4.334943      2.450530
  H       6.921787     -2.745863      3.047344
  H       3.932608     -1.815965      1.403779
  H       7.472460     -1.497904      1.338652
  H       7.370720      0.210287      1.135258
  O      -0.067092      2.617724      0.855312
  N      -2.534726      0.830949      0.142470
  N       1.142164      0.794650      0.111754
  N       0.204745     -1.238090     -0.700068
  N      -2.230872     -1.238085     -0.677683
  N       2.502419     -0.956001     -0.615208
  C      -1.170098      0.636260      0.051409
  C      -1.004760     -0.655116     -0.457947
  C      -0.069258      1.477748      0.388504
  C       1.235687     -0.485977     -0.405671
  C      -3.110227     -0.322219     -0.308609
  H      -2.995682      1.666301      0.473296
  H       1.981690      1.310951      0.354076
  H      -4.184349     -0.446123     -0.348984
  H       2.592480     -1.918365     -0.906063
  H       3.314375     -0.406547     -0.370968
28
Coordinates from ORCA-job biuret_guanine_opt_freq E -936.100318689651
  N       6.664452     -3.342679      2.325368
  C       5.392505     -3.203312      1.792638
  O       4.687984     -4.143454      1.465286
  N       4.941235     -1.886233      1.621737
  C       5.589422     -0.679800      1.344643
  O       4.911730      0.294714      1.014585
  N       6.953429     -0.642827      1.469510
  H       6.897000     -4.312865      2.499343
  H       6.928258     -2.710461      3.072479
  H       3.951327     -1.830851      1.399572
  H       7.487212     -1.494036      1.344929
  H       7.372733      0.211896      1.129436
  O      -0.064354      2.592321      0.909318
  N      -2.542405      0.843561      0.150853
  N       1.133651      0.777130      0.128444
  N       0.181241     -1.230167     -0.729673
  N      -2.255080     -1.208281     -0.716988
  N       2.481195     -0.966296     -0.634856
  C      -1.179525      0.636836      0.062704
  C      -1.024584     -0.642432     -0.478416
  C      -0.072043      1.460800      0.421917
  C       1.217600     -0.493258     -0.417462
  C      -3.127226     -0.292926     -0.329824
  H      -2.996901      1.675403      0.499021
  H       1.977452      1.284017      0.375803
  H      -4.202364     -0.404844     -0.377191
  H       2.569270     -1.918244     -0.959534
  H       3.298444     -0.432219     -0.371503
28
Coordinates from ORCA-job biuret_guanine_opt_freq E -936.100597405532
  N       6.678165     -3.323753      2.375396
  C       5.419460     -3.212656      1.809136
  O       4.738592     -4.165731      1.472590
  N       4.950922     -1.898568      1.621951
  C       5.591094     -0.694788      1.316229
  O       4.912331      0.264561      0.946725
  N       6.953330     -0.640498      1.452472
  H       6.924033     -4.284689      2.579770
  H       6.914960     -2.663668      3.107326
  H       3.965120     -1.847659      1.386446
  H       7.497324     -1.488001      1.352278
  H       7.366312      0.213398      1.103409
  O      -0.056654      2.556519      0.980873
  N      -2.545030      0.850971      0.170324
  N       1.129915      0.757638      0.146095
  N       0.162393     -1.216471     -0.771707
  N      -2.274438     -1.174089     -0.763101
  N       2.464713     -0.973662     -0.662083
  C      -1.184105      0.636198      0.075354
  C      -1.039528     -0.626715     -0.504964
  C      -0.069978      1.442101      0.455190
  C       1.204171     -0.498224     -0.436229
  C      -3.139105     -0.264126     -0.347746
  H      -2.993122      1.674798      0.544874
  H       1.978583      1.251208      0.403523
  H      -4.215169     -0.364736     -0.399373
  H       2.550926     -1.911099     -1.026800
  H       3.286444     -0.456764     -0.375818
28
Coordinates from ORCA-job biuret_guanine_opt_freq E -936.100871935639
  N       6.685993     -3.298576      2.426831
  C       5.441653     -3.219946      1.825144
  O       4.791049     -4.188594      1.478482
  N       4.954016     -1.911164      1.617635
  C       5.586937     -0.709264      1.281794
  O       4.906099      0.235349      0.881305
  N       6.946898     -0.635978      1.424878
  H       6.944312     -4.248040      2.666292
  H       6.895038     -2.609563      3.140293
  H       3.972115     -1.865734      1.370571
  H       7.502014     -1.479668      1.364887
  H       7.351969      0.211794      1.052729
  O      -0.044637      2.513960      1.059835
  N      -2.543408      0.858852      0.186504
  N       1.130125      0.732116      0.173086
  N       0.147982     -1.203334     -0.810551
  N      -2.288955     -1.136971     -0.811780
  N       2.452607     -0.982249     -0.687018
  C      -1.184575      0.631727      0.094402
  C      -1.049838     -0.611201     -0.529458
  C      -0.064292      1.413328      0.505768
  C       1.195094     -0.505502     -0.450172
  C      -3.146281     -0.232412     -0.370731
  H      -2.985316      1.674016      0.586516
  H       1.984124      1.211976      0.438690
  H      -4.223076     -0.319668     -0.430949
  H       2.536480     -1.902400     -1.093629
  H       3.277529     -0.481362     -0.379213
28
Coordinates from ORCA-job biuret_guanine_opt_freq E -936.101132801115
  N       6.680927     -3.267614      2.475419
  C       5.450419     -3.220959      1.841579
  O       4.831133     -4.205662      1.486972
  N       4.947301     -1.920148      1.609484
  C       5.576639     -0.721912      1.245058
  O       4.893935      0.210276      0.819901
  N       6.933535     -0.632076      1.395846
  H       6.950189     -4.205772      2.745242
  H       6.865050     -2.555954      3.173273
  H       3.968687     -1.881302      1.351258
  H       7.498033     -1.471460      1.392481
  H       7.334426      0.201778      0.989373
  O      -0.026853      2.466222      1.140925
  N      -2.535423      0.859066      0.210658
  N       1.136840      0.706990      0.196260
  N       0.142212     -1.186921     -0.854338
  N      -2.294430     -1.101893     -0.857173
  N       2.448760     -0.988746     -0.714265
  C      -1.178287      0.626544      0.110344
  C      -1.051759     -0.595515     -0.555013
  C      -0.052924      1.387592      0.545372
  C       1.194033     -0.510268     -0.467781
  C      -3.145615     -0.207286     -0.385534
  H      -2.972156      1.661972      0.640090
  H       1.995585      1.171209      0.474177
  H      -4.222944     -0.284522     -0.449854
  H       2.529165     -1.890413     -1.161094
  H       3.275184     -0.501732     -0.386522
28
Coordinates from ORCA-job biuret_guanine_opt_freq E -936.101436628135
  N       6.664528     -3.232854      2.524476
  C       5.450873     -3.214868      1.855219
  O       4.857059     -4.215742      1.503862
  N       4.936152     -1.924681      1.594490
  C       5.563383     -0.731869      1.201344
  O       4.875836      0.189084      0.757985
  N       6.917228     -0.625393      1.353212
  H       6.939465     -4.161704      2.819307
  H       6.822166     -2.507835      3.214878
  H       3.958961     -1.895423      1.328471
  H       7.491008     -1.455783      1.418015
  H       7.315213      0.188835      0.906160
  O      -0.004765      2.412016      1.227531
  N      -2.522877      0.856561      0.232677
  N       1.148212      0.676997      0.226920
  N       0.143808     -1.171017     -0.893928
  N      -2.291607     -1.067620     -0.902018
  N       2.451617     -0.994267     -0.738471
  C      -1.166980      0.616737      0.131427
  C      -1.046291     -0.581523     -0.577408
  C      -0.038095      1.352902      0.598327
  C       1.199469     -0.515772     -0.480407
  C      -3.138217     -0.183947     -0.402569
  H      -2.955586      1.646239      0.689791
  H       2.010678      1.126833      0.516891
  H      -4.215764     -0.251206     -0.474244
  H       2.527862     -1.875030     -1.225250
  H       3.278323     -0.518175     -0.394550
28
Coordinates from ORCA-job biuret_guanine_opt_freq E -936.101744164031
  N       6.643494     -3.193869      2.559676
  C       5.439364     -3.200996      1.871287
  O       4.864078     -4.216237      1.528905
  N       4.918737     -1.923890      1.579284
  C       5.545492     -0.740236      1.160351
  O       4.852471      0.170943      0.701559
  N       6.896152     -0.622396      1.312185
  H       6.928971     -4.117301      2.861460
  H       6.779391     -2.467980      3.253615
  H       3.940974     -1.907806      1.309170
  H       7.475526     -1.440650      1.445292
  H       7.297456      0.172481      0.834605
  O       0.019883      2.359573      1.304604
  N      -2.506741      0.850569      0.254266
  N       1.163390      0.648622      0.253412
  N       0.151557     -1.156427     -0.928906
  N      -2.282477     -1.038476     -0.939366
  N       2.460206     -1.000239     -0.757440
  C      -1.151556      0.607046      0.148460
  C      -1.035196     -0.569740     -0.596670
  C      -0.020197      1.322058      0.640918
  C       1.210310     -0.520961     -0.490872
  C      -3.125783     -0.166346     -0.414598
  H      -2.936309      1.627115      0.736116
  H       2.028054      1.085238      0.557054
  H      -4.203419     -0.226010     -0.491449
  H       2.531291     -1.861555     -1.278075
  H       3.286541     -0.531038     -0.402705
28
Coordinates from ORCA-job biuret_guanine_opt_freq E -936.102025639309
  N       6.627428     -3.160378      2.583825
  C       5.427787     -3.185896      1.886771
  O       4.857192     -4.211660      1.565103
  N       4.904524     -1.920575      1.565969
  C       5.529527     -0.746163      1.125222
  O       4.829876      0.154924      0.650643
  N       6.877811     -0.621100      1.273580
  H       6.921202     -4.081939      2.883811
  H       6.743991     -2.440849      3.288000
  H       3.924981     -1.920483      1.295434
  H       7.459940     -1.428057      1.454575
  H       7.283806      0.164403      0.785238
  O       0.040261      2.314069      1.367914
  N      -2.492579      0.845029      0.270128
  N       1.176745      0.623849      0.276754
  N       0.160177     -1.144557     -0.955414
  N      -2.272519     -1.014486     -0.969997
  N       2.469232     -1.005339     -0.769462
  C      -1.137760      0.597753      0.162832
  C      -1.024061     -0.560514     -0.611676
  C      -0.005011      1.293767      0.678353
  C       1.221008     -0.525683     -0.497110
  C      -3.113723     -0.151914     -0.426094
  H      -2.919963      1.610985      0.770457
  H       2.041887      1.051087      0.592434
  H      -4.191308     -0.204978     -0.508362
  H       2.535145     -1.849051     -1.318188
  H       3.296063     -0.540751     -0.408601
28
Coordinates from ORCA-job biuret_guanine_opt_freq E -936.102268241397
  N       6.620636     -3.135957      2.588718
  C       5.415007     -3.173701      1.901425
  O       4.839880     -4.205380      1.604892
  N       4.890406     -1.917416      1.556353
  C       5.512401     -0.749908      1.103233
  O       4.809888      0.144423      0.619289
  N       6.859209     -0.624000      1.244380
  H       6.921655     -4.057863      2.881292
  H       6.726724     -2.425014      3.303571
  H       3.908734     -1.934468      1.289746
  H       7.441135     -1.425915      1.446965
  H       7.269869      0.166060      0.768209
  O       0.053515      2.286110      1.405689
  N      -2.481151      0.840510      0.278293
  N       1.187678      0.609108      0.292239
  N       0.170184     -1.137731     -0.969195
  N      -2.261925     -1.001139     -0.988481
  N       2.479335     -1.009011     -0.770664
  C      -1.126343      0.591740      0.170654
  C      -1.013261     -0.555591     -0.620240
  C       0.006538      1.276669      0.700276
  C       1.231685     -0.528875     -0.497924
  C      -3.102593     -0.144587     -0.434142
  H      -2.907804      1.600595      0.788074
  H       2.051708      1.031924      0.616962
  H      -4.180061     -0.193907     -0.520238
  H       2.541733     -1.840305     -1.337486
  H       3.306877     -0.544877     -0.409754
28
Coordinates from ORCA-job biuret_guanine_opt_freq E -936.102471805838
  N       6.630617     -3.118245      2.593551
  C       5.415057     -3.166634      1.922077
  O       4.830692     -4.201136      1.655666
  N       4.887632     -1.917192      1.553872
  C       5.504799     -0.752565      1.085394
  O       4.798281      0.131319      0.581856
  N       6.850835     -0.627022      1.225327
  H       6.931455     -4.039617      2.889270
  H       6.728113     -2.409598      3.312596
  H       3.906195     -1.952465      1.286934
  H       7.429740     -1.430514      1.430668
  H       7.265060      0.169675      0.764262
  O       0.058275      2.257030      1.443495
  N      -2.477539      0.839027      0.284526
  N       1.190461      0.594808      0.306273
  N       0.171090     -1.127926     -0.986175
  N      -2.260581     -0.982134     -1.012012
  N       2.480247     -1.011787     -0.774933
  C      -1.123161      0.587298      0.177032
  C      -1.011531     -0.547288     -0.632270
  C       0.010494      1.259067      0.721621
  C       1.233391     -0.531015     -0.501464
  C      -3.099971     -0.131615     -0.446503
  H      -2.903011      1.593314      0.803796
  H       2.053841      1.012576      0.639267
  H      -4.177333     -0.175311     -0.536997
  H       2.537486     -1.828345     -1.363587
  H       3.311025     -0.552210     -0.411405
28
Coordinates from ORCA-job biuret_guanine_opt_freq E -936.102619857024
  N       6.635647     -3.112206      2.580006
  C       5.406638     -3.166369      1.930767
  O       4.811522     -4.201339      1.693847
  N       4.876156     -1.921117      1.545249
  C       5.489039     -0.753603      1.082789
  O       4.789215      0.133664      0.588064
  N       6.835744     -0.634471      1.208766
  H       6.931354     -4.032087      2.886794
  H       6.735384     -2.397786      3.293603
  H       3.894883     -1.971623      1.284036
  H       7.413007     -1.443490      1.395981
  H       7.248564      0.179229      0.777462
  O       0.057888      2.254863      1.449481
  N      -2.472286      0.835651      0.283163
  N       1.195779      0.596391      0.312596
  N       0.181535     -1.126415     -0.983650
  N      -2.250861     -0.983271     -1.015489
  N       2.490324     -1.009153     -0.764495
  C      -1.117603      0.585740      0.178143
  C      -1.003133     -0.547575     -0.632231
  C       0.014323      1.257683      0.726032
  C       1.242199     -0.529387     -0.495897
  C      -3.092226     -0.134365     -0.450813
  H      -2.899586      1.590196      0.800585
  H       2.057199      1.015335      0.649057
  H      -4.169377     -0.178648     -0.543560
  H       2.549156     -1.819590     -1.360305
  H       3.321176     -0.544765     -0.407843
28
Coordinates from ORCA-job biuret_guanine_opt_freq E -936.102786363658
  N       6.650655     -3.104920      2.589549
  C       5.416073     -3.168736      1.949060
  O       4.819653     -4.205506      1.729859
  N       4.881550     -1.928662      1.545809
  C       5.490172     -0.757818      1.074480
  O       4.789649      0.123122      0.566622
  N       6.837336     -0.637473      1.205519
  H       6.940593     -4.018349      2.920784
  H       6.751205     -2.373748      3.286240
  H       3.904082     -1.990016      1.277050
  H       7.413863     -1.448970      1.384428
  H       7.247592      0.176395      0.771939
  O       0.055533      2.231145      1.479380
  N      -2.475359      0.836515      0.288521
  N       1.191724      0.586132      0.321464
  N       0.174797     -1.115272     -1.000854
  N      -2.257349     -0.963206     -1.037046
  N       2.483481     -1.009196     -0.773978
  C      -1.121542      0.583646      0.182862
  C      -1.009071     -0.537636     -0.644181
  C       0.011741      1.244227      0.741811
  C       1.236262     -0.529049     -0.502674
  C      -3.097011     -0.120002     -0.461658
  H      -2.901330      1.585786      0.814655
  H       2.054461      0.998464      0.662629
  H      -4.174117     -0.158884     -0.557323
  H       2.539797     -1.805452     -1.390373
  H       3.317218     -0.551046     -0.412436
28
Coordinates from ORCA-job biuret_guanine_opt_freq E -936.103037580818
  N       6.662499     -3.095072      2.608291
  C       5.425942     -3.173872      1.971000
  O       4.830847     -4.214938      1.775735
  N       4.887161     -1.943885      1.538963
  C       5.490529     -0.766231      1.065382
  O       4.791674      0.112601      0.553257
  N       6.839252     -0.643904      1.200882
  H       6.942065     -3.994023      2.984887
  H       6.770741     -2.330660      3.267261
  H       3.915621     -2.019200      1.257544
  H       7.417925     -1.457273      1.363291
  H       7.241375      0.167698      0.754976
  O       0.052938      2.198763      1.520244
  N      -2.478438      0.835339      0.297772
  N       1.187518      0.573519      0.333203
  N       0.168262     -1.098711     -1.024353
  N      -2.263441     -0.937055     -1.064416
  N       2.476571     -1.006277     -0.788307
  C      -1.125592      0.580033      0.190488
  C      -1.014779     -0.524137     -0.659337
  C       0.008950      1.226124      0.763874
  C       1.230276     -0.526225     -0.512510
  C      -3.101585     -0.102788     -0.474315
  H      -2.903250      1.576405      0.836348
  H       2.052430      0.975702      0.680732
  H      -4.178579     -0.135630     -0.573407
  H       2.532492     -1.780884     -1.432411
  H       3.312255     -0.553924     -0.422935
28
Coordinates from ORCA-job biuret_guanine_opt_freq E -936.103360217225
  N       6.666591     -3.075612      2.642496
  C       5.434384     -3.176682      2.000402
  O       4.843606     -4.225193      1.836062
  N       4.893352     -1.966140      1.520935
  C       5.490077     -0.780544      1.051632
  O       4.792479      0.099612      0.543076
  N       6.841183     -0.654636      1.190913
  H       6.932732     -3.950915      3.078895
  H       6.788044     -2.268348      3.245314
  H       3.929958     -2.061894      1.220658
  H       7.424848     -1.469187      1.327049
  H       7.230732      0.153282      0.726361
  O       0.053548      2.149449      1.579399
  N      -2.479800      0.831491      0.312934
  N       1.184684      0.553705      0.349801
  N       0.162240     -1.074759     -1.057872
  N      -2.268453     -0.900366     -1.100900
  N       2.469867     -1.002133     -0.809770
  C      -1.128037      0.573400      0.202315
  C      -1.019322     -0.505463     -0.679653
  C       0.007936      1.198567      0.796005
  C       1.224912     -0.522136     -0.526609
  C      -3.104789     -0.080395     -0.488798
  H      -2.902974      1.559786      0.869945
  H       2.052278      0.940425      0.707872
  H      -4.181614     -0.105530     -0.591844
  H       2.526530     -1.744154     -1.491298
  H       3.306668     -0.554139     -0.443182
28
Coordinates from ORCA-job biuret_guanine_opt_freq E -936.103737379025
  N       6.658451     -3.042451      2.692164
  C       5.439524     -3.173388      2.035301
  O       4.854881     -4.231606      1.908208
  N       4.899908     -1.992812      1.490855
  C       5.488490     -0.800901      1.031462
  O       4.789713      0.082360      0.532076
  N       6.841929     -0.668579      1.174567
  H       6.910749     -3.887106      3.191474
  H       6.797282     -2.192128      3.227363
  H       3.946768     -2.114679      1.166755
  H       7.433022     -1.482666      1.278006
  H       7.218065      0.137989      0.695399
  O       0.060984      2.080779      1.654561
  N      -2.477404      0.824960      0.334649
  N       1.185119      0.524038      0.369675
  N       0.156919     -1.044826     -1.100228
  N      -2.272152     -0.853340     -1.143277
  N       2.463748     -0.999903     -0.838849
  C      -1.126923      0.562922      0.218091
  C      -1.021988     -0.482469     -0.703842
  C       0.011121      1.159471      0.837029
  C       1.220981     -0.518918     -0.545296
  C      -3.105428     -0.051535     -0.503494
  H      -2.897670      1.535460      0.916301
  H       2.055416      0.889858      0.742800
  H      -4.182047     -0.066288     -0.610518
  H       2.521062     -1.699395     -1.563972
  H       3.301138     -0.553352     -0.475118
28
Coordinates from ORCA-job biuret_guanine_opt_freq E -936.104142995658
  N       6.636504     -2.993697      2.753753
  C       5.441309     -3.162846      2.072087
  O       4.866107     -4.232309      1.982729
  N       4.906638     -2.020833      1.452306
  C       5.485426     -0.826223      1.003964
  O       4.781619      0.058165      0.513034
  N       6.839592     -0.682030      1.152208
  H       6.878900     -3.806156      3.307219
  H       6.791286     -2.108013      3.221407
  H       3.965590     -2.171406      1.102032
  H       7.440752     -1.492153      1.226314
  H       7.206018      0.129318      0.672457
  O       0.078273      1.992387      1.740158
  N      -2.469443      0.818194      0.361500
  N       1.190074      0.482142      0.390436
  N       0.151356     -1.011184     -1.149038
  N      -2.275390     -0.795373     -1.188425
  N       2.457495     -1.004060     -0.875264
  C      -1.120872      0.548939      0.236475
  C      -1.023118     -0.455988     -0.730285
  C       0.020664      1.108192      0.883365
  C       1.218321     -0.519878     -0.568265
  C      -3.103199     -0.015404     -0.515129
  H      -2.884487      1.506620      0.972686
  H       2.062888      0.821492      0.782419
  H      -4.179633     -0.016138     -0.624910
  H       2.513371     -1.654217     -1.645052
  H       3.295619     -0.556049     -0.518043
28
Coordinates from ORCA-job biuret_guanine_opt_freq E -936.104427674035
  N       6.614354     -2.943412      2.808763
  C       5.445329     -3.150980      2.102123
  O       4.881844     -4.230634      2.041268
  N       4.915246     -2.043365      1.419909
  C       5.483370     -0.848417      0.976280
  O       4.771376      0.030608      0.483717
  N       6.834878     -0.687804      1.134069
  H       6.855261     -3.732459      3.395029
  H       6.774244     -2.036153      3.229417
  H       3.985522     -2.218470      1.048258
  H       7.445790     -1.491909      1.194158
  H       7.198752      0.132751      0.668111
  O       0.100040      1.905390      1.813086
  N      -2.459434      0.815451      0.386502
  N       1.195921      0.436170      0.406021
  N       0.142758     -0.982329     -1.193015
  N      -2.281487     -0.738255     -1.225339
  N       2.448618     -1.016710     -0.911465
  C      -1.113563      0.535917      0.252043
  C      -1.026107     -0.431239     -0.753419
  C       0.032821      1.056212      0.922423
  C       1.214043     -0.526941     -0.591016
  C      -3.101261      0.024980     -0.523359
  H      -2.867418      1.482535      1.025466
  H       2.070919      0.749229      0.814942
  H      -4.177443      0.040908     -0.634423
  H       2.498788     -1.622983     -1.716513
  H       3.288499     -0.566597     -0.560896
28
Coordinates from ORCA-job biuret_guanine_opt_freq E -936.104622374427
  N       6.599663     -2.903407      2.852584
  C       5.454031     -3.143819      2.124370
  O       4.903903     -4.231992      2.079659
  N       4.927232     -2.060912      1.397596
  C       5.484108     -0.863799      0.954337
  O       4.763459      0.004543      0.452038
  N       6.830507     -0.684127      1.125447
  H       6.843059     -3.676812      3.457983
  H       6.755568     -1.982893      3.243695
  H       4.007599     -2.255308      1.009984
  H       7.450283     -1.481589      1.182669
  H       7.193750      0.146029      0.676824
  O       0.120642      1.831990      1.866413
  N      -2.450655      0.818532      0.405628
  N       1.199631      0.393763      0.414825
  N       0.130667     -0.960164     -1.228698
  N      -2.290906     -0.686595     -1.253489
  N       2.436314     -1.034618     -0.943838
  C      -1.108143      0.526706      0.262775
  C      -1.032245     -0.409966     -0.771898
  C       0.043794      1.011888      0.949683
  C       1.206758     -0.537468     -0.611779
  C      -3.101844      0.062858     -0.526700
  H      -2.850921      1.468638      1.066597
  H       2.076867      0.683598      0.836087
  H      -4.177751      0.094869     -0.636944
  H       2.477844     -1.605913     -1.774070
  H       3.278444     -0.582541     -0.599639
28
Coordinates from ORCA-job biuret_guanine_opt_freq E -936.104827062449
  N       6.588069     -2.863452      2.894784
  C       5.468095     -3.140050      2.143173
  O       4.936127     -4.237579      2.109586
  N       4.944117     -2.080166      1.375749
  C       5.485678     -0.876387      0.933942
  O       4.755500     -0.024209      0.416661
  N       6.824259     -0.671978      1.125360
  H       6.834104     -3.620634      3.519130
  H       6.730569     -1.930661      3.260140
  H       4.036164     -2.295401      0.972506
  H       7.454420     -1.460755      1.187936
  H       7.185700      0.168776      0.696208
  O       0.145420      1.756028      1.914378
  N      -2.440270      0.825464      0.425926
  N       1.203061      0.346435      0.419560
  N       0.113953     -0.939837     -1.264037
  N      -2.304217     -0.632407     -1.276864
  N       2.419077     -1.060806     -0.979767
  C      -1.102356      0.518610      0.272534
  C      -1.041284     -0.387697     -0.789546
  C       0.056910      0.965159      0.973227
  C       1.196117     -0.552772     -0.635225
  C      -3.103199      0.108636     -0.528489
  H      -2.830937      1.457874      1.109438
  H       2.083622      0.610605      0.850799
  H      -4.178564      0.160124     -0.636614
  H       2.448094     -1.596705     -1.833185
  H       3.263427     -0.604725     -0.645171
28
Coordinates from ORCA-job biuret_guanine_opt_freq E -936.105081748611
  N       6.573805     -2.818995      2.939644
  C       5.486426     -3.138892      2.158167
  O       4.981182     -4.248164      2.129866
  N       4.965657     -2.104154      1.349505
  C       5.484892     -0.887039      0.912941
  O       4.744163     -0.058269      0.374000
  N       6.811762     -0.648145      1.133986
  H       6.819668     -3.556553      3.587037
  H       6.688390     -1.873784      3.281505
  H       4.073130     -2.345113      0.928159
  H       7.456368     -1.423102      1.216639
  H       7.167278      0.204131      0.723906
  O       0.180817      1.669807      1.961443
  N      -2.423689      0.838199      0.449584
  N       1.209310      0.289098      0.420112
  N       0.093289     -0.919764     -1.302044
  N      -2.319368     -0.567609     -1.298587
  N       2.397115     -1.098562     -1.023472
  C      -1.092499      0.510681      0.283185
  C      -1.051253     -0.362972     -0.806617
  C       0.076782      0.911860      0.994896
  C       1.183362     -0.574892     -0.663709
  C      -3.102900      0.161159     -0.522384
  H      -2.801463      1.452551      1.156439
  H       2.095140      0.522209      0.858578
  H      -4.177449      0.235691     -0.625014
  H       2.408571     -1.593144     -1.901800
  H       3.243174     -0.634739     -0.703823
28
Coordinates from ORCA-job biuret_guanine_opt_freq E -936.105383707055
  N       6.557146     -2.780042      2.977245
  C       5.508559     -3.142833      2.159233
  O       5.037959     -4.266080      2.125497
  N       4.991421     -2.129104      1.318255
  C       5.480433     -0.891537      0.897941
  O       4.729930     -0.091003      0.335521
  N       6.791077     -0.610132      1.158133
  H       6.798473     -3.499881      3.645955
  H       6.625742     -1.826479      3.308125
  H       4.115558     -2.397605      0.880294
  H       7.453357     -1.364928      1.277325
  H       7.135195      0.254281      0.764931
  O       0.227686      1.598599      1.989847
  N      -2.401042      0.855244      0.475358
  N       1.219441      0.233363      0.411284
  N       0.069940     -0.910887     -1.332009
  N      -2.336025     -0.514442     -1.303171
  N       2.372554     -1.147550     -1.068371
  C      -1.077980      0.505738      0.292649
  C      -1.060971     -0.343926     -0.816481
  C       0.103892      0.865508      1.006340
  C       1.169858     -0.603704     -0.692929
  C      -3.099520      0.215542     -0.508472
  H      -2.763297      1.455603      1.202109
  H       2.112778      0.436654      0.849597
  H      -4.172879      0.314351     -0.602601
  H       2.363471     -1.604932     -1.965754
  H       3.218903     -0.668325     -0.773715
28
Coordinates from ORCA-job biuret_guanine_opt_freq E -936.105627805629
  N       6.527016     -2.728492      3.018935
  C       5.524264     -3.139581      2.162684
  O       5.095405     -4.277356      2.122248
  N       5.010398     -2.157951      1.285752
  C       5.463922     -0.898328      0.876411
  O       4.705385     -0.131303      0.276623
  N       6.752767     -0.567594      1.183767
  H       6.757387     -3.426285      3.714471
  H       6.535055     -1.768717      3.339634
  H       4.158932     -2.457884      0.821720
  H       7.433231     -1.293551      1.362735
  H       7.081251      0.303400      0.792030
  O       0.291673      1.507178      2.025579
  N      -2.364555      0.868364      0.511784
  N       1.239781      0.166905      0.399635
  N       0.051800     -0.898107     -1.367480
  N      -2.344285     -0.448595     -1.307195
  N       2.351770     -1.199851     -1.125036
  C      -1.051605      0.494380      0.308375
  C      -1.062300     -0.322333     -0.825335
  C       0.144442      0.806354      1.021780
  C       1.162705     -0.635287     -0.728818
  C      -3.085570      0.270913     -0.482665
  H      -2.708224      1.452578      1.260416
  H       2.143053      0.336818      0.832130
  H      -4.157203      0.395979     -0.564275
  H       2.316939     -1.603119     -2.052217
  H       3.198225     -0.707043     -0.851550
28
Coordinates from ORCA-job biuret_guanine_opt_freq E -936.105694957940
  N       6.515823     -2.742025      3.015065
  C       5.550487     -3.161029      2.112526
  O       5.163862     -4.313462      2.029897
  N       5.035366     -2.166801      1.253243
  C       5.450407     -0.882033      0.892939
  O       4.691106     -0.140353      0.278113
  N       6.715375     -0.506241      1.248931
  H       6.737838     -3.452486      3.700897
  H       6.438025     -1.802638      3.385794
  H       4.187926     -2.481711      0.792084
  H       7.411441     -1.198129      1.490740
  H       7.022543      0.374735      0.862377
  O       0.352482      1.559999      1.966299
  N      -2.337667      0.898951      0.520839
  N       1.258345      0.165230      0.362290
  N       0.029921     -0.940421     -1.350844
  N      -2.360506     -0.469618     -1.259689
  N       2.334671     -1.253549     -1.143317
  C      -1.031749      0.508680      0.304915
  C      -1.069233     -0.341079     -0.803966
  C       0.180635      0.832001      0.986049
  C       1.153791     -0.667416     -0.741013
  C      -3.082188      0.273555     -0.438957
  H      -2.663440      1.506720      1.258657
  H       2.173273      0.335118      0.770085
  H      -4.154427      0.403235     -0.503465
  H       2.289924     -1.666027     -2.059085
  H       3.177631     -0.731710     -0.919264
28
Coordinates from ORCA-job biuret_guanine_opt_freq E -936.105911753237
  N       6.504941     -2.719220      3.026744
  C       5.543256     -3.149929      2.128526
  O       5.156885     -4.302836      2.057829
  N       5.027971     -2.174255      1.252802
  C       5.443616     -0.892458      0.882759
  O       4.684545     -0.151782      0.257169
  N       6.706084     -0.513774      1.243780
  H       6.729568     -3.421603      3.719997
  H       6.434301     -1.774258      3.384337
  H       4.188674     -2.491988      0.778385
  H       7.404748     -1.203550      1.484458
  H       7.013548      0.365901      0.854114
  O       0.361365      1.521136      1.990166
  N      -2.330346      0.888169      0.535237
  N       1.263953      0.149492      0.364230
  N       0.032733     -0.926985     -1.365871
  N      -2.356668     -0.452171     -1.266553
  N       2.336095     -1.251135     -1.159771
  C      -1.025200      0.498364      0.312763
  C      -1.064643     -0.332031     -0.810561
  C       0.187514      0.808203      0.999359
  C       1.157239     -0.666062     -0.751376
  C      -3.075062      0.288226     -0.440362
  H      -2.654358      1.485183      1.282534
  H       2.179661      0.312710      0.773131
  H      -4.146579      0.423960     -0.504536
  H       2.287242     -1.641454     -2.090534
  H       3.180574     -0.734359     -0.926613
28
Coordinates from ORCA-job biuret_guanine_opt_freq E -936.105991776381
  N       6.500447     -2.717151      3.027542
  C       5.540746     -3.148092      2.128461
  O       5.157517     -4.302361      2.055589
  N       5.022147     -2.175302      1.253705
  C       5.438212     -0.895379      0.883100
  O       4.681163     -0.156348      0.248890
  N       6.696836     -0.511488      1.250850
  H       6.731911     -3.424156      3.713927
  H       6.424611     -1.776465      3.395485
  H       4.184173     -2.490866      0.775297
  H       7.399056     -1.196476      1.494918
  H       7.002071      0.368678      0.860387
  O       0.370816      1.524612      1.984862
  N      -2.325386      0.886342      0.540086
  N       1.269138      0.151917      0.357196
  N       0.032798     -0.930149     -1.366154
  N      -2.356181     -0.454697     -1.261091
  N       2.337197     -1.251254     -1.166205
  C      -1.020579      0.496629      0.314237
  C      -1.062970     -0.334662     -0.808337
  C       0.193875      0.809948      0.995975
  C       1.159097     -0.666325     -0.755793
  C      -3.072664      0.284868     -0.432441
  H      -2.646658      1.486972      1.285653
  H       2.186520      0.318004      0.761387
  H      -4.144472      0.419803     -0.493468
  H       2.289118     -1.638744     -2.099847
  H       3.183118     -0.736365     -0.932073
28
Coordinates from ORCA-job biuret_guanine_opt_freq E -936.106108537760
  N       6.493535     -2.719111      3.023085
  C       5.540469     -3.150399      2.117201
  O       5.170768     -4.308952      2.032162
  N       5.013279     -2.177438      1.250587
  C       5.424247     -0.895912      0.889436
  O       4.672748     -0.163764      0.237769
  N       6.669775     -0.494921      1.280829
  H       6.738661     -3.438619      3.691848
  H       6.393075     -1.792708      3.421074
  H       4.177096     -2.489877      0.766607
  H       7.379606     -1.166974      1.538597
  H       6.968033      0.388816      0.892959
  O       0.399080      1.549315      1.957692
  N      -2.311241      0.888767      0.549449
  N       1.282614      0.160202      0.335396
  N       0.029512     -0.946936     -1.360367
  N      -2.358474     -0.470864     -1.237360
  N       2.336659     -1.261315     -1.179160
  C      -1.008125      0.497592      0.314763
  C      -1.060904     -0.345298     -0.798705
  C       0.212503      0.822684      0.979546
  C       1.161537     -0.672715     -0.765065
  C      -3.067202      0.277826     -0.410158
  H      -2.624271      1.502646      1.287684
  H       2.204760      0.333151      0.726030
  H      -4.139682      0.411276     -0.462115
  H       2.289000     -1.650378     -2.113115
  H       3.184601     -0.744602     -0.954529
28
Coordinates from ORCA-job biuret_guanine_opt_freq E -936.106185026562
  N       6.489291     -2.721889      3.018119
  C       5.542951     -3.154350      2.104354
  O       5.187864     -4.316462      2.006077
  N       5.006968     -2.177679      1.247497
  C       5.411786     -0.892185      0.895186
  O       4.665223     -0.169262      0.227338
  N       6.642740     -0.474017      1.312267
  H       6.745273     -3.452194      3.671293
  H       6.362877     -1.810137      3.442304
  H       4.172201     -2.488253      0.759639
  H       7.356752     -1.135864      1.584710
  H       6.936525      0.412495      0.927323
  O       0.426634      1.569933      1.931826
  N      -2.296773      0.894358      0.557037
  N       1.294883      0.164051      0.315482
  N       0.025142     -0.962896     -1.355053
  N      -2.361261     -0.482679     -1.215840
  N       2.334141     -1.275571     -1.191412
  C      -0.996025      0.499935      0.314168
  C      -1.059729     -0.354371     -0.789955
  C       0.230799      0.832807      0.963437
  C       1.162718     -0.681802     -0.773771
  C      -3.061958      0.273984     -0.389015
  H      -2.601617      1.520341      1.288503
  H       2.221171      0.340528      0.694904
  H      -4.134840      0.407365     -0.432234
  H       2.284236     -1.668577     -2.123433
  H       3.183688     -0.756113     -0.978613
28
Coordinates from ORCA-job biuret_guanine_opt_freq E -936.106283769420
  N       6.481525     -2.723432      3.011412
  C       5.542113     -3.157884      2.089150
  O       5.203984     -4.323074      1.975776
  N       4.996528     -2.176718      1.242355
  C       5.394047     -0.884823      0.901143
  O       4.654700     -0.172717      0.215803
  N       6.605562     -0.445545      1.351348
  H       6.747288     -3.464190      3.649146
  H       6.328310     -1.827355      3.459914
  H       4.164785     -2.486543      0.748944
  H       7.323148     -1.098185      1.636832
  H       6.895405      0.444211      0.970879
  O       0.462786      1.587816      1.904024
  N      -2.275788      0.900981      0.567233
  N       1.312063      0.163884      0.293306
  N       0.022146     -0.980610     -1.349788
  N      -2.362141     -0.494913     -1.189866
  N       2.332478     -1.295731     -1.206923
  C      -0.978394      0.502383      0.313724
  C      -1.055807     -0.363963     -0.779971
  C       0.255989      0.840570      0.945669
  C       1.166316     -0.694762     -0.784405
  C      -3.052437      0.271711     -0.363466
  H      -2.570716      1.539607      1.291810
  H       2.242779      0.341289      0.661686
  H      -4.125579      0.406023     -0.395988
  H       2.277475     -1.694252     -2.135817
  H       3.183097     -0.772282     -1.011789
28
Coordinates from ORCA-job biuret_guanine_opt_freq E -936.106359296382
  N       6.473580     -2.725483      3.004262
  C       5.538995     -3.158742      2.074175
  O       5.213610     -4.325322      1.945689
  N       4.984438     -2.169572      1.240714
  C       5.378236     -0.873004      0.905469
  O       4.645850     -0.171295      0.203799
  N       6.571112     -0.417665      1.388714
  H       6.745784     -3.475409      3.628744
  H       6.300054     -1.842557      3.471282
  H       4.155043     -2.478435      0.742596
  H       7.288615     -1.067328      1.682134
  H       6.863076      0.471731      1.008805
  O       0.496109      1.599008      1.881214
  N      -2.255399      0.906767      0.576199
  N       1.328266      0.159932      0.275126
  N       0.020569     -0.995880     -1.345749
  N      -2.361589     -0.504692     -1.167292
  N       2.331631     -1.315595     -1.221155
  C      -0.961321      0.504456      0.312857
  C      -1.051137     -0.372072     -0.771571
  C       0.279815      0.844162      0.930782
  C       1.170496     -0.708119     -0.793678
  C      -3.042371      0.270727     -0.341241
  H      -2.541772      1.555000      1.295668
  H       2.262655      0.336904      0.634760
  H      -4.115549      0.406558     -0.364378
  H       2.269031     -1.722783     -2.145194
  H       3.183831     -0.789797     -1.040593
28
Coordinates from ORCA-job biuret_guanine_opt_freq E -936.106459087285
  N       6.448850     -2.721023      2.999528
  C       5.521044     -3.154155      2.061240
  O       5.205505     -4.321087      1.920651
  N       4.963361     -2.161795      1.232365
  C       5.354097     -0.859581      0.905827
  O       4.630957     -0.163807      0.191639
  N       6.527500     -0.387453      1.422500
  H       6.720051     -3.474350      3.620425
  H       6.266094     -1.841552      3.469438
  H       4.141006     -2.473879      0.724857
  H       7.247759     -1.035750      1.713422
  H       6.820039      0.502999      1.045109
  O       0.539712      1.594745      1.868893
  N      -2.225191      0.908118      0.591085
  N       1.353106      0.147595      0.260750
  N       0.026970     -1.008218     -1.344615
  N      -2.352497     -0.511351     -1.144457
  N       2.337721     -1.337638     -1.238874
  C      -0.934904      0.502654      0.315774
  C      -1.037839     -0.379300     -0.762948
  C       0.313252      0.837961      0.922160
  C       1.182628     -0.723455     -0.803870
  C      -3.023073      0.269701     -0.315423
  H      -2.502871      1.561407      1.309421
  H       2.291012      0.320788      0.613461
  H      -4.096111      0.407927     -0.328390
  H       2.263643     -1.749664     -2.159811
  H       3.189836     -0.808343     -1.078018
28
Coordinates from ORCA-job biuret_guanine_opt_freq E -936.106600059266
  N       6.414503     -2.719829      2.993764
  C       5.494945     -3.144630      2.043266
  O       5.185694     -4.310505      1.883704
  N       4.935124     -2.141432      1.227829
  C       5.329897     -0.838390      0.905131
  O       4.617245     -0.146474      0.177033
  N       6.485002     -0.357307      1.458005
  H       6.681505     -3.478073      3.610288
  H       6.225779     -1.843182      3.466378
  H       4.118667     -2.455349      0.711190
  H       7.204848     -1.010012      1.741898
  H       6.785979      0.529350      1.077559
  O       0.586526      1.592956      1.854237
  N      -2.192030      0.906762      0.606702
  N       1.381369      0.135770      0.246273
  N       0.037293     -1.023488     -1.341013
  N      -2.339750     -0.524886     -1.117174
  N       2.348126     -1.359155     -1.256197
  C      -0.905231      0.500035      0.318812
  C      -1.020754     -0.389784     -0.752086
  C       0.349980      0.832585      0.912599
  C       1.198626     -0.739471     -0.812762
  C      -3.000551      0.262876     -0.286708
  H      -2.461940      1.563908      1.324500
  H       2.323377      0.309574      0.588317
  H      -4.073557      0.401860     -0.288815
  H       2.258698     -1.783535     -2.169957
  H       3.202289     -0.828683     -1.110634
28
Coordinates from ORCA-job biuret_guanine_opt_freq E -936.106794463605
  N       6.349446     -2.709840      2.995444
  C       5.450192     -3.129094      2.025499
  O       5.147560     -4.294146      1.848023
  N       4.898492     -2.122162      1.209317
  C       5.295932     -0.817569      0.898167
  O       4.594498     -0.121603      0.161895
  N       6.434279     -0.328104      1.483903
  H       6.602815     -3.465324      3.620494
  H       6.161953     -1.825708      3.454021
  H       4.094306     -2.443714      0.677144
  H       7.159753     -0.980339      1.756085
  H       6.736196      0.560365      1.107301
  O       0.648889      1.578990      1.848282
  N      -2.145678      0.898333      0.632036
  N       1.421997      0.117629      0.233869
  N       0.058006     -1.038384     -1.338092
  N      -2.315640     -0.538390     -1.085589
  N       2.368470     -1.381592     -1.278739
  C      -0.862792      0.491102      0.328776
  C      -0.992065     -0.402371     -0.737608
  C       0.400155      0.818838      0.909437
  C       1.225481     -0.756871     -0.822583
  C      -2.965725      0.251948     -0.249214
  H      -2.407274      1.553920      1.354308
  H       2.369116      0.292550      0.561824
  H      -4.038544      0.391907     -0.238697
  H       2.258634     -1.810303     -2.188716
  H       3.223208     -0.848576     -1.154450
28
Coordinates from ORCA-job biuret_guanine_opt_freq E -936.107052433670
  N       6.270747     -2.704986      2.998573
  C       5.395369     -3.110747      2.006526
  O       5.091397     -4.273122      1.808473
  N       4.860369     -2.095196      1.189807
  C       5.271921     -0.797057      0.891648
  O       4.580657     -0.082399      0.159727
  N       6.409907     -0.321049      1.494862
  H       6.504828     -3.455804      3.635777
  H       6.097816     -1.808396      3.437821
  H       4.065176     -2.420134      0.643735
  H       7.138611     -0.978391      1.746333
  H       6.715576      0.569796      1.125800
  O       0.696867      1.585330      1.835751
  N      -2.108322      0.882954      0.653234
  N       1.459133      0.115743      0.223677
  N       0.084535     -1.056187     -1.326807
  N      -2.288654     -0.568776     -1.050731
  N       2.396004     -1.388968     -1.292453
  C      -0.826355      0.480879      0.339129
  C      -0.961979     -0.421676     -0.718967
  C       0.441263      0.817958      0.904682
  C       1.255736     -0.764730     -0.825015
  C      -2.934264      0.223638     -0.212880
  H      -2.366929      1.536038      1.378812
  H       2.410741      0.304133      0.531734
  H      -4.007682      0.357719     -0.191631
  H       2.266207     -1.829014     -2.194213
  H       3.252986     -0.856064     -1.181265
28
Coordinates from ORCA-job biuret_guanine_opt_freq E -936.107273209359
  N       6.190818     -2.692657      3.012570
  C       5.356881     -3.098450      1.989026
  O       5.068372     -4.262160      1.771820
  N       4.839265     -2.083980      1.159286
  C       5.244956     -0.782158      0.884964
  O       4.558912     -0.057332      0.152365
  N       6.375175     -0.306434      1.503998
  H       6.410599     -3.438891      3.659796
  H       6.006596     -1.793436      3.441728
  H       4.058138     -2.416329      0.595516
  H       7.111532     -0.952360      1.761353
  H       6.669125      0.595808      1.153430
  O       0.755336      1.585939      1.820659
  N      -2.065538      0.871982      0.680755
  N       1.497051      0.108029      0.206162
  N       0.103016     -1.075183     -1.318573
  N      -2.266523     -0.588165     -1.013728
  N       2.414683     -1.404356     -1.316729
  C      -0.787240      0.468123      0.353121
  C      -0.935715     -0.438953     -0.699507
  C       0.487398      0.812594      0.898270
  C       1.280216     -0.777093     -0.834395
  C      -2.901924      0.207315     -0.171020
  H      -2.315618      1.523510      1.410691
  H       2.454806      0.302690      0.492189
  H      -3.975055      0.341046     -0.136562
  H       2.263829     -1.838707     -2.218991
  H       3.272566     -0.868898     -1.226054
28
Coordinates from ORCA-job biuret_guanine_opt_freq E -936.107451620694
  N       6.152848     -2.696880      3.015497
  C       5.332505     -3.094021      1.981191
  O       5.038565     -4.255869      1.756485
  N       4.832381     -2.072380      1.146505
  C       5.252970     -0.778275      0.892038
  O       4.571416     -0.025436      0.182194
  N       6.407127     -0.341985      1.490956
  H       6.367506     -3.442899      3.664520
  H       5.981150     -1.794207      3.442542
  H       4.049981     -2.394687      0.577826
  H       7.138060     -0.997294      1.736596
  H       6.703672      0.567000      1.161312
  O       0.747018      1.636865      1.788937
  N      -2.069289      0.859638      0.681013
  N       1.501257      0.141662      0.195262
  N       0.114754     -1.091936     -1.297352
  N      -2.259379     -0.628601     -0.990132
  N       2.428771     -1.383526     -1.312558
  C      -0.787331      0.463507      0.356133
  C      -0.929216     -0.459938     -0.682931
  C       0.484728      0.842054      0.883752
  C       1.290423     -0.764576     -0.827000
  C      -2.900910      0.170752     -0.155670
  H      -2.323794      1.516911      1.404220
  H       2.459816      0.355217      0.466693
  H      -3.975453      0.291877     -0.118039
  H       2.273669     -1.831640     -2.205504
  H       3.288412     -0.849841     -1.222347
28
Coordinates from ORCA-job biuret_guanine_opt_freq E -936.107632634069
  N       6.088892     -2.684071      3.022525
  C       5.313011     -3.089361      1.956133
  O       5.055404     -4.255055      1.710042
  N       4.817794     -2.068670      1.115132
  C       5.212504     -0.757383      0.895919
  O       4.536170     -0.010543      0.171494
  N       6.337503     -0.300818      1.528785
  H       6.306672     -3.436603      3.663313
  H       5.870988     -1.799048      3.465269
  H       4.051938     -2.394015      0.524900
  H       7.074196     -0.936232      1.805234
  H       6.616804      0.621086      1.221596
  O       0.825345      1.639284      1.755395
  N      -2.013346      0.859646      0.713293
  N       1.544110      0.127147      0.160442
  N       0.123016     -1.118808     -1.289840
  N      -2.243172     -0.640839     -0.941762
  N       2.435069     -1.417653     -1.351309
  C      -0.739951      0.452409      0.368610
  C      -0.906645     -0.477341     -0.660821
  C       0.543516      0.835643      0.864145
  C       1.308569     -0.788907     -0.846947
  C      -2.864383      0.168941     -0.102000
  H      -2.249877      1.525600      1.434676
  H       2.510571      0.332837      0.411602
  H      -3.937375      0.295957     -0.044555
  H       2.258442     -1.858962     -2.245350
  H       3.295894     -0.882750     -1.293783
28
Coordinates from ORCA-job biuret_guanine_opt_freq E -936.107816011264
  N       6.098761     -2.688199      3.020670
  C       5.317550     -3.091795      1.954058
  O       5.061789     -4.256886      1.707682
  N       4.823669     -2.065763      1.116719
  C       5.219521     -0.750159      0.903500
  O       4.547415     -0.005220      0.178171
  N       6.348778     -0.302886      1.529797
  H       6.321909     -3.450410      3.648469
  H       5.869298     -1.815420      3.481173
  H       4.055806     -2.380595      0.525987
  H       7.071647     -0.945060      1.825575
  H       6.636699      0.618354      1.229344
  O       0.818252      1.657049      1.738801
  N      -2.018986      0.860901      0.710971
  N       1.539373      0.138018      0.151133
  N       0.117459     -1.124137     -1.284655
  N      -2.249557     -0.648995     -0.935419
  N       2.428681     -1.416135     -1.353660
  C      -0.745687      0.453139      0.366556
  C      -0.912878     -0.481923     -0.657677
  C       0.537864      0.845754      0.853941
  C       1.303438     -0.787269     -0.848144
  C      -2.870382      0.165724     -0.100089
  H      -2.254463      1.533842      1.426202
  H       2.505698      0.338845      0.407447
  H      -3.943508      0.290932     -0.041258
  H       2.252323     -1.867173     -2.242258
  H       3.291189     -0.883039     -1.300896
28
Coordinates from ORCA-job biuret_guanine_opt_freq E -936.107959053714
  N       6.075490     -2.691020      3.009186
  C       5.287662     -3.082251      1.940032
  O       5.025875     -4.243741      1.687258
  N       4.802731     -2.044628      1.112044
  C       5.210564     -0.727636      0.912100
  O       4.547798      0.023641      0.188738
  N       6.340869     -0.298109      1.546533
  H       6.291520     -3.465665      3.624441
  H       5.847340     -1.825583      3.483668
  H       4.036434     -2.344029      0.512260
  H       7.044284     -0.956530      1.853667
  H       6.648691      0.620436      1.258399
  O       0.838324      1.682021      1.707258
  N      -2.002047      0.853484      0.720310
  N       1.555774      0.150530      0.129848
  N       0.127157     -1.139214     -1.274346
  N      -2.239964     -0.676949     -0.906057
  N       2.436734     -1.419641     -1.364797
  C      -0.729988      0.450257      0.366888
  C      -0.901719     -0.497665     -0.644385
  C       0.556150      0.857557      0.834955
  C       1.315329     -0.790089     -0.853852
  C      -2.857383      0.143617     -0.073809
  H      -2.234025      1.536047      1.427536
  H       2.523001      0.354513      0.381100
  H      -3.930696      0.261709     -0.004854
  H       2.252838     -1.895575     -2.237358
  H       3.302912     -0.893993     -1.324626
28
Coordinates from ORCA-job biuret_guanine_opt_freq E -936.108028868304
  N       6.057161     -2.692434      3.009045
  C       5.263679     -3.071203      1.938418
  O       4.985525     -4.228915      1.685835
  N       4.794396     -2.028727      1.111246
  C       5.215732     -0.714276      0.911640
  O       4.557431      0.042505      0.191661
  N       6.355631     -0.302231      1.540443
  H       6.255222     -3.471967      3.624291
  H       5.838872     -1.824645      3.484021
  H       4.029835     -2.318248      0.505300
  H       7.043377     -0.974173      1.853774
  H       6.679762      0.611923      1.257058
  O       0.842502      1.685569      1.702441
  N      -1.997852      0.843359      0.726478
  N       1.561537      0.155996      0.124237
  N       0.133895     -1.141671     -1.272930
  N      -2.234121     -0.691423     -0.896086
  N       2.442718     -1.415318     -1.370497
  C      -0.725197      0.447085      0.368041
  C      -0.895770     -0.503956     -0.640533
  C       0.561118      0.859204      0.831493
  C       1.322111     -0.787823     -0.856405
  C      -2.852583      0.127875     -0.063365
  H      -2.230697      1.526172      1.433177
  H       2.528212      0.365497      0.373318
  H      -3.926251      0.240188      0.009461
  H       2.253962     -1.903627     -2.235343
  H       3.311452     -0.893241     -1.334077
28
Coordinates from ORCA-job biuret_guanine_opt_freq E -936.108073549111
  N       6.031783     -2.690465      3.007880
  C       5.234995     -3.059061      1.935905
  O       4.943581     -4.214260      1.683341
  N       4.779449     -2.013977      1.108587
  C       5.212992     -0.703796      0.908489
  O       4.559344      0.058463      0.189446
  N       6.358772     -0.303595      1.534156
  H       6.217015     -3.472122      3.624472
  H       5.821097     -1.820067      3.481942
  H       4.018160     -2.296105      0.495663
  H       7.035689     -0.983582      1.853690
  H       6.693776      0.607797      1.255247
  O       0.855124      1.683174      1.701852
  N      -1.987103      0.832993      0.735319
  N       1.572582      0.156803      0.120237
  N       0.144116     -1.145217     -1.271568
  N      -2.223795     -0.704496     -0.884595
  N       2.452814     -1.412250     -1.377269
  C      -0.714331      0.443263      0.370618
  C      -0.885096     -0.510447     -0.635523
  C       0.572638      0.857308      0.830741
  C       1.332789     -0.787699     -0.859323
  C      -2.842198      0.112664     -0.049797
  H      -2.220058      1.515946      1.441847
  H       2.539092      0.372985      0.364533
  H      -3.916028      0.220292      0.027531
  H       2.261471     -1.909897     -2.236533
  H       3.322989     -0.893158     -1.344752
28
Coordinates from ORCA-job biuret_guanine_opt_freq E -936.108092640421
  N       6.022686     -2.688292      3.009624
  C       5.222249     -3.053053      1.939031
  O       4.921361     -4.207109      1.689778
  N       4.774452     -2.008432      1.109946
  C       5.215989     -0.702187      0.904621
  O       4.564592      0.061877      0.184809
  N       6.366681     -0.307971      1.524362
  H       6.202159     -3.468937      3.629138
  H       5.815428     -1.815819      3.481739
  H       4.014413     -2.286195      0.493760
  H       7.038157     -0.990963      1.848805
  H       6.706986      0.601167      1.244952
  O       0.856727      1.675901      1.709100
  N      -1.985908      0.827381      0.738423
  N       1.574532      0.155131      0.122597
  N       0.147589     -1.143335     -1.273746
  N      -2.220471     -0.707715     -0.884027
  N       2.456915     -1.407046     -1.379844
  C      -0.712514      0.441967      0.371364
  C      -0.881946     -0.510964     -0.635896
  C       0.574129      0.853725      0.834580
  C       1.335921     -0.785898     -0.860444
  C      -2.840033      0.106247     -0.047029
  H      -2.220098      1.509205      1.445624
  H       2.540436      0.374909      0.365924
  H      -3.914025      0.211671      0.031117
  H       2.268046     -1.906372     -2.239134
  H       3.327207     -0.887400     -1.347036
28
Coordinates from ORCA-job biuret_guanine_opt_freq E -936.108111046849
  N       6.012774     -2.687485      3.009452
  C       5.211459     -3.050022      1.938609
  O       4.907927     -4.203498      1.688643
  N       4.767166     -2.003924      1.110474
  C       5.214390     -0.700547      0.902488
  O       4.565371      0.064358      0.180191
  N       6.365888     -0.307866      1.520604
  H       6.192604     -3.468184      3.628793
  H       5.802517     -1.816597      3.483441
  H       4.008158     -2.278258      0.490942
  H       7.035196     -0.990381      1.850373
  H       6.707652      0.600515      1.240584
  O       0.862638      1.674705      1.709449
  N      -1.981421      0.824287      0.741562
  N       1.578854      0.154084      0.122294
  N       0.151464     -1.145317     -1.272637
  N      -2.216276     -0.713227     -0.878517
  N       2.461495     -1.404818     -1.382218
  C      -0.707931      0.441623      0.371769
  C      -0.877597     -0.513513     -0.633473
  C       0.578872      0.853048      0.834909
  C       1.339920     -0.786283     -0.861163
  C      -2.835716      0.100505     -0.041250
  H      -2.215768      1.507465      1.447399
  H       2.544816      0.376735      0.362931
  H      -3.909723      0.204438      0.038705
  H       2.275615     -1.906148     -2.240895
  H       3.331319     -0.884201     -1.351318
28
Coordinates from ORCA-job biuret_guanine_opt_freq E -936.108129473325
  N       6.005814     -2.685250      3.009983
  C       5.201059     -3.047738      1.941331
  O       4.891503     -4.200271      1.694839
  N       4.760904     -2.000457      1.112289
  C       5.216932     -0.701182      0.898638
  O       4.570595      0.065576      0.175178
  N       6.371760     -0.313548      1.512190
  H       6.185405     -3.464209      3.631602
  H       5.795295     -1.813876      3.483163
  H       4.002331     -2.271231      0.490376
  H       7.037374     -0.997182      1.846910
  H       6.716779      0.593032      1.230394
  O       0.862270      1.672669      1.713271
  N      -1.981008      0.819867      0.743322
  N       1.580269      0.154928      0.124286
  N       0.155001     -1.144177     -1.273173
  N      -2.213294     -0.717790     -0.876940
  N       2.465988     -1.398590     -1.382739
  C      -0.706765      0.441210      0.371778
  C      -0.874922     -0.514567     -0.633151
  C       0.579268      0.852658      0.837055
  C       1.342830     -0.783558     -0.861378
  C      -2.834110      0.093702     -0.038569
  H      -2.216836      1.503188      1.448524
  H       2.545889      0.378919      0.365025
  H      -3.908283      0.195134      0.042433
  H       2.285100     -1.900686     -2.242230
  H       3.334510     -0.875079     -1.352270
28
Coordinates from ORCA-job biuret_guanine_opt_freq E -936.108148970677
  N       5.994098     -2.685728      3.008853
  C       5.187180     -3.045672      1.940401
  O       4.873501     -4.196399      1.692885
  N       4.751211     -1.994182      1.113038
  C       5.217294     -0.698566      0.896624
  O       4.574659      0.071401      0.172667
  N       6.374488     -0.317234      1.508404
  H       6.173138     -3.465196      3.630055
  H       5.782760     -1.815609      3.484016
  H       3.993284     -2.261093      0.487749
  H       7.036254     -1.002741      1.846726
  H       6.723137      0.587729      1.225757
  O       0.864644      1.679946      1.707974
  N      -1.977567      0.815164      0.745906
  N       1.584571      0.159898      0.121993
  N       0.160739     -1.147635     -1.269336
  N      -2.208187     -0.728845     -0.868518
  N       2.472559     -1.393997     -1.382685
  C      -0.702809      0.440607      0.371827
  C      -0.870016     -0.519526     -0.629051
  C       0.582629      0.856893      0.834403
  C       1.348081     -0.781802     -0.860892
  C      -2.829915      0.083200     -0.031384
  H      -2.214421      1.500788      1.448521
  H       2.550270      0.385948      0.360725
  H      -3.904225      0.181063      0.052212
  H       2.295057     -1.899827     -2.240415
  H       3.339244     -0.867092     -1.356317
28
Coordinates from ORCA-job biuret_guanine_opt_freq E -936.108183187039
  N       5.971462     -2.687015      3.005817
  C       5.161926     -3.041048      1.936308
  O       4.841352     -4.188249      1.685332
  N       4.733016     -1.981196      1.113421
  C       5.217550     -0.691963      0.893713
  O       4.582822      0.084832      0.169891
  N       6.378751     -0.324592      1.504757
  H       6.147194     -3.468750      3.625295
  H       5.760027     -1.818997      3.484812
  H       3.976938     -2.241653      0.482014
  H       7.031223     -1.015706      1.849418
  H       6.736423      0.576827      1.221939
  O       0.868646      1.698027      1.693487
  N      -1.970442      0.806540      0.750663
  N       1.593112      0.171866      0.115078
  N       0.171898     -1.156288     -1.260006
  N      -2.198333     -0.751688     -0.850410
  N       2.484981     -1.386889     -1.381931
  C      -0.695020      0.438537      0.372429
  C      -0.860617     -0.530729     -0.619641
  C       0.589383      0.866915      0.826822
  C       1.358266     -0.778963     -0.859649
  C      -2.821571      0.062522     -0.016505
  H      -2.208873      1.497184      1.447817
  H       2.559109      0.401126      0.350021
  H      -3.896063      0.153518      0.072325
  H       2.311049     -1.900399     -2.235821
  H       3.347450     -0.852278     -1.365256
28
Coordinates from ORCA-job biuret_guanine_opt_freq E -936.108225473407
  N       5.937531     -2.690544      3.001333
  C       5.127406     -3.032911      1.927493
  O       4.799229     -4.175086      1.667566
  N       4.707803     -1.961174      1.112770
  C       5.216535     -0.680191      0.891504
  O       4.593939      0.106563      0.168280
  N       6.382347     -0.332514      1.504324
  H       6.106231     -3.477597      3.616170
  H       5.728771     -1.825238      3.486298
  H       3.955267     -2.213645      0.472408
  H       7.021468     -1.032951      1.854942
  H       6.753721      0.563867      1.223062
  O       0.875422      1.726610      1.668535
  N      -1.958889      0.795210      0.757456
  N       1.605956      0.189830      0.102599
  N       0.188033     -1.171402     -1.244137
  N      -2.183658     -0.784969     -0.822444
  N       2.502374     -1.380733     -1.379876
  C      -0.682971      0.434765      0.373992
  C      -0.846669     -0.548244     -0.604402
  C       0.600175      0.882165      0.813646
  C       1.372986     -0.776834     -0.857223
  C      -2.808579      0.033949      0.005641
  H      -2.198920      1.493252      1.446666
  H       2.572430      0.423777      0.331791
  H      -3.883167      0.115799      0.101828
  H       2.329193     -1.906047     -2.226624
  H       3.357695     -0.834215     -1.381457
28
Coordinates from ORCA-job biuret_guanine_opt_freq E -936.108328657898
  N       5.899199     -2.694637      2.997733
  C       5.094011     -3.022786      1.915255
  O       4.762163     -4.160241      1.641687
  N       4.682594     -1.939282      1.110744
  C       5.213970     -0.665917      0.889966
  O       4.606341      0.130236      0.165407
  N       6.381936     -0.337456      1.509475
  H       6.058524     -3.489080      3.605632
  H       5.693252     -1.832517      3.489386
  H       3.935946     -2.185233      0.459999
  H       7.005814     -1.048111      1.866842
  H       6.768899      0.553186      1.231179
  O       0.884994      1.757576      1.638397
  N      -1.944290      0.784553      0.765441
  N       1.620460      0.207970      0.086558
  N       0.204824     -1.189817     -1.225498
  N      -2.167743     -0.819466     -0.790517
  N       2.520188     -1.379694     -1.377291
  C      -0.668603      0.429379      0.377073
  C      -0.831454     -0.567976     -0.586346
  C       0.613649      0.897795      0.797698
  C       1.388348     -0.777240     -0.854760
  C      -2.793356      0.005801      0.030838
  H      -2.184739      1.490282      1.446658
  H       2.587726      0.445921      0.309377
  H      -3.867796      0.079290      0.134960
  H       2.342528     -1.915248     -2.217596
  H       3.364274     -0.815795     -1.406157
28
Coordinates from ORCA-job biuret_guanine_opt_freq E -936.108476738634
  N       5.848367     -2.702186      2.990496
  C       5.053151     -3.006305      1.894145
  O       4.721211     -4.138246      1.596849
  N       4.648705     -1.907816      1.107554
  C       5.207113     -0.644753      0.891583
  O       4.622239      0.163869      0.164076
  N       6.376194     -0.341044      1.523620
  H       5.995945     -3.509460      3.584170
  H       5.648799     -1.845460      3.493744
  H       3.911183     -2.146351      0.442589
  H       6.979365     -1.067038      1.885905
  H       6.785903      0.541093      1.251299
  O       0.898877      1.802228      1.592033
  N      -1.923884      0.773327      0.774073
  N       1.639882      0.231100      0.063574
  N       0.227939     -1.217908     -1.196309
  N      -2.145150     -0.865771     -0.745365
  N       2.544444     -1.384306     -1.369621
  C      -0.648595      0.422637      0.381410
  C      -0.810022     -0.595626     -0.559639
  C       0.632259      0.919897      0.773465
  C       1.409130     -0.780928     -0.849127
  C      -2.771762     -0.029681      0.064389
  H      -2.164449      1.489803      1.443991
  H       2.607739      0.477140      0.276850
  H      -3.845858      0.033614      0.178028
  H       2.354070     -1.935067     -2.198147
  H       3.368861     -0.795270     -1.443493
28
Coordinates from ORCA-job biuret_guanine_opt_freq E -936.108576648144
  N       5.819623     -2.706914      2.984458
  C       5.033676     -2.994108      1.877940
  O       4.705774     -4.124025      1.563957
  N       4.630228     -1.889233      1.103659
  C       5.198573     -0.630254      0.895310
  O       4.627798      0.185367      0.164575
  N       6.366880     -0.337772      1.536170
  H       5.960995     -3.523061      3.567170
  H       5.622869     -1.854582      3.496149
  H       3.899606     -2.124596      0.429690
  H       6.959497     -1.072418      1.898659
  H       6.789317      0.539666      1.268840
  O       0.911576      1.824698      1.565730
  N      -1.910610      0.770569      0.777151
  N       1.652221      0.237577      0.053541
  N       0.241166     -1.235760     -1.177866
  N      -2.131375     -0.889083     -0.719926
  N       2.558475     -1.393963     -1.362578
  C      -0.635601      0.419627      0.384347
  C      -0.796665     -0.610897     -0.543393
  C       0.645124      0.929946      0.760741
  C       1.421418     -0.787611     -0.843441
  C      -2.758087     -0.045527      0.082007
  H      -2.150447      1.492739      1.441219
  H       2.619958      0.490331      0.260957
  H      -3.832004      0.013944      0.199300
  H       2.353638     -1.953543     -2.182324
  H       3.368035     -0.789627     -1.469900
28
Coordinates from ORCA-job biuret_guanine_opt_freq E -936.108635718893
  N       5.783586     -2.710665      2.970997
  C       5.001158     -2.978264      1.857308
  O       4.673712     -4.105049      1.527240
  N       4.601473     -1.863976      1.098086
  C       5.185751     -0.612826      0.901281
  O       4.631571      0.213954      0.170519
  N       6.355919     -0.339998      1.547714
  H       5.921110     -3.535994      3.541435
  H       5.586681     -1.865776      3.495063
  H       3.878064     -2.092188      0.411953
  H       6.934945     -1.085259      1.910584
  H       6.793745      0.531894      1.287619
  O       0.927060      1.855273      1.531753
  N      -1.894154      0.765472      0.780210
  N       1.668736      0.246819      0.043207
  N       0.261582     -1.256773     -1.154173
  N      -2.110136     -0.923292     -0.684560
  N       2.579376     -1.399267     -1.354702
  C      -0.618656      0.419003      0.385084
  C      -0.776769     -0.629910     -0.522640
  C       0.660724      0.945253      0.744331
  C       1.440006     -0.792993     -0.835747
  C      -2.738884     -0.071158      0.106537
  H      -2.135463      1.496441      1.434062
  H       2.635473      0.512439      0.241080
  H      -3.812524     -0.019325      0.229792
  H       2.362073     -1.977126     -2.156209
  H       3.375502     -0.785216     -1.495684
28
Coordinates from ORCA-job biuret_guanine_opt_freq E -936.108645359404
  N       5.793847     -2.710920      2.975605
  C       5.023476     -2.981991      1.855342
  O       4.705853     -4.112098      1.524116
  N       4.620466     -1.876481      1.090593
  C       5.180565     -0.611839      0.905965
  O       4.618883      0.211243      0.173387
  N       6.344996     -0.320486      1.555864
  H       5.930669     -3.534225      3.548796
  H       5.590381     -1.865214      3.495936
  H       3.900379     -2.107192      0.404013
  H       6.938292     -1.057800      1.911969
  H       6.769678      0.558774      1.298872
  O       0.939937      1.832500      1.548455
  N      -1.893538      0.777144      0.776808
  N       1.667947      0.222278      0.056195
  N       0.251280     -1.253026     -1.162016
  N      -2.118177     -0.900956     -0.698653
  N       2.569876     -1.419046     -1.355261
  C      -0.619242      0.421697      0.385614
  C      -0.782764     -0.620787     -0.529113
  C       0.664260      0.930678      0.755136
  C       1.433060     -0.804309     -0.834710
  C      -2.742609     -0.048882      0.095696
  H      -2.130677      1.503137      1.437708
  H       2.635177      0.483995      0.257537
  H      -3.816346      0.011832      0.213967
  H       2.337180     -1.987870     -2.162259
  H       3.358811     -0.798663     -1.513427
28
Coordinates from ORCA-job biuret_guanine_opt_freq E -936.108690684893
  N       5.796293     -2.712582      2.969761
  C       5.015492     -2.982459      1.855466
  O       4.691322     -4.110825      1.526576
  N       4.613677     -1.871986      1.094144
  C       5.184136     -0.612973      0.906729
  O       4.624779      0.213227      0.177550
  N       6.352343     -0.331247      1.552952
  H       5.935848     -3.536100      3.542216
  H       5.594688     -1.868245      3.493103
  H       3.891253     -2.099293      0.408044
  H       6.941664     -1.071647      1.909148
  H       6.781124      0.545805      1.294861
  O       0.931025      1.845421      1.540139
  N      -1.897558      0.774580      0.774015
  N       1.665931      0.232624      0.053960
  N       0.254967     -1.254224     -1.157509
  N      -2.115775     -0.911718     -0.693007
  N       2.573623     -1.409696     -1.351444
  C      -0.622052      0.424366      0.381895
  C      -0.781629     -0.623672     -0.527032
  C       0.659194      0.939666      0.750080
  C       1.435027     -0.798858     -0.832613
  C      -2.743434     -0.058664      0.097721
  H      -2.138032      1.504094      1.429808
  H       2.632417      0.497701      0.254444
  H      -3.817262     -0.002440      0.217445
  H       2.348174     -1.987788     -2.151541
  H       3.364424     -0.791576     -1.504770
28
Coordinates from ORCA-job biuret_guanine_opt_freq E -936.108705426642
  N       5.793341     -2.714490      2.964443
  C       5.010250     -2.983733      1.850881
  O       4.684861     -4.110914      1.520982
  N       4.609739     -1.869742      1.091811
  C       5.181719     -0.610754      0.908793
  O       4.622937      0.217448      0.182299
  N       6.348591     -0.331037      1.557474
  H       5.934032     -3.538388      3.536211
  H       5.589163     -1.872204      3.490119
  H       3.887837     -2.094140      0.403560
  H       6.939057     -1.070870      1.912792
  H       6.775578      0.547817      1.302243
  O       0.933092      1.852905      1.532414
  N      -1.894740      0.775158      0.773429
  N       1.668762      0.235368      0.051770
  N       0.258435     -1.257542     -1.153071
  N      -2.112177     -0.918656     -0.684948
  N       2.576860     -1.410167     -1.349680
  C      -0.619285      0.426749      0.379467
  C      -0.778439     -0.626319     -0.523606
  C       0.661533      0.944407      0.745590
  C       1.438223     -0.799059     -0.831222
  C      -2.740138     -0.063332      0.103023
  H      -2.136004      1.507943      1.425274
  H       2.635423      0.501059      0.251094
  H      -3.813795     -0.008795      0.225095
  H       2.351160     -1.996046     -2.143496
  H       3.365643     -0.791174     -1.510601
28
Coordinates from ORCA-job biuret_guanine_opt_freq E -936.108722157567
  N       5.807776     -2.722774      2.956762
  C       5.018126     -2.990791      1.847158
  O       4.689983     -4.116559      1.517027
  N       4.616290     -1.873691      1.091193
  C       5.184126     -0.611910      0.915816
  O       4.622157      0.218847      0.195145
  N       6.350063     -0.331272      1.566045
  H       5.951248     -3.546892      3.527631
  H       5.605521     -1.881630      3.484964
  H       3.892306     -2.093921      0.404043
  H       6.948498     -1.069457      1.911193
  H       6.770471      0.551786      1.313800
  O       0.925146      1.864863      1.523036
  N      -1.901303      0.781964      0.764641
  N       1.663840      0.239085      0.053043
  N       0.256140     -1.259099     -1.148045
  N      -2.115220     -0.921764     -0.682583
  N       2.574950     -1.411572     -1.340596
  C      -0.625098      0.434208      0.372399
  C      -0.782127     -0.625603     -0.523109
  C       0.654745      0.952903      0.740076
  C       1.435307     -0.798455     -0.826212
  C      -2.744981     -0.062435      0.099483
  H      -2.144736      1.519202      1.410632
  H       2.630159      0.505254      0.253904
  H      -3.818737     -0.008598      0.221045
  H       2.347685     -2.009738     -2.124248
  H       3.359322     -0.790460     -1.512106
28
Coordinates from ORCA-job biuret_guanine_opt_freq E -936.108750911540
  N       5.807641     -2.730157      2.949271
  C       5.020860     -2.995676      1.836896
  O       4.695010     -4.120224      1.501520
  N       4.619625     -1.875475      1.083993
  C       5.178804     -0.608004      0.922012
  O       4.613848      0.224686      0.205961
  N       6.338834     -0.322647      1.581007
  H       5.950711     -3.556078      3.517700
  H       5.602820     -1.891445      3.480275
  H       3.896468     -2.091909      0.394531
  H       6.944763     -1.057615      1.919710
  H       6.750902      0.566617      1.336626
  O       0.929606      1.876636      1.508512
  N      -1.896960      0.787919      0.761871
  N       1.667189      0.240997      0.048634
  N       0.257857     -1.265680     -1.140031
  N      -2.112932     -0.927666     -0.670955
  N       2.576340     -1.419104     -1.335940
  C      -0.621515      0.438790      0.368535
  C      -0.779835     -0.628573     -0.517568
  C       0.658723      0.959767      0.731599
  C       1.437322     -0.802164     -0.823200
  C      -2.741554     -0.062716      0.105785
  H      -2.139932      1.530850      1.401490
  H       2.634347      0.505009      0.249159
  H      -3.815001     -0.008776      0.229998
  H       2.342820     -2.030018     -2.108535
  H       3.354899     -0.795853     -1.526718
28
Coordinates from ORCA-job biuret_guanine_opt_freq E -936.108781129625
  N       5.809534     -2.740417      2.942820
  C       5.026690     -3.000339      1.826760
  O       4.702226     -4.123402      1.484673
  N       4.627384     -1.877805      1.077264
  C       5.177947     -0.605126      0.929102
  O       4.610662      0.230623      0.218119
  N       6.333469     -0.317514      1.596130
  H       5.949793     -3.569218      3.507703
  H       5.605824     -1.903121      3.476382
  H       3.904238     -2.088823      0.386272
  H       6.944900     -1.051778      1.926330
  H       6.739892      0.576630      1.360177
  O       0.927372      1.894896      1.489049
  N      -1.896878      0.794052      0.756807
  N       1.667034      0.247856      0.042584
  N       0.258651     -1.273128     -1.129244
  N      -2.112305     -0.936039     -0.658617
  N       2.577387     -1.424094     -1.327573
  C      -0.621685      0.443863      0.363990
  C      -0.779599     -0.632646     -0.510849
  C       0.658207      0.970585      0.720412
  C       1.437467     -0.804080     -0.818590
  C      -2.741147     -0.064679      0.110789
  H      -2.140283      1.543784      1.388284
  H       2.634675      0.510161      0.243888
  H      -3.814424     -0.011660      0.236792
  H       2.337362     -2.050137     -2.086927
  H       3.347268     -0.796950     -1.540389
28
Coordinates from ORCA-job biuret_guanine_opt_freq E -936.108802229406
  N       5.797902     -2.748513      2.938789
  C       5.024863     -3.001392      1.814872
  O       4.704128     -4.123203      1.463599
  N       4.630276     -1.876732      1.068338
  C       5.174655     -0.600097      0.933642
  O       4.607643      0.238354      0.224759
  N       6.324530     -0.311192      1.610813
  H       5.933284     -3.581104      3.499147
  H       5.593008     -1.913067      3.474704
  H       3.908547     -2.081939      0.373727
  H       6.936476     -1.046411      1.938066
  H       6.729320      0.586053      1.384260
  O       0.930897      1.914276      1.465697
  N      -1.890770      0.796119      0.757543
  N       1.671493      0.256741      0.031084
  N       0.263169     -1.282874     -1.117047
  N      -2.107208     -0.948957     -0.639325
  N       2.581749     -1.427280     -1.324511
  C      -0.616448      0.445678      0.362662
  C      -0.774884     -0.639928     -0.500506
  C       0.663376      0.981219      0.706973
  C       1.441264     -0.806052     -0.816842
  C      -2.735356     -0.071600      0.123913
  H      -2.133569      1.552891      1.380826
  H       2.639932      0.518012      0.230686
  H      -3.808214     -0.020887      0.254278
  H       2.336821     -2.067571     -2.070921
  H       3.344773     -0.799050     -1.557088
28
Coordinates from ORCA-job biuret_guanine_opt_freq E -936.108814070825
  N       5.782066     -2.752156      2.937325
  C       5.015956     -2.998814      1.807429
  O       4.695892     -4.119385      1.450160
  N       4.627636     -1.872022      1.062922
  C       5.175475     -0.596552      0.933651
  O       4.613574      0.245186      0.224355
  N       6.323730     -0.313308      1.616081
  H       5.912774     -3.587380      3.494773
  H       5.575958     -1.918009      3.474804
  H       3.907715     -2.072010      0.364735
  H       6.928777     -1.052918      1.946400
  H       6.734545      0.582360      1.394617
  O       0.930832      1.932269      1.446063
  N      -1.886798      0.793341      0.759665
  N       1.674900      0.267260      0.021549
  N       0.269770     -1.290803     -1.106083
  N      -2.100501     -0.964458     -0.621610
  N       2.588518     -1.423496     -1.322589
  C      -0.612513      0.445439      0.362816
  C      -0.769167     -0.648031     -0.490515
  C       0.666163      0.991207      0.696207
  C       1.446173     -0.804869     -0.815463
  C      -2.729833     -0.083539      0.136597
  H      -2.130433      1.555152      1.376460
  H       2.643383      0.530439      0.218862
  H      -3.802406     -0.037087      0.270755
  H       2.343859     -2.073974     -2.060705
  H       3.345614     -0.792349     -1.567124
28
Coordinates from ORCA-job biuret_guanine_opt_freq E -936.108826106729
  N       5.768776     -2.752608      2.938679
  C       5.008953     -2.997224      1.804157
  O       4.690501     -4.117484      1.443867
  N       4.625306     -1.869896      1.059011
  C       5.175548     -0.594867      0.931967
  O       4.617137      0.247421      0.219558
  N       6.321215     -0.312538      1.619006
  H       5.897190     -3.588545      3.495490
  H       5.560399     -1.918841      3.475855
  H       3.906572     -2.066874      0.358557
  H       6.921882     -1.053851      1.953648
  H       6.736029      0.581694      1.399434
  O       0.934582      1.939322      1.436494
  N      -1.882398      0.790417      0.764027
  N       1.678076      0.271660      0.014809
  N       0.273145     -1.294440     -1.102229
  N      -2.096249     -0.972267     -0.610972
  N       2.591488     -1.420207     -1.326787
  C      -0.608525      0.444130      0.364461
  C      -0.765265     -0.652231     -0.485143
  C       0.669972      0.994852      0.690878
  C       1.449070     -0.804240     -0.817673
  C      -2.725295     -0.090450      0.146468
  H      -2.125508      1.553839      1.379039
  H       2.646631      0.536748      0.209090
  H      -3.797562     -0.046475      0.283854
  H       2.350370     -2.074733     -2.062491
  H       3.349620     -0.790821     -1.570917
28
Coordinates from ORCA-job biuret_guanine_opt_freq E -936.108830658085
  N       5.751555     -2.751475      2.939053
  C       4.996793     -2.993328      1.800362
  O       4.677961     -4.112673      1.437490
  N       4.619239     -1.864024      1.055181
  C       5.176524     -0.591989      0.929242
  O       4.624841      0.252091      0.214066
  N       6.321090     -0.315168      1.619876
  H       5.876626     -3.587906      3.495837
  H       5.541189     -1.918121      3.476116
  H       3.902579     -2.057673      0.351099
  H       6.914959     -1.059560      1.959804
  H       6.742708      0.576085      1.401354
  O       0.938327      1.947242      1.426664
  N      -1.877612      0.785905      0.768111
  N       1.682325      0.276066      0.009583
  N       0.279089     -1.298953     -1.096972
  N      -2.089547     -0.983242     -0.598771
  N       2.597197     -1.416141     -1.329388
  C      -0.603721      0.442444      0.366049
  C      -0.759316     -0.657950     -0.478623
  C       0.673968      0.998957      0.685954
  C       1.454100     -0.803342     -0.818561
  C      -2.719304     -0.100616      0.157128
  H      -2.121039      1.550278      1.381830
  H       2.650500      0.544817      0.200740
  H      -3.791289     -0.060062      0.297708
  H       2.359083     -2.075308     -2.061877
  H       3.352837     -0.784865     -1.576914
28
Coordinates from ORCA-job biuret_guanine_opt_freq E -936.108839359634
  N       5.740438     -2.749701      2.939705
  C       4.988882     -2.991290      1.798713
  O       4.668768     -4.110008      1.435683
  N       4.616690     -1.861354      1.051183
  C       5.177601     -0.590427      0.926502
  O       4.630697      0.254429      0.208223
  N       6.319860     -0.315549      1.621537
  H       5.862499     -3.585384      3.498273
  H       5.529461     -1.915472      3.475163
  H       3.901480     -2.053077      0.345186
  H       6.911227     -1.060806      1.963962
  H       6.744717      0.574277      1.403355
  O       0.942747      1.948920      1.423110
  N      -1.874147      0.783199      0.771438
  N       1.685220      0.276211      0.007381
  N       0.281754     -1.300916     -1.095609
  N      -2.086012     -0.987966     -0.592732
  N       2.599559     -1.414319     -1.333065
  C      -0.600358      0.440889      0.367783
  C      -0.756008     -0.660675     -0.475510
  C       0.677114      0.999443      0.684547
  C       1.456785     -0.803505     -0.820083
  C      -2.715611     -0.105480      0.163433
  H      -2.117049      1.546212      1.387062
  H       2.652991      0.548083      0.195948
  H      -3.787407     -0.066339      0.305867
  H       2.364598     -2.075455     -2.065400
  H       3.355163     -0.782447     -1.579516
28
Coordinates from ORCA-job biuret_guanine_opt_freq E -936.108845685081
  N       5.727622     -2.749043      2.938711
  C       4.981231     -2.988928      1.793979
  O       4.660448     -4.106657      1.428991
  N       4.615514     -1.857533      1.044701
  C       5.177305     -0.586582      0.926075
  O       4.635240      0.259019      0.205698
  N       6.315168     -0.312548      1.628953
  H       5.844642     -3.584766      3.498313
  H       5.516489     -1.914137      3.473017
  H       3.902147     -2.046625      0.335322
  H       6.906622     -1.058056      1.970671
  H       6.741240      0.577294      1.412960
  O       0.950462      1.950860      1.416860
  N      -1.868326      0.781828      0.774865
  N       1.689757      0.274817      0.003666
  N       0.284517     -1.304756     -1.093064
  N      -2.081929     -0.993000     -0.584193
  N       2.601797     -1.416575     -1.336960
  C      -0.595101      0.439432      0.369258
  C      -0.751937     -0.664232     -0.471214
  C       0.682581      0.999665      0.681503
  C       1.460014     -0.805855     -0.821611
  C      -2.710403     -0.109428      0.171618
  H      -2.109915      1.543647      1.392480
  H       2.657372      0.549346      0.189346
  H      -3.781882     -0.070870      0.316598
  H       2.366429     -2.081126     -2.065648
  H       3.354555     -0.783695     -1.588757
28
Coordinates from ORCA-job biuret_guanine_opt_freq E -936.108848738801
  N       5.721104     -2.747453      2.938123
  C       4.977007     -2.987347      1.791978
  O       4.653037     -4.104399      1.428238
  N       4.617715     -1.856457      1.038373
  C       5.178020     -0.584387      0.924535
  O       4.638924      0.262119      0.202691
  N       6.311818     -0.309992      1.634461
  H       5.832311     -3.582287      3.500302
  H       5.512363     -1.910181      3.469652
  H       3.905667     -2.044525      0.328003
  H       6.905446     -1.055190      1.973076
  H       6.736947      0.580865      1.420439
  O       0.955570      1.947953      1.417253
  N      -1.864796      0.781197      0.777188
  N       1.692362      0.271718      0.003008
  N       0.285085     -1.306184     -1.093252
  N      -2.080711     -0.993030     -0.582275
  N       2.602146     -1.419736     -1.339355
  C      -0.592039      0.437501      0.371139
  C      -0.750378     -0.665459     -0.470014
  C       0.686048      0.997121      0.682094
  C       1.461305     -0.808200     -0.822578
  C      -2.707935     -0.109422      0.174509
  H      -2.105068      1.540307      1.398637
  H       2.660000      0.547127      0.187448
  H      -3.779281     -0.069901      0.320219
  H       2.365623     -2.084643     -2.068132
  H       3.353368     -0.785622     -1.593619
28
Coordinates from ORCA-job biuret_guanine_opt_freq E -936.108853962426
  N       5.713998     -2.747543      2.936645
  C       4.973306     -2.985722      1.788051
  O       4.647770     -4.102167      1.423556
  N       4.619730     -1.854754      1.032069
  C       5.177473     -0.581462      0.924913
  O       4.640483      0.266018      0.202888
  N       6.307120     -0.306521      1.641984
  H       5.819851     -3.582797      3.499256
  H       5.506655     -1.909195      3.467010
  H       3.908861     -2.041340      0.320015
  H       6.902720     -1.051792      1.977012
  H       6.730874      0.585827      1.431202
  O       0.960382      1.948655      1.413318
  N      -1.860319      0.780939      0.779440
  N       1.695499      0.270817     -0.000141
  N       0.286520     -1.309088     -1.091349
  N      -2.078654     -0.995220     -0.577175
  N       2.603287     -1.423651     -1.340726
  C      -0.588289      0.436195      0.372189
  C      -0.748126     -0.667720     -0.467335
  C       0.690212      0.996670      0.679847
  C       1.463087     -0.810669     -0.823222
  C      -2.704551     -0.110537      0.179452
  H      -2.099538      1.539677      1.401751
  H       2.663563      0.546178      0.182676
  H      -3.775650     -0.070537      0.326839
  H       2.363605     -2.089858     -2.066921
  H       3.351790     -0.788909     -1.601102
28
Coordinates from ORCA-job biuret_guanine_opt_freq E -936.108861458080
  N       5.712270     -2.747056      2.936431
  C       4.972581     -2.984906      1.787165
  O       4.644828     -4.101275      1.424012
  N       4.623031     -1.854974      1.028282
  C       5.178635     -0.580828      0.924251
  O       4.641897      0.267063      0.202285
  N       6.306204     -0.305021      1.644769
  H       5.814655     -3.582166      3.499902
  H       5.506596     -1.907361      3.465323
  H       3.912265     -2.041008      0.316390
  H       6.903043     -1.050400      1.977421
  H       6.728739      0.588300      1.435553
  O       0.961250      1.946785      1.414439
  N      -1.859114      0.780700      0.780505
  N       1.696094      0.269905     -0.000590
  N       0.286213     -1.309640     -1.091462
  N      -2.078993     -0.994520     -0.577175
  N       2.602975     -1.425739     -1.340816
  C      -0.587499      0.435214      0.372871
  C      -0.748235     -0.668028     -0.467231
  C       0.691403      0.995149      0.680280
  C       1.462906     -0.811901     -0.823350
  C      -2.704141     -0.109801      0.180031
  H      -2.098023      1.539265      1.403144
  H       2.664618      0.544069      0.181845
  H      -3.775172     -0.069017      0.327677
  H       2.361541     -2.090442     -2.067697
  H       3.351090     -0.790874     -1.602113
28
Coordinates from ORCA-job biuret_guanine_opt_freq E -936.108858688572
  N       5.709797     -2.746262      2.936197
  C       4.970710     -2.984039      1.786476
  O       4.641716     -4.100475      1.424348
  N       4.623710     -1.854669      1.025861
  C       5.179237     -0.580699      0.923033
  O       4.643071      0.267489      0.200891
  N       6.305963     -0.304841      1.644923
  H       5.810711     -3.581217      3.500150
  H       5.504468     -1.905991      3.464327
  H       3.912899     -2.040402      0.314047
  H       6.902326     -1.050580      1.977676
  H       6.728598      0.588592      1.436402
  O       0.961556      1.946135      1.415202
  N      -1.858204      0.779826      0.781508
  N       1.696802      0.269900     -0.000516
  N       0.286933     -1.310108     -1.091027
  N      -2.078348     -0.995166     -0.576462
  N       2.603765     -1.426119     -1.340307
  C      -0.586762      0.434649      0.373281
  C      -0.747614     -0.668514     -0.466817
  C       0.692280      0.994583      0.680665
  C       1.463449     -0.812279     -0.823066
  C      -2.703373     -0.110562      0.180977
  H      -2.097362      1.539157      1.403112
  H       2.665589      0.543619      0.181299
  H      -3.774358     -0.069854      0.328959
  H       2.361975     -2.089469     -2.068081
  H       3.352127     -0.791213     -1.600918
28
Coordinates from ORCA-job biuret_guanine_opt_freq E -936.108861838016
  N       5.710799     -2.745237      2.936472
  C       4.970979     -2.984100      1.787381
  O       4.640447     -4.100845      1.427538
  N       4.625435     -1.855804      1.024616
  C       5.181198     -0.582160      0.921000
  O       4.644662      0.265702      0.198592
  N       6.308197     -0.305808      1.642114
  H       5.811491     -3.579414      3.501585
  H       5.506033     -1.904124      3.463487
  H       3.913585     -2.041682      0.313944
  H       6.904077     -1.051538      1.975771
  H       6.730947      0.587396      1.432939
  O       0.959461      1.943963      1.419243
  N      -1.859805      0.779289      0.781339
  N       1.695729      0.269311      0.002169
  N       0.286451     -1.309187     -1.091544
  N      -2.079257     -0.993987     -0.578992
  N       2.603570     -1.425434     -1.338453
  C      -0.588189      0.434673      0.373291
  C      -0.748562     -0.667695     -0.467901
  C       0.690913      0.993428      0.683098
  C       1.462726     -0.812074     -0.821893
  C      -2.704724     -0.110019      0.178822
  H      -2.099750      1.539691      1.401333
  H       2.664567      0.542715      0.183981
  H      -3.775820     -0.069231      0.325983
  H       2.362988     -2.085804     -2.069167
  H       3.353513     -0.790535     -1.594609
28
Coordinates from ORCA-job biuret_guanine_opt_freq E -936.108868402819
  N       5.712259     -2.744186      2.936540
  C       4.971796     -2.984608      1.788172
  O       4.640761     -4.101766      1.430186
  N       4.626369     -1.857197      1.023852
  C       5.182402     -0.583844      0.918740
  O       4.645382      0.263373      0.195874
  N       6.309966     -0.306768      1.638409
  H       5.813612     -3.577463      3.502848
  H       5.507590     -1.902466      3.462620
  H       3.913258     -2.043642      0.314450
  H       6.905525     -1.052039      1.973644
  H       6.732763      0.586149      1.428160
  O       0.957494      1.941805      1.423689
  N      -1.861671      0.779028      0.780799
  N       1.694652      0.268427      0.005685
  N       0.286121     -1.308059     -1.091958
  N      -2.080023     -0.992483     -0.581981
  N       2.603593     -1.424743     -1.335859
  C      -0.589709      0.434972      0.373329
  C      -0.749385     -0.666565     -0.469118
  C       0.689321      0.992396      0.685980
  C       1.462236     -0.811805     -0.820207
  C      -2.706147     -0.109157      0.176042
  H      -2.102397      1.540547      1.399113
  H       2.663305      0.542079      0.187735
  H      -3.777402     -0.068313      0.322018
  H       2.364741     -2.082362     -2.069580
  H       3.355248     -0.789817     -1.587044
28
Coordinates from ORCA-job biuret_guanine_opt_freq E -936.108869722529
  N       5.713738     -2.743802      2.936453
  C       4.973173     -2.985461      1.788470
  O       4.642302     -4.102902      1.431407
  N       4.627299     -1.858597      1.023287
  C       5.183061     -0.585150      0.917130
  O       4.645606      0.261397      0.193847
  N       6.310955     -0.307429      1.635858
  H       5.815487     -3.576383      3.503712
  H       5.509204     -1.901610      3.461811
  H       3.913070     -2.045513      0.314842
  H       6.906764     -1.052129      1.971881
  H       6.733601      0.585378      1.424875
  O       0.955882      1.940960      1.426334
  N      -1.863386      0.779175      0.780049
  N       1.693649      0.267956      0.008362
  N       0.285857     -1.307255     -1.091901
  N      -2.080624     -0.991326     -0.584177
  N       2.603605     -1.424338     -1.333323
  C      -0.591046      0.435415      0.373365
  C      -0.750041     -0.665712     -0.469806
  C       0.687767      0.992104      0.687941
  C       1.461904     -0.811511     -0.818624
  C      -2.707384     -0.108332      0.173714
  H      -2.104608      1.541485      1.397196
  H       2.661950      0.542368      0.190756
  H      -3.778790     -0.067470      0.318591
  H       2.366301     -2.080476     -2.068886
  H       3.356365     -0.789348     -1.581026
28
Coordinates from ORCA-job biuret_guanine_opt_freq E -936.108869758038
  N       5.717784     -2.744016      2.936197
  C       4.976754     -2.986929      1.788874
  O       4.646872     -4.104774      1.432280
  N       4.629036     -1.860598      1.023580
  C       5.183339     -0.586495      0.916422
  O       4.644585      0.259163      0.193128
  N       6.311601     -0.307574      1.634100
  H       5.820541     -3.576135      3.503964
  H       5.513312     -1.901592      3.461191
  H       3.913593     -2.048231      0.316371
  H       6.908624     -1.051490      1.969686
  H       6.733410      0.585461      1.422349
  O       0.953790      1.940042      1.428967
  N      -1.865764      0.780397      0.778365
  N       1.691999      0.267191      0.011167
  N       0.284708     -1.306194     -1.092091
  N      -2.082185     -0.988923     -0.587494
  N       2.602710     -1.424653     -1.330482
  C      -0.593033      0.436172      0.373159
  C      -0.751544     -0.664278     -0.471052
  C       0.685610      0.991798      0.689836
  C       1.460842     -0.811479     -0.816834
  C      -2.709457     -0.106037      0.170107
  H      -2.107236      1.543005      1.395050
  H       2.659940      0.541943      0.194572
  H      -3.781043     -0.064658      0.313481
  H       2.366394     -2.079813     -2.067312
  H       3.356477     -0.789812     -1.575445
