30
Coordinates from ORCA-job dimethylurea_guanine_opt_freq E -846.032968887564
  O           4.97489974411898     -1.77501455962329      0.11153150449391
  N           6.11438229869874     -3.29821484052757      1.36251802176561
  N           4.48497244139111     -1.92537098287520      2.33994710247367
  C           5.17452943635838     -2.30692259207568      1.21692841106395
  H           6.16693149047357     -3.80072526379582      2.23440976076308
  H           3.75566145801253     -1.24867700816033      2.18034717579943
  C           6.90025004658343     -3.78646227763397      0.23890608768685
  H           6.53813425751960     -4.76944448207779     -0.08917794681884
  H           6.81877725642284     -3.07834920004134     -0.58356455760400
  H           7.95346455227672     -3.88374091565228      0.52361809592315
  C           4.80153979137640     -2.31415637665363      3.68679430367608
  H           5.87520495032175     -2.19223686517386      3.88925676275202
  H           4.26544194632909     -1.65947051638422      4.37829340386395
  H           4.51932427795089     -3.34931888200252      3.92206387262688
  O          -1.36000081121751      1.11272002058084     -2.24431506267268
  N          -1.95188740580302      0.47096214072354      0.73659147314470
  N           0.72745093226457      0.23500982220646     -1.76259524270236
  N           1.41417596832280     -0.55086143496031      0.37987398205061
  N          -0.34835480796445     -0.38241306492574      2.06330813930902
  N           2.89632012944403     -0.56798106257072     -1.39519149986500
  C          -0.84454219505856      0.24999420242353     -0.06565877878888
  C           0.14946914944750     -0.26143217811283      0.78044841085287
  C          -0.59683172820824      0.59176045980205     -1.42181727428678
  C           1.66428961595007     -0.29407457038317     -0.88922961163795
  C          -1.59147322190794      0.05062747306492      1.98406220051307
  H          -2.86889313614257      0.74366302589074      0.41417656194206
  H           0.98200029413971      0.41468257236021     -2.72676399191525
  H          -2.29139714680711      0.08262025430667      2.80980698905597
  H           3.60479534454898     -0.96418338280365     -0.75701984260224
  H           3.19714607115739     -0.27941751492492     -2.30397845086299
