30
Coordinates from ORCA-job dimethylurea_guanine_opt_freq E -845.931636880137
  O       3.755083     -3.941792      1.500797
  N       5.987497     -3.384841      1.500797
  N       4.393436     -1.731280      1.500797
  C       4.640178     -3.088689      1.500397
  H       6.692309     -2.655194      1.500497
  H       3.446046     -1.368669      1.500897
  C       6.462401     -4.776015      1.500797
  H       6.579781     -5.119866      2.528459
  H       5.737523     -5.407387      0.986966
  H       7.422039     -4.832345      0.986966
  C       5.487446     -0.749423      1.500652
  H       5.757847     -0.506894      0.472954
  H       5.163403      0.155679      2.014349
  H       6.352292     -1.169012      2.014545
  O       0.192100      2.665900     -0.000400
  N      -2.071500      0.658800      0.000600
  N       1.574000      0.803100      0.000100
  N       0.756600     -1.453600     -0.000300
  N      -1.719400     -1.543200     -0.000600
  N       3.054900     -1.010000      0.000500
  C      -0.718000      0.488500     -0.000100
  C      -0.524500     -0.873100     -0.000400
  C       0.338300      1.448600     -0.000100
  C       1.748300     -0.592400      0.000000
  C      -2.630800     -0.592600      0.000500
  H      -2.570600      1.538600      0.001200
  H       2.407800      1.383500      0.000300
  H      -3.701500     -0.739200      0.001000
  H       3.290500     -1.996500      0.000600
  H       3.822300     -0.347100      0.000800
30
Coordinates from ORCA-job dimethylurea_guanine_opt_freq E -845.956269294878
  O       3.776686     -3.841374      1.538664
  N       6.028878     -3.460919      1.504228
  N       4.485238     -1.670516      1.537500
  C       4.711814     -3.041159      1.535486
  H       6.794715     -2.812289      1.489781
  H       3.508114     -1.314621      1.534682
  C       6.361427     -4.888208      1.488204
  H       6.469751     -5.262763      2.510310
  H       5.563586     -5.438155      0.987750
  H       7.298880     -5.035467      0.947866
  C       5.540852     -0.652580      1.522112
  H       5.787449     -0.394732      0.475829
  H       5.194314      0.243513      2.041367
  H       6.428781     -1.023101      2.029194
  O       0.138668      2.685670     -0.009591
  N      -2.101728      0.604096     -0.000628
  N       1.546982      0.841437     -0.015305
  N       0.786663     -1.431169     -0.013397
  N      -1.666627     -1.593635     -0.003928
  N       3.063106     -0.942267     -0.014983
  C      -0.736178      0.474253     -0.006560
  C      -0.492300     -0.889114     -0.008060
  C       0.294222      1.464743     -0.010293
  C       1.748839     -0.548261     -0.017058
  C      -2.610026     -0.667888      0.000842
  H      -2.628186      1.466909      0.002108
  H       2.360974      1.445694     -0.018519
  H      -3.675126     -0.853643      0.005268
  H       3.324891     -1.929723     -0.009188
  H       3.821123     -0.271159     -0.010110
30
Coordinates from ORCA-job dimethylurea_guanine_opt_freq E -845.971830030860
  O       3.788900     -3.816557      1.560989
  N       6.049432     -3.484978      1.518240
  N       4.540885     -1.673780      1.567080
  C       4.746708     -3.038537      1.560540
  H       6.828495     -2.847695      1.504729
  H       3.556241     -1.318562      1.562906
  C       6.347438     -4.915132      1.493475
  H       6.454322     -5.312985      2.509588
  H       5.532907     -5.440630      0.993471
  H       7.278025     -5.078783      0.943472
  C       5.582028     -0.654108      1.533542
  H       5.806155     -0.384538      0.476929
  H       5.242313      0.239884      2.063496
  H       6.492736     -1.009574      2.019296
  O       0.122032      2.708236     -0.008202
  N      -2.134189      0.594967     -0.000765
  N       1.521217      0.860603     -0.028544
  N       0.775264     -1.410365     -0.034607
  N      -1.660431     -1.600820     -0.016996
  N       3.044138     -0.915440     -0.036967
  C      -0.761261      0.483737     -0.012361
  C      -0.492965     -0.883004     -0.021695
  C       0.260563      1.483008     -0.015186
  C       1.728370     -0.523560     -0.037810
  C      -2.616416     -0.685301     -0.004145
  H      -2.670995      1.450575      0.008170
  H       2.324080      1.478085     -0.033211
  H      -3.678295     -0.890825      0.003028
  H       3.312542     -1.900946     -0.029524
  H       3.805541     -0.249402     -0.025368
30
Coordinates from ORCA-job dimethylurea_guanine_opt_freq E -845.987631612675
  O       3.808614     -3.786319      1.599218
  N       6.078147     -3.523217      1.532142
  N       4.622729     -1.674586      1.610451
  C       4.794482     -3.038467      1.595791
  H       6.870300     -2.903219      1.516752
  H       3.648558     -1.330530      1.609306
  C       6.332461     -4.957852      1.498871
  H       6.440055     -5.379759      2.506351
  H       5.495130     -5.454259      1.006029
  H       7.250193     -5.146244      0.934148
  C       5.645069     -0.647133      1.543942
  H       5.841522     -0.362865      0.485649
  H       5.312990      0.243748      2.085227
  H       6.582857     -0.972745      2.001261
  O       0.096960      2.728591     -0.004528
  N      -2.179532      0.583601     -0.006430
  N       1.484010      0.880847     -0.040550
  N       0.754702     -1.385515     -0.059992
  N      -1.669273     -1.605470     -0.040276
  N       3.020265     -0.879368     -0.060238
  C      -0.800789      0.495738     -0.021129
  C      -0.507527     -0.872544     -0.041199
  C       0.211368      1.501007     -0.019453
  C       1.702999     -0.492858     -0.058467
  C      -2.636512     -0.703307     -0.018928
  H      -2.726042      1.432566      0.009611
  H       2.269808      1.519980     -0.046391
  H      -3.694372     -0.930516     -0.011836
  H       3.292832     -1.856619     -0.051000
  H       3.783775     -0.219112     -0.040763
30
Coordinates from ORCA-job dimethylurea_guanine_opt_freq E -845.999749722244
  O       3.853633     -3.794266      1.632878
  N       6.128835     -3.563662      1.549159
  N       4.709547     -1.697107      1.653488
  C       4.853060     -3.064418      1.621542
  H       6.922230     -2.942528      1.546189
  H       3.750782     -1.368630      1.662919
  C       6.372990     -4.998593      1.519570
  H       6.475415     -5.426674      2.524775
  H       5.531846     -5.489473      1.027062
  H       7.289071     -5.196534      0.955685
  C       5.719758     -0.665106      1.547233
  H       5.889254     -0.364408      0.494657
  H       5.402094      0.221050      2.105527
  H       6.680203     -0.970623      1.972412
  O       0.056482      2.754146      0.007108
  N      -2.239649      0.599599     -0.017418
  N       1.428853      0.903393     -0.048932
  N       0.705137     -1.356954     -0.092756
  N      -1.717934     -1.584325     -0.077625
  N       2.970396     -0.848612     -0.089266
  C      -0.859539      0.522985     -0.032374
  C      -0.556814     -0.845499     -0.068812
  C       0.149078      1.526332     -0.020482
  C       1.656035     -0.461654     -0.079744
  C      -2.687938     -0.688754     -0.045940
  H      -2.787817      1.447345      0.008294
  H       2.200118      1.560503     -0.053857
  H      -3.743793     -0.925982     -0.042348
  H       3.236740     -1.822976     -0.082595
  H       3.737707     -0.195002     -0.062780
30
Coordinates from ORCA-job dimethylurea_guanine_opt_freq E -846.006238066662
  O       3.912703     -3.825862      1.652653
  N       6.189157     -3.594608      1.564496
  N       4.779286     -1.728089      1.696282
  C       4.911860     -3.100196      1.646080
  H       6.975469     -2.965073      1.585946
  H       3.823272     -1.412073      1.715171
  C       6.443946     -5.027306      1.533970
  H       6.542700     -5.454913      2.539501
  H       5.608760     -5.523736      1.036642
  H       7.363745     -5.220005      0.974958
  C       5.784212     -0.695920      1.554250
  H       5.934738     -0.388629      0.506306
  H       5.481669      0.188057      2.124862
  H       6.756416     -0.996295      1.956900
  O       0.011483      2.780737     -0.000850
  N      -2.295178      0.632997     -0.035751
  N       1.374054      0.924103     -0.059363
  N       0.644440     -1.332701     -0.112120
  N      -1.779706     -1.550667     -0.103024
  N       2.909865     -0.832741     -0.107794
  C      -0.916071      0.554120     -0.047639
  C      -0.616800     -0.814303     -0.088800
  C       0.094536      1.553071     -0.031586
  C       1.600298     -0.438732     -0.093731
  C      -2.747470     -0.653944     -0.070284
  H      -2.839700      1.483155     -0.008254
  H       2.140027      1.587958     -0.065064
  H      -3.803598     -0.889816     -0.069912
  H       3.160736     -1.809668     -0.099064
  H       3.680933     -0.185351     -0.081211
30
Coordinates from ORCA-job dimethylurea_guanine_opt_freq E -846.010342112905
  O       3.984462     -3.864157      1.655682
  N       6.260345     -3.622894      1.576345
  N       4.844396     -1.761456      1.736373
  C       4.978930     -3.136579      1.658384
  H       7.040376     -2.988774      1.639857
  H       3.882162     -1.460412      1.763542
  C       6.525049     -5.053786      1.547508
  H       6.609415     -5.479774      2.555245
  H       5.701343     -5.554473      1.035565
  H       7.454439     -5.240439      1.002722
  C       5.843895     -0.727601      1.566563
  H       5.980258     -0.419923      0.518499
  H       5.552875      0.155495      2.144934
  H       6.821913     -1.028712      1.954902
  O      -0.037508      2.808587     -0.019480
  N      -2.350143      0.673723     -0.055389
  N       1.318969      0.945363     -0.073120
  N       0.577909     -1.309271     -0.126180
  N      -1.846778     -1.512800     -0.120678
  N       2.844064     -0.822679     -0.122958
  C      -0.972106      0.586119     -0.064634
  C      -0.681083     -0.782654     -0.104738
  C       0.043587      1.580699     -0.048676
  C       1.538264     -0.419006     -0.107415
  C      -2.810701     -0.610944     -0.090120
  H      -2.889539      1.527213     -0.029270
  H       2.086557      1.607550     -0.079466
  H      -3.868165     -0.840280     -0.091304
  H       3.074454     -1.804591     -0.110049
  H       3.618142     -0.179973     -0.099076
30
Coordinates from ORCA-job dimethylurea_guanine_opt_freq E -846.013054085916
  O       4.060138     -3.896070      1.660451
  N       6.334150     -3.643379      1.582452
  N       4.908128     -1.790383      1.793665
  C       5.050671     -3.165189      1.685581
  H       7.111414     -3.012944      1.696640
  H       3.939127     -1.508451      1.826290
  C       6.601528     -5.073664      1.537439
  H       6.678198     -5.511001      2.541169
  H       5.783019     -5.568144      1.011765
  H       7.535136     -5.251328      0.996779
  C       5.901371     -0.754229      1.596210
  H       6.028767     -0.460884      0.542720
  H       5.616131      0.134428      2.168667
  H       6.881299     -1.053845      1.980938
  O      -0.080374      2.831968     -0.072788
  N      -2.401569      0.717255     -0.084826
  N       1.268079      0.959866     -0.095717
  N       0.508812     -1.291535     -0.122021
  N      -1.917740     -1.475064     -0.118246
  N       2.777507     -0.824239     -0.124058
  C      -1.024704      0.615455     -0.088809
  C      -0.746795     -0.755102     -0.109850
  C      -0.000246      1.603382     -0.084300
  C       1.474760     -0.408366     -0.113344
  C      -2.874479     -0.563855     -0.102758
  H      -2.933861      1.575459     -0.071753
  H       2.043546      1.612603     -0.108294
  H      -3.934220     -0.781955     -0.103243
  H       2.983561     -1.811532     -0.098277
  H       3.554428     -0.185686     -0.108912
30
Coordinates from ORCA-job dimethylurea_guanine_opt_freq E -846.014776138867
  O       4.142191     -3.929409      1.648652
  N       6.414258     -3.663311      1.579439
  N       4.973119     -1.822246      1.841127
  C       5.128323     -3.191674      1.685492
  H       7.187410     -3.044119      1.762399
  H       3.996506     -1.563875      1.880285
  C       6.679294     -5.094638      1.532890
  H       6.728996     -5.539662      2.535178
  H       5.873649     -5.582125      0.981955
  H       7.626039     -5.269487      1.014393
  C       5.954794     -0.777141      1.628072
  H       6.077287     -0.498954      0.569133
  H       5.664180      0.115348      2.191062
  H       6.935646     -1.069079      2.015974
  O      -0.120686      2.854834     -0.127251
  N      -2.453139      0.762533     -0.111291
  N       1.217497      0.973483     -0.119895
  N       0.437966     -1.272996     -0.116493
  N      -1.991025     -1.435640     -0.112143
  N       2.709970     -0.826768     -0.124659
  C      -1.077391      0.645699     -0.112145
  C      -0.813684     -0.727207     -0.112840
  C      -0.043133      1.625537     -0.120811
  C       1.409878     -0.398813     -0.119574
  C      -2.938924     -0.514161     -0.111027
  H      -2.978005      1.625357     -0.110953
  H       2.003569      1.612873     -0.138511
  H      -4.001092     -0.720017     -0.109486
  H       2.892766     -1.818821     -0.088776
  H       3.489522     -0.191947     -0.116627
30
Coordinates from ORCA-job dimethylurea_guanine_opt_freq E -846.015841929373
  O       4.216338     -3.956568      1.657924
  N       6.485543     -3.668644      1.571579
  N       5.032324     -1.851540      1.921240
  C       5.198494     -3.213694      1.726786
  H       7.255247     -3.064778      1.815698
  H       4.050648     -1.614406      1.963164
  C       6.753483     -5.098804      1.487284
  H       6.803015     -5.571681      2.476733
  H       5.949437     -5.571933      0.922345
  H       7.701241     -5.256030      0.964969
  C       6.002351     -0.799581      1.682804
  H       6.126909     -0.554814      0.616391
  H       5.697709      0.104708      2.217684
  H       6.982775     -1.073283      2.085199
  O      -0.140384      2.867636     -0.230977
  N      -2.496576      0.812003     -0.153472
  N       1.175831      0.971377     -0.157738
  N       0.364057     -1.263629     -0.083067
  N      -2.068959     -1.392063     -0.079780
  N       2.642441     -0.850382     -0.102181
  C      -1.123042      0.673761     -0.146098
  C      -0.881084     -0.701966     -0.100930
  C      -0.074108      1.638370     -0.183281
  C       1.347502     -0.404535     -0.112542
  C      -3.002232     -0.456310     -0.112061
  H      -3.009205      1.681654     -0.182848
  H       1.975908      1.592167     -0.193376
  H      -4.067679     -0.644464     -0.106726
  H       2.799817     -1.845827     -0.040469
  H       3.427979     -0.223173     -0.110685
30
Coordinates from ORCA-job dimethylurea_guanine_opt_freq E -846.016524120016
  O       4.293593     -3.991599      1.647978
  N       6.560589     -3.677904      1.558843
  N       5.089831     -1.887935      1.977398
  C       5.268481     -3.238567      1.726650
  H       7.318339     -3.090768      1.873310
  H       4.102713     -1.671981      2.024333
  C       6.833568     -5.107523      1.462278
  H       6.856368     -5.596516      2.444990
  H       6.046493     -5.572986      0.868139
  H       7.796202     -5.253788      0.964586
  C       6.042269     -0.821320      1.728184
  H       6.173527     -0.600230      0.657328
  H       5.711480      0.087101      2.239075
  H       7.022414     -1.068603      2.148489
  O      -0.158534      2.882063     -0.316006
  N      -2.540420      0.861433     -0.186076
  N       1.133457      0.971471     -0.192457
  N       0.291400     -1.249824     -0.057297
  N      -2.143562     -1.345829     -0.052397
  N       2.575045     -0.868609     -0.086029
  C      -1.168857      0.704276     -0.174606
  C      -0.946099     -0.673223     -0.091814
  C      -0.106826      1.653474     -0.236717
  C       1.286007     -0.405849     -0.109468
  C      -3.063411     -0.398096     -0.110538
  H      -3.041548      1.736629     -0.238933
  H       1.945120      1.575658     -0.242736
  H      -4.131457     -0.570963     -0.100747
  H       2.712459     -1.865942     -0.005902
  H       3.367141     -0.250480     -0.106288
30
Coordinates from ORCA-job dimethylurea_guanine_opt_freq E -846.016998290343
  O       4.359124     -4.025685      1.654915
  N       6.622683     -3.677326      1.547545
  N       5.136755     -1.924587      2.050207
  C       5.325417     -3.263684      1.751056
  H       7.368940     -3.103612      1.913099
  H       4.146483     -1.723883      2.100934
  C       6.911112     -5.102074      1.412952
  H       6.926432     -5.620284      2.380739
  H       6.136276     -5.557914      0.795842
  H       7.881574     -5.222898      0.923975
  C       6.071932     -0.844941      1.784266
  H       6.217050     -0.655890      0.709346
  H       5.708438      0.069695      2.259797
  H       7.049710     -1.056763      2.229764
  O      -0.158193      2.885786     -0.428441
  N      -2.574962      0.911915     -0.226574
  N       1.100244      0.958973     -0.234116
  N       0.220383     -1.240594     -0.013984
  N      -2.215879     -1.294951     -0.009142
  N       2.510221     -0.900031     -0.054915
  C      -1.206213      0.732356     -0.207868
  C      -1.006879     -0.644868     -0.072744
  C      -0.128450      1.660318     -0.303479
  C       1.229769     -0.416473     -0.097645
  C      -3.119252     -0.334629     -0.103992
  H      -3.061150      1.792864     -0.312989
  H       1.923244      1.545229     -0.306870
  H      -4.190043     -0.489311     -0.088990
  H       2.628504     -1.897316      0.053292
  H       3.312510     -0.295847     -0.092410
30
Coordinates from ORCA-job dimethylurea_guanine_opt_freq E -846.017411996756
  O       4.420623     -4.064940      1.666929
  N       6.678537     -3.672710      1.538322
  N       5.176503     -1.965904      2.127775
  C       5.375169     -3.291600      1.776845
  H       7.412476     -3.105837      1.939769
  H       4.184285     -1.776324      2.184117
  C       6.991338     -5.087550      1.353924
  H       7.003413     -5.641744      2.301569
  H       6.231616     -5.533156      0.710927
  H       7.969429     -5.173378      0.873238
  C       6.091139     -0.870759      1.845458
  H       6.258310     -0.716893      0.768277
  H       5.685174      0.047485      2.277048
  H       7.063320     -1.035761      2.323232
  O      -0.144059      2.880167     -0.555550
  N      -2.603438      0.964686     -0.269619
  N       1.072455      0.937113     -0.279908
  N       0.149007     -1.231564      0.038769
  N      -2.287011     -1.236800      0.044165
  N       2.444902     -0.939206     -0.014903
  C      -1.238197      0.759889     -0.243913
  C      -1.065279     -0.614048     -0.048214
  C      -0.142812      1.660882     -0.379259
  C       1.175604     -0.432018     -0.081055
  C      -3.171601     -0.264316     -0.092645
  H      -3.071897      1.850584     -0.394763
  H       1.905864      1.504420     -0.380078
  H      -4.245049     -0.398417     -0.070834
  H       2.545465     -1.934406      0.125995
  H       3.260496     -0.354323     -0.072050
30
Coordinates from ORCA-job dimethylurea_guanine_opt_freq E -846.017732644318
  O       4.472680     -4.102768      1.681623
  N       6.722268     -3.664373      1.531576
  N       5.207142     -2.006400      2.204487
  C       5.414528     -3.317841      1.802848
  H       7.446894     -3.095729      1.947739
  H       4.214486     -1.823059      2.269762
  C       7.061755     -5.063927      1.288469
  H       7.076817     -5.658087      2.211452
  H       6.315649     -5.496233      0.620566
  H       8.044585     -5.110547      0.812448
  C       6.099254     -0.894785      1.906608
  H       6.295032     -0.777917      0.829820
  H       5.646172      0.023800      2.287410
  H       7.061443     -1.005334      2.420533
  O      -0.117182      2.861727     -0.687443
  N      -2.621710      1.013404     -0.313789
  N       1.053576      0.906203     -0.322765
  N       0.084526     -1.223645      0.099052
  N      -2.349840     -1.176758      0.102316
  N       2.385638     -0.983273      0.032827
  C      -1.260614      0.782626     -0.278204
  C      -1.115348     -0.584303     -0.018658
  C      -0.147051      1.652840     -0.453577
  C       1.128874     -0.452169     -0.058740
  C      -3.214573     -0.193987     -0.079650
  H      -3.071140      1.902232     -0.480969
  H       1.896007      1.453828     -0.453618
  H      -4.290384     -0.306157     -0.051816
  H       2.470396     -1.974244      0.208864
  H       3.215903     -0.421554     -0.045604
30
Coordinates from ORCA-job dimethylurea_guanine_opt_freq E -846.017902272652
  O       4.503183     -4.124993      1.690486
  N       6.745242     -3.655509      1.528382
  N       5.223573     -2.032747      2.260064
  C       5.436628     -3.332773      1.820944
  H       7.466475     -3.080496      1.941062
  H       4.231548     -1.851576      2.335578
  C       7.101036     -5.040316      1.235047
  H       7.120888     -5.667304      2.135890
  H       6.362306     -5.457340      0.549159
  H       8.085176     -5.058214      0.759901
  C       6.097548     -0.907757      1.952941
  H       6.320192     -0.819568      0.879035
  H       5.607460      0.008732      2.290713
  H       7.047883     -0.973608      2.496934
  O      -0.088820      2.837370     -0.785860
  N      -2.626099      1.044924     -0.344548
  N       1.047558      0.876125     -0.352363
  N       0.043974     -1.220433      0.145895
  N      -2.388591     -1.133186      0.148248
  N       2.348390     -1.019821      0.072863
  C      -1.268670      0.793506     -0.303556
  C      -1.144795     -0.565414      0.005082
  C      -0.141362      1.637916     -0.511851
  C       1.101249     -0.471738     -0.039279
  C      -3.237835     -0.143839     -0.067815
  H      -3.060851      1.934574     -0.543228
  H       1.896304      1.408279     -0.505221
  H      -4.315209     -0.238116     -0.034965
  H       2.421952     -2.006252      0.276319
  H       3.189446     -0.476856     -0.022289
30
Coordinates from ORCA-job dimethylurea_guanine_opt_freq E -846.018032960678
  O       4.512487     -4.129575      1.695789
  N       6.749857     -3.647860      1.526093
  N       5.228980     -2.041965      2.292096
  C       5.443325     -3.334992      1.830684
  H       7.473545     -3.065664      1.923004
  H       4.238280     -1.860175      2.379634
  C       7.109639     -5.022308      1.196346
  H       7.134477     -5.671768      2.080922
  H       6.371306     -5.424810      0.501209
  H       8.092357     -5.024983      0.717852
  C       6.091795     -0.908532      1.980532
  H       6.334968     -0.839578      0.910087
  H       5.578912      0.006359      2.287561
  H       7.031830     -0.945137      2.545532
  O      -0.064277      2.813845     -0.846251
  N      -2.620182      1.057947     -0.367026
  N       1.051846      0.852495     -0.363284
  N       0.026435     -1.221756      0.181923
  N      -2.405128     -1.110097      0.177908
  N       2.332738     -1.046463      0.104328
  C      -1.265374      0.794676     -0.314939
  C      -1.155565     -0.557977      0.024347
  C      -0.129155      1.623080     -0.539074
  C       1.091390     -0.488310     -0.020292
  C      -3.244215     -0.117803     -0.063187
  H      -3.045610      1.946675     -0.588675
  H       1.904663      1.373649     -0.530971
  H      -4.322546     -0.200468     -0.030731
  H       2.399096     -2.029326      0.326134
  H       3.179907     -0.515607     -0.003980
30
Coordinates from ORCA-job dimethylurea_guanine_opt_freq E -846.018166988923
  O       4.503116     -4.118210      1.698719
  N       6.737030     -3.635255      1.523937
  N       5.222610     -2.038160      2.318655
  C       5.435365     -3.324846      1.838034
  H       7.468308     -3.043569      1.889831
  H       4.234334     -1.853828      2.424034
  C       7.092280     -4.998713      1.152038
  H       7.123035     -5.672733      2.017699
  H       6.349324     -5.380653      0.450021
  H       8.071425     -4.990103      0.666106
  C       6.077289     -0.897310      2.008463
  H       6.347718     -0.847279      0.944016
  H       5.543207      0.016419      2.280899
  H       7.002547     -0.906472      2.599188
  O      -0.029395      2.781391     -0.897442
  N      -2.599770      1.061675     -0.381568
  N       1.069988      0.821272     -0.371027
  N       0.024125     -1.232330      0.214478
  N      -2.406857     -1.097177      0.207054
  N       2.332244     -1.079212      0.137377
  C      -1.247936      0.785061     -0.325060
  C      -1.152009     -0.560633      0.043052
  C      -0.103163      1.596613     -0.569244
  C       1.095734     -0.513227     -0.001110
  C      -3.235908     -0.101642     -0.055025
  H      -3.016451      1.949623     -0.622115
  H       1.927360      1.331697     -0.548216
  H      -4.315087     -0.171750     -0.021628
  H       2.391338     -2.058096      0.377652
  H       3.183979     -0.558977      0.014754
30
Coordinates from ORCA-job dimethylurea_guanine_opt_freq E -846.018363242853
  O       4.466565     -4.081691      1.701621
  N       6.700836     -3.618235      1.517516
  N       5.205320     -2.012886      2.331568
  C       5.407612     -3.296186      1.839841
  H       7.446490     -3.021072      1.840965
  H       4.221161     -1.823235      2.461933
  C       7.036901     -4.974112      1.105578
  H       7.071707     -5.669649      1.953627
  H       6.282182     -5.330776      0.402605
  H       8.010171     -4.964468      0.607768
  C       6.060682     -0.870615      2.028741
  H       6.358979     -0.836056      0.971572
  H       5.514889      0.044942      2.269766
  H       6.970032     -0.863595      2.644361
  O       0.011360      2.743623     -0.927932
  N      -2.564731      1.046910     -0.394170
  N       1.102958      0.788726     -0.363982
  N       0.043817     -1.251780      0.246976
  N      -2.387496     -1.103835      0.229120
  N       2.353243     -1.111968      0.172432
  C      -1.215179      0.763521     -0.324430
  C      -1.129173     -0.576866      0.062706
  C      -0.064355      1.565472     -0.575894
  C       1.119144     -0.542455      0.023537
  C      -3.209493     -0.107596     -0.052455
  H      -2.975870      1.932765     -0.651361
  H       1.964569      1.289735     -0.546917
  H      -4.289311     -0.169325     -0.023427
  H       2.406321     -2.087227      0.428283
  H       3.206449     -0.598493      0.033620
30
Coordinates from ORCA-job dimethylurea_guanine_opt_freq E -846.018713526247
  O       4.390864     -4.004858      1.703493
  N       6.629962     -3.587566      1.502004
  N       5.174938     -1.959562      2.344817
  C       5.351058     -3.238764      1.839205
  H       7.398960     -2.995268      1.773488
  H       4.198537     -1.760806      2.514146
  C       6.925690     -4.933560      1.031504
  H       6.957206     -5.660620      1.852412
  H       6.152221     -5.245955      0.327577
  H       7.891499     -4.929303      0.519172
  C       6.041663     -0.822424      2.060038
  H       6.381519     -0.807688      1.015459
  H       5.487480      0.098372      2.257556
  H       6.925997     -0.802634      2.711657
  O       0.074935      2.683663     -0.962371
  N      -2.504515      1.012214     -0.405796
  N       1.160372      0.737779     -0.353114
  N       0.088003     -1.287751      0.289265
  N      -2.343948     -1.128006      0.258310
  N       2.398961     -1.159186      0.223881
  C      -1.157593      0.721482     -0.323345
  C      -1.082049     -0.611295      0.089022
  C      -0.000564      1.512020     -0.587294
  C       1.166909     -0.588993      0.058009
  C      -3.158391     -0.132050     -0.046042
  H      -2.910221      1.894765     -0.682179
  H       2.028121      1.226840     -0.538405
  H      -4.238815     -0.184705     -0.021801
  H       2.444460     -2.129014      0.501460
  H       3.252522     -0.653558      0.061441
30
Coordinates from ORCA-job dimethylurea_guanine_opt_freq E -846.019467333468
  O       4.255491     -3.853285      1.699143
  N       6.505182     -3.533637      1.462610
  N       5.138504     -1.864410      2.372271
  C       5.254100     -3.132430      1.833894
  H       7.312928     -2.973002      1.682220
  H       4.179034     -1.649054      2.607469
  C       6.718302     -4.858178      0.893844
  H       6.721637     -5.638910      1.663907
  H       5.919431     -5.081655      0.184055
  H       7.676719     -4.871434      0.368085
  C       6.032540     -0.742509      2.122524
  H       6.439765     -0.759882      1.103270
  H       5.473447      0.187803      2.248392
  H       6.872418     -0.708194      2.830931
  O       0.179558      2.574057     -1.033844
  N      -2.406088      0.943365     -0.433856
  N       1.254412      0.649916     -0.338198
  N       0.163194     -1.345667      0.369430
  N      -2.268997     -1.171499      0.313269
  N       2.476216     -1.232075      0.321739
  C      -1.062849      0.645487     -0.326309
  C      -1.001884     -0.670901      0.136226
  C       0.102737      1.417514     -0.612127
  C       1.247840     -0.664518      0.122027
  C      -3.072582     -0.181688     -0.037219
  H      -2.804034      1.816853     -0.747623
  H       2.132009      1.118549     -0.528200
  H      -4.153673     -0.223072     -0.021715
  H       2.509718     -2.190509      0.638500
  H       3.330707     -0.743461      0.118856
30
Coordinates from ORCA-job dimethylurea_guanine_opt_freq E -846.020190957111
  O       4.081474     -3.626606      1.678421
  N       6.343391     -3.465665      1.392454
  N       5.121627     -1.743520      2.409853
  C       5.136680     -2.986549      1.818265
  H       7.203846     -2.986760      1.607567
  H       4.188397     -1.510591      2.722630
  C       6.437636     -4.756095      0.715368
  H       6.369816     -5.591633      1.421721
  H       5.623659     -4.854488     -0.005905
  H       7.394683     -4.810454      0.190368
  C       6.061406     -0.650568      2.214491
  H       6.542774     -0.699891      1.231408
  H       5.515187      0.294719      2.265059
  H       6.845991     -0.618305      2.983967
  O       0.295978      2.431144     -1.132728
  N      -2.295046      0.843835     -0.475534
  N       1.360818      0.543139     -0.327784
  N       0.254180     -1.411352      0.469982
  N      -2.177598     -1.230617      0.381454
  N       2.568824     -1.305711      0.447505
  C      -0.954825      0.545030     -0.337987
  C      -0.905765     -0.746141      0.192485
  C       0.217435      1.296678     -0.652407
  C       1.344491     -0.749530      0.200865
  C      -2.971768     -0.255863     -0.028044
  H      -2.686672      1.701513     -0.837018
  H       2.249420      0.988313     -0.520862
  H      -4.053249     -0.289988     -0.021978
  H       2.589278     -2.248677      0.812440
  H       3.423715     -0.841793      0.197515
30
Coordinates from ORCA-job dimethylurea_guanine_opt_freq E -846.020788701447
  O       4.118845     -3.646429      1.672279
  N       6.383840     -3.469292      1.379273
  N       5.154955     -1.757723      2.407601
  C       5.167771     -3.000952      1.814406
  H       7.238187     -3.035131      1.697531
  H       4.210005     -1.546396      2.695895
  C       6.504843     -4.789107      0.759258
  H       6.435049     -5.596652      1.497858
  H       5.702066     -4.928161      0.032723
  H       7.471666     -4.847960      0.253785
  C       6.112530     -0.681320      2.215733
  H       6.550897     -0.712245      1.211657
  H       5.595869      0.276001      2.325497
  H       6.928592     -0.706858      2.949994
  O       0.235821      2.480096     -1.112751
  N      -2.349696      0.861623     -0.466713
  N       1.309736      0.580860     -0.350908
  N       0.222124     -1.389371      0.429259
  N      -2.209207     -1.223401      0.358862
  N       2.535459     -1.268463      0.398317
  C      -1.005265      0.571579     -0.346514
  C      -0.941402     -0.727616      0.166374
  C       0.157871      1.336909     -0.654602
  C       1.308897     -0.715778      0.163287
  C      -3.013777     -0.249084     -0.029680
  H      -2.749388      1.723097     -0.809858
  H       2.194645      1.035430     -0.539227
  H      -4.094754     -0.294992     -0.014303
  H       2.562536     -2.223163      0.748102
  H       3.387066     -0.791928      0.160432
30
Coordinates from ORCA-job dimethylurea_guanine_opt_freq E -846.021527517837
  O       4.111241     -3.646046      1.667974
  N       6.366156     -3.437843      1.341136
  N       5.150441     -1.756661      2.421902
  C       5.153588     -2.992738      1.805528
  H       7.212743     -3.011230      1.686688
  H       4.210083     -1.536826      2.725100
  C       6.493779     -4.757834      0.729890
  H       6.433831     -5.563237      1.472326
  H       5.688064     -4.905345      0.008559
  H       7.457020     -4.809603      0.217159
  C       6.122601     -0.690392      2.243478
  H       6.571077     -0.729542      1.241465
  H       5.614524      0.272342      2.347183
  H       6.931382     -0.724699      2.985480
  O       0.263717      2.449135     -1.158958
  N      -2.342999      0.860648     -0.480511
  N       1.315559      0.552585     -0.364608
  N       0.215080     -1.391322      0.457471
  N      -2.213000     -1.207575      0.386053
  N       2.529210     -1.286161      0.425132
  C      -0.999407      0.565188     -0.358917
  C      -0.941574     -0.724163      0.180854
  C       0.167382      1.315907     -0.681734
  C       1.309096     -0.729754      0.176618
  C      -3.012518     -0.236727     -0.020062
  H      -2.736107      1.718731     -0.839443
  H       2.199266      1.004884     -0.565396
  H      -4.093592     -0.278339     -0.000739
  H       2.561399     -2.236536      0.786070
  H       3.387738     -0.823275      0.177869
30
Coordinates from ORCA-job dimethylurea_guanine_opt_freq E -846.022258564685
  O       4.069424     -3.581151      1.626560
  N       6.320759     -3.380487      1.267096
  N       5.145664     -1.730092      2.434076
  C       5.118963     -2.946051      1.772910
  H       7.160883     -3.007868      1.684742
  H       4.221816     -1.491811      2.769533
  C       6.423408     -4.707197      0.671258
  H       6.346421     -5.507457      1.418545
  H       5.615752     -4.842496     -0.049961
  H       7.383544     -4.780240      0.155035
  C       6.155155     -0.690967      2.300195
  H       6.620724     -0.729541      1.307334
  H       5.677611      0.286729      2.410421
  H       6.947355     -0.767801      3.056876
  O       0.306280      2.387869     -1.232781
  N      -2.324103      0.832489     -0.504700
  N       1.334885      0.506368     -0.380842
  N       0.226008     -1.399837      0.507553
  N      -2.197253     -1.204822      0.431584
  N       2.539857     -1.305439      0.474283
  C      -0.979867      0.537612     -0.377464
  C      -0.923371     -0.733613      0.206941
  C       0.188452      1.272211     -0.722222
  C       1.326248     -0.751377      0.203508
  C      -2.994837     -0.245735     -0.004318
  H      -2.712183      1.680852     -0.891115
  H       2.213214      0.960953     -0.600997
  H      -4.075831     -0.286989      0.020466
  H       2.587899     -2.247057      0.850104
  H       3.402903     -0.863486      0.208951
30
Coordinates from ORCA-job dimethylurea_guanine_opt_freq E -846.022446140366
  O       4.093429     -3.608138      1.609113
  N       6.347333     -3.379341      1.263693
  N       5.141925     -1.748157      2.427475
  C       5.134842     -2.962408      1.762635
  H       7.174243     -2.998790      1.701826
  H       4.220957     -1.499656      2.761335
  C       6.466390     -4.713567      0.687572
  H       6.396713     -5.504951      1.444764
  H       5.662401     -4.865286     -0.034328
  H       7.426459     -4.785962      0.170561
  C       6.156823     -0.711989      2.300269
  H       6.614941     -0.738786      1.304293
  H       5.687576      0.266569      2.431718
  H       6.953002     -0.804909      3.051696
  O       0.293623      2.391730     -1.248327
  N      -2.341448      0.845861     -0.506669
  N       1.318439      0.512204     -0.388736
  N       0.207383     -1.386571      0.511140
  N      -2.215455     -1.186578      0.440137
  N       2.521357     -1.297620      0.469035
  C      -0.997286      0.549215     -0.381600
  C      -0.941404     -0.718695      0.209341
  C       0.171900      1.279687     -0.731707
  C       1.308140     -0.741283      0.200017
  C      -3.012672     -0.228683      0.001065
  H      -2.728110      1.692986     -0.897218
  H       2.192100      0.971303     -0.618958
  H      -4.093667     -0.267970      0.028793
  H       2.579740     -2.239144      0.841283
  H       3.386109     -0.857498      0.203351
30
Coordinates from ORCA-job dimethylurea_guanine_opt_freq E -846.022695040902
  O       4.084024     -3.569282      1.580531
  N       6.348547     -3.368943      1.253410
  N       5.150023     -1.738192      2.428071
  C       5.135009     -2.941003      1.749877
  H       7.173424     -3.022112      1.724601
  H       4.236973     -1.478108      2.772453
  C       6.445987     -4.704211      0.668534
  H       6.356045     -5.498728      1.419635
  H       5.644693     -4.834515     -0.060314
  H       7.407537     -4.793917      0.156875
  C       6.183779     -0.715547      2.325302
  H       6.644356     -0.726155      1.331889
  H       5.731684      0.267435      2.479419
  H       6.974583     -0.840416      3.078261
  O       0.287076      2.368810     -1.284098
  N      -2.344278      0.834625     -0.517579
  N       1.316195      0.503207     -0.398407
  N       0.205438     -1.383108      0.529166
  N      -2.218697     -1.184004      0.458682
  N       2.519950     -1.294498      0.482301
  C      -1.000360      0.538551     -0.389804
  C      -0.944852     -0.720161      0.219311
  C       0.169249      1.263860     -0.751133
  C       1.305374     -0.742917      0.207168
  C      -3.015792     -0.232275      0.006169
  H      -2.731177      1.675968     -0.920156
  H       2.188320      0.960938     -0.637087
  H      -4.096849     -0.269253      0.035082
  H       2.585981     -2.235109      0.859515
  H       3.383540     -0.857370      0.205899
30
Coordinates from ORCA-job dimethylurea_guanine_opt_freq E -846.023024076904
  O       4.086181     -3.536844      1.546296
  N       6.364326     -3.376229      1.263865
  N       5.164756     -1.728873      2.414267
  C       5.146200     -2.926761      1.738474
  H       7.184399     -3.061734      1.766423
  H       4.257424     -1.452694      2.757798
  C       6.441449     -4.713598      0.673530
  H       6.334040     -5.508115      1.421729
  H       5.641930     -4.825314     -0.059915
  H       7.404355     -4.820307      0.167625
  C       6.224849     -0.729047      2.345102
  H       6.673681     -0.701393      1.348118
  H       5.802823      0.256442      2.556866
  H       7.019045     -0.913841      3.082102
  O       0.248118      2.367227     -1.306209
  N      -2.363238      0.823932     -0.522989
  N       1.299102      0.517231     -0.410499
  N       0.201065     -1.371949      0.530011
  N      -2.226574     -1.188643      0.465238
  N       2.515387     -1.269801      0.474391
  C      -1.018316      0.534377     -0.395581
  C      -0.956240     -0.719616      0.220375
  C       0.147543      1.264072     -0.764631
  C       1.294681     -0.728604      0.201613
  C      -3.029046     -0.242816      0.009431
  H      -2.756480      1.659767     -0.930828
  H       2.168623      0.976636     -0.654689
  H      -4.109992     -0.281740      0.039909
  H       2.594088     -2.212127      0.848104
  H       3.371599     -0.826067      0.187644
30
Coordinates from ORCA-job dimethylurea_guanine_opt_freq E -846.023437354915
  O       4.083468     -3.493352      1.511281
  N       6.371769     -3.386216      1.278167
  N       5.187252     -1.711002      2.397492
  C       5.153960     -2.906573      1.727434
  H       7.190496     -3.099962      1.800029
  H       4.288486     -1.408271      2.738821
  C       6.426010     -4.721373      0.676920
  H       6.307745     -5.518813      1.420239
  H       5.622662     -4.812554     -0.054677
  H       7.387046     -4.840386      0.170038
  C       6.286174     -0.751855      2.378978
  H       6.723227     -0.670979      1.379735
  H       5.906663      0.230558      2.669085
  H       7.081178     -1.019282      3.089557
  O       0.198254      2.361574     -1.340230
  N      -2.386992      0.806262     -0.531424
  N       1.277161      0.533965     -0.429015
  N       0.197952     -1.357114      0.533040
  N      -2.233513     -1.196255      0.475642
  N       2.511820     -1.234672      0.466907
  C      -1.040431      0.527051     -0.404424
  C      -0.968150     -0.719889      0.222501
  C       0.119467      1.262395     -0.785317
  C       1.283369     -0.709710      0.195015
  C      -3.044105     -0.261152      0.011620
  H      -2.789388      1.633788     -0.947179
  H       2.144150      0.993536     -0.680996
  H      -4.124822     -0.304797      0.043656
  H       2.606582     -2.177078      0.838678
  H       3.358292     -0.784272      0.161995
30
Coordinates from ORCA-job dimethylurea_guanine_opt_freq E -846.023996539996
  O       4.081679     -3.433912      1.474953
  N       6.374560     -3.399868      1.293148
  N       5.227349     -1.684134      2.379723
  C       5.164951     -2.879478      1.715531
  H       7.196938     -3.136942      1.820633
  H       4.339426     -1.345207      2.714336
  C       6.401914     -4.731282      0.683488
  H       6.280058     -5.531206      1.424039
  H       5.587563     -4.804019     -0.037509
  H       7.356612     -4.860860      0.167186
  C       6.377279     -0.790854      2.432243
  H       6.804444     -0.636344      1.436486
  H       6.053643      0.175081      2.825203
  H       7.166389     -1.166383      3.099584
  O       0.130184      2.356621     -1.387101
  N      -2.422903      0.780137     -0.545283
  N       1.243475      0.558277     -0.457173
  N       0.193278     -1.335485      0.534007
  N      -2.241618     -1.208495      0.485241
  N       2.505933     -1.181407      0.456802
  C      -1.073202      0.518755     -0.419223
  C      -0.983684     -0.719123      0.222134
  C       0.076490      1.263150     -0.816395
  C       1.267847     -0.680260      0.183692
  C      -3.065314     -0.288178      0.014318
  H      -2.838815      1.595450     -0.971699
  H       2.106954      1.019048     -0.718095
  H      -4.145438     -0.342200      0.050247
  H       2.620602     -2.122380      0.827638
  H       3.339187     -0.724930      0.125417
30
Coordinates from ORCA-job dimethylurea_guanine_opt_freq E -846.024614128128
  O       4.078762     -3.364778      1.455420
  N       6.367147     -3.414111      1.302466
  N       5.281216     -1.654083      2.374219
  C       5.177148     -2.848755      1.709156
  H       7.207842     -3.154289      1.799565
  H       4.405365     -1.278030      2.700763
  C       6.365419     -4.737454      0.681560
  H       6.248926     -5.542945      1.417762
  H       5.533366     -4.793835     -0.020522
  H       7.308110     -4.873117      0.145066
  C       6.477270     -0.834921      2.497270
  H       6.911131     -0.613221      1.515582
  H       6.200295      0.106852      2.974735
  H       7.247825     -1.303493      3.126410
  O       0.069150      2.345084     -1.443878
  N      -2.459174      0.750479     -0.564818
  N       1.208887      0.577691     -0.486775
  N       0.187402     -1.312502      0.540830
  N      -2.248732     -1.218530      0.497466
  N       2.498442     -1.126622      0.456504
  C      -1.105937      0.509351     -0.438227
  C      -0.998011     -0.717030      0.222676
  C       0.032726      1.261187     -0.853205
  C       1.252618     -0.650033      0.176447
  C      -3.085904     -0.318549      0.011114
  H      -2.887806      1.552054     -1.004461
  H       2.069124      1.039561     -0.755995
  H      -4.165110     -0.386718      0.050086
  H       2.628301     -2.062804      0.832954
  H       3.319983     -0.672867      0.093400
30
Coordinates from ORCA-job dimethylurea_guanine_opt_freq E -846.025136837807
  O       4.083917     -3.292615      1.445242
  N       6.362872     -3.425485      1.300617
  N       5.345410     -1.625387      2.374043
  C       5.197956     -2.817692      1.702808
  H       7.224631     -3.161387      1.754720
  H       4.479635     -1.216530      2.688367
  C       6.327559     -4.747918      0.686999
  H       6.222839     -5.550227      1.429235
  H       5.472684     -4.798164      0.012044
  H       7.251265     -4.896972      0.121804
  C       6.577629     -0.884813      2.563253
  H       7.021836     -0.600437      1.600652
  H       6.345100      0.026765      3.117272
  H       7.323627     -1.439585      3.149651
  O       0.008549      2.342856     -1.492404
  N      -2.500230      0.717467     -0.587397
  N       1.170136      0.602827     -0.513841
  N       0.181836     -1.288330      0.541220
  N      -2.253486     -1.233555      0.499075
  N       2.489833     -1.063999      0.455327
  C      -1.142275      0.502571     -0.460244
  C      -1.011174     -0.713753      0.216989
  C      -0.017804      1.266565     -0.888452
  C       1.237295     -0.612352      0.166337
  C      -3.106984     -0.352935      0.006176
  H      -2.942419      1.505408     -1.038126
  H       2.023845      1.075128     -0.786019
  H      -4.184518     -0.441415      0.050304
  H       2.633313     -1.996283      0.836041
  H       3.302902     -0.616181      0.061875
30
Coordinates from ORCA-job dimethylurea_guanine_opt_freq E -846.025462950837
  O       4.088014     -3.219418      1.455673
  N       6.356967     -3.425706      1.292512
  N       5.408633     -1.606396      2.400170
  C       5.218905     -2.785168      1.708991
  H       7.243991     -3.155898      1.689547
  H       4.556498     -1.171144      2.710197
  C       6.284527     -4.735496      0.659362
  H       6.185739     -5.547921      1.391372
  H       5.411472     -4.763284      0.006184
  H       7.189200     -4.892021      0.066087
  C       6.665755     -0.925369      2.632917
  H       7.138187     -0.619216      1.690466
  H       6.458620     -0.023226      3.212136
  H       7.378325     -1.527325      3.213995
  O      -0.021026      2.308753     -1.566638
  N      -2.527439      0.691060     -0.618760
  N       1.143758      0.599855     -0.540252
  N       0.167537     -1.267634      0.564631
  N      -2.266551     -1.227095      0.520611
  N       2.473984     -1.028359      0.479373
  C      -1.167462      0.489976     -0.486494
  C      -1.027123     -0.707199      0.223520
  C      -0.048879      1.249636     -0.934512
  C       1.220106     -0.593410      0.171587
  C      -3.126223     -0.368775      0.000401
  H      -2.973744      1.464530     -1.090043
  H       1.994154      1.074587     -0.818893
  H      -4.202813     -0.466727      0.047617
  H       2.617903     -1.952495      0.877659
  H       3.284767     -0.605541      0.054152
30
Coordinates from ORCA-job dimethylurea_guanine_opt_freq E -846.025724305541
  O       4.114625     -3.171342      1.460803
  N       6.378627     -3.434249      1.295046
  N       5.471561     -1.597267      2.413209
  C       5.256772     -2.767601      1.714102
  H       7.278201     -3.162988      1.661389
  H       4.623193     -1.139516      2.710155
  C       6.278992     -4.743248      0.663662
  H       6.186408     -5.553924      1.398085
  H       5.392848     -4.762017      0.027785
  H       7.167782     -4.912355      0.050163
  C       6.752283     -0.973736      2.680764
  H       7.242066     -0.639810      1.756715
  H       6.578305     -0.092191      3.301317
  H       7.435575     -1.629897      3.237090
  O      -0.074701      2.305596     -1.612407
  N      -2.570614      0.673885     -0.644968
  N       1.101949      0.620207     -0.562230
  N       0.144299     -1.241423      0.566837
  N      -2.289386     -1.224785      0.521067
  N       2.448017     -0.978117      0.483876
  C      -1.208171      0.489359     -0.510425
  C      -1.054983     -0.696010      0.216994
  C      -0.098108      1.254962     -0.967446
  C       1.190674     -0.559804      0.164789
  C      -3.158020     -0.382431     -0.009780
  H      -3.023545      1.437206     -1.126407
  H       1.945602      1.107441     -0.840335
  H      -4.233286     -0.492672      0.040535
  H       2.596233     -1.899254      0.888881
  H       3.252582     -0.570445      0.034304
30
Coordinates from ORCA-job dimethylurea_guanine_opt_freq E -846.025917181839
  O       4.120450     -3.111776      1.459346
  N       6.379300     -3.428913      1.288969
  N       5.512040     -1.583377      2.428570
  C       5.273274     -2.738322      1.715611
  H       7.286922     -3.176596      1.648983
  H       4.671552     -1.110025      2.724458
  C       6.246760     -4.727653      0.640568
  H       6.137662     -5.544339      1.365548
  H       5.359693     -4.716973      0.005781
  H       7.129107     -4.911151      0.021853
  C       6.810107     -0.998273      2.721934
  H       7.330153     -0.666969      1.813450
  H       6.656461     -0.118804      3.351293
  H       7.458954     -1.685426      3.281291
  O      -0.093911      2.277795     -1.658741
  N      -2.585717      0.653472     -0.667107
  N       1.087476      0.615460     -0.577260
  N       0.134846     -1.229309      0.583242
  N      -2.298947     -1.221806      0.534994
  N       2.437577     -0.957925      0.501147
  C      -1.222573      0.476067     -0.527818
  C      -1.066040     -0.694267      0.222650
  C      -0.114973      1.238150     -0.996342
  C       1.179071     -0.550226      0.170444
  C      -3.169995     -0.390769     -0.009601
  H      -3.040108      1.406887     -1.162562
  H       1.927488      1.107802     -0.857564
  H      -4.244907     -0.503495      0.042951
  H       2.584680     -1.873958      0.917975
  H       3.239380     -0.571710      0.029507
30
Coordinates from ORCA-job dimethylurea_guanine_opt_freq E -846.026028471796
  O       4.135476     -3.082979      1.453904
  N       6.391059     -3.432043      1.292432
  N       5.540614     -1.578560      2.435548
  C       5.292690     -2.726158      1.717527
  H       7.300248     -3.195280      1.658802
  H       4.703353     -1.096326      2.727838
  C       6.239037     -4.725211      0.635872
  H       6.112485     -5.543169      1.356293
  H       5.356639     -4.694502     -0.004631
  H       7.121496     -4.921238      0.021013
  C       6.846521     -1.014637      2.739417
  H       7.384816     -0.690373      1.838456
  H       6.705444     -0.136934      3.374154
  H       7.474107     -1.719242      3.300959
  O      -0.116125      2.271255     -1.678136
  N      -2.601545      0.644898     -0.678587
  N       1.072221      0.620963     -0.585025
  N       0.124549     -1.219395      0.586777
  N      -2.309735     -1.219199      0.540135
  N       2.426467     -0.939938      0.506392
  C      -1.237902      0.471755     -0.537867
  C      -1.078461     -0.691737      0.222148
  C      -0.132383      1.235538     -1.009183
  C       1.166130     -0.539673      0.170204
  C      -3.182904     -0.397391     -0.015265
  H      -3.057750      1.394604     -1.177955
  H       1.908660      1.120329     -0.863570
  H      -4.257574     -0.512726      0.036799
  H       2.572467     -1.853609      0.928721
  H       3.225680     -0.565447      0.020395
30
Coordinates from ORCA-job dimethylurea_guanine_opt_freq E -846.026153362009
  O       4.157749     -3.038762      1.441093
  N       6.406043     -3.435022      1.296237
  N       5.584289     -1.570952      2.445565
  C       5.319981     -2.707345      1.717880
  H       7.316243     -3.223771      1.675520
  H       4.754134     -1.075610      2.732960
  C       6.227257     -4.719235      0.628601
  H       6.071427     -5.538297      1.341891
  H       5.354188     -4.659585     -0.022345
  H       7.111871     -4.934050      0.023016
  C       6.899967     -1.041033      2.766887
  H       7.461967     -0.727009      1.876682
  H       6.775941     -0.166710      3.409473
  H       7.499102     -1.769394      3.329787
  O      -0.147969      2.260492     -1.707404
  N      -2.624483      0.630611     -0.696914
  N       1.049625      0.628233     -0.596855
  N       0.109528     -1.204803      0.592322
  N      -2.325272     -1.217438      0.544699
  N       2.410419     -0.912614      0.514902
  C      -1.260226      0.464982     -0.552974
  C      -1.096390     -0.687811      0.221916
  C      -0.157741      1.230411     -1.029270
  C       1.147643     -0.524356      0.170598
  C      -3.201730     -0.404654     -0.018970
  H      -3.083565      1.373262     -1.204111
  H       1.881781      1.135950     -0.873161
  H      -4.276031     -0.523199      0.033641
  H       2.555718     -1.822255      0.945134
  H       3.204316     -0.556463      0.006768
30
Coordinates from ORCA-job dimethylurea_guanine_opt_freq E -846.026330170010
  O       4.190676     -2.969893      1.416424
  N       6.425339     -3.439275      1.301801
  N       5.649121     -1.559297      2.458101
  C       5.358425     -2.678783      1.715181
  H       7.333681     -3.269016      1.705588
  H       4.830791     -1.042442      2.738942
  C       6.209452     -4.710094      0.619728
  H       6.000988     -5.526786      1.322214
  H       5.357494     -4.608096     -0.053304
  H       7.100720     -4.957278      0.036577
  C       6.976044     -1.081615      2.805254
  H       7.569702     -0.789946      1.927936
  H       6.877323     -0.208911      3.454116
  H       7.534664     -1.839330      3.372297
  O      -0.194560      2.246847     -1.745887
  N      -2.657275      0.608621     -0.721341
  N       1.016710      0.640630     -0.612227
  N       0.089413     -1.183644      0.599613
  N      -2.346027     -1.215778      0.552048
  N       2.388947     -0.869315      0.527726
  C      -1.292185      0.455016     -0.573721
  C      -1.120996     -0.682949      0.220843
  C      -0.194766      1.224650     -1.055441
  C       1.122311     -0.500646      0.171793
  C      -3.227759     -0.419829     -0.027234
  H      -3.121322      1.341688     -1.237908
  H       1.842817      1.160770     -0.883774
  H      -4.301332     -0.544854      0.025151
  H       2.533549     -1.773427      0.968611
  H       3.173835     -0.543447     -0.015537
30
Coordinates from ORCA-job dimethylurea_guanine_opt_freq E -846.026541639215
  O       4.227118     -2.903564      1.386792
  N       6.445783     -3.444962      1.309471
  N       5.713013     -1.554301      2.474404
  C       5.397037     -2.654487      1.712071
  H       7.347395     -3.318055      1.743315
  H       4.908250     -1.014251      2.750821
  C       6.198937     -4.698340      0.606388
  H       5.921560     -5.510001      1.290776
  H       5.382812     -4.550777     -0.101672
  H       7.103049     -4.982248      0.061090
  C       7.048247     -1.122728      2.841227
  H       7.672722     -0.875207      1.971576
  H       6.970891     -0.236065      3.473440
  H       7.567929     -1.890616      3.432800
  O      -0.237769      2.230945     -1.785038
  N      -2.689382      0.588507     -0.746810
  N       0.983612      0.651147     -0.625370
  N       0.066052     -1.161451      0.610347
  N      -2.369786     -1.210807      0.559710
  N       2.365107     -0.826737      0.545234
  C      -1.324077      0.445986     -0.593928
  C      -1.147804     -0.675706      0.221947
  C      -0.230179      1.217599     -1.081388
  C       1.094966     -0.477825      0.176577
  C      -3.255311     -0.429897     -0.034028
  H      -3.157240      1.311035     -1.274724
  H       1.805487      1.180805     -0.891539
  H      -4.328325     -0.559801      0.017597
  H       2.506134     -1.724917      0.997538
  H       3.139553     -0.539708     -0.035052
30
Coordinates from ORCA-job dimethylurea_guanine_opt_freq E -846.026781176935
  O       4.259571     -2.829027      1.343487
  N       6.458655     -3.449377      1.316138
  N       5.769369     -1.546750      2.482495
  C       5.428084     -2.626798      1.700744
  H       7.344568     -3.372596      1.792382
  H       4.981412     -0.979746      2.755491
  C       6.184232     -4.687215      0.596338
  H       5.824246     -5.483681      1.260117
  H       5.418072     -4.497290     -0.156256
  H       7.102112     -5.018010      0.103393
  C       7.111173     -1.164797      2.875519
  H       7.760943     -0.967451      2.011909
  H       7.057941     -0.259794      3.483589
  H       7.591725     -1.936889      3.495505
  O      -0.280851      2.220230     -1.815783
  N      -2.717109      0.564284     -0.764759
  N       0.954023      0.666216     -0.635941
  N       0.052783     -1.140670      0.618978
  N      -2.382685     -1.212919      0.567733
  N       2.350680     -0.778507      0.557958
  C      -1.351154      0.436639     -0.608915
  C      -1.165570     -0.671344      0.223292
  C      -0.263424      1.214424     -1.101556
  C       1.075508     -0.452154      0.179849
  C      -3.274786     -0.449385     -0.038480
  H      -3.191576      1.276020     -1.301434
  H       1.771974      1.204696     -0.896662
  H      -4.346647     -0.588345      0.013023
  H       2.491166     -1.674108      1.015280
  H       3.111345     -0.532082     -0.059866
30
Coordinates from ORCA-job dimethylurea_guanine_opt_freq E -846.026951986014
  O       4.292871     -2.757730      1.304392
  N       6.469348     -3.455377      1.323572
  N       5.821555     -1.542443      2.492270
  C       5.458099     -2.601972      1.691165
  H       7.341962     -3.419816      1.828383
  H       5.050561     -0.950117      2.759796
  C       6.171057     -4.676657      0.585575
  H       5.734648     -5.454701      1.225010
  H       5.456510     -4.450065     -0.207097
  H       7.096157     -5.052816      0.141546
  C       7.169519     -1.208354      2.911511
  H       7.841215     -1.058819      2.056002
  H       7.138362     -0.282112      3.488325
  H       7.609649     -1.977069      3.564936
  O      -0.321540      2.207415     -1.850801
  N      -2.743384      0.540656     -0.780469
  N       0.925390      0.681263     -0.647374
  N       0.041426     -1.117846      0.630154
  N      -2.392816     -1.214151      0.576942
  N       2.337636     -0.729308      0.569723
  C      -1.376640      0.429335     -0.621494
  C      -1.180850     -0.664760      0.226648
  C      -0.295817      1.211576     -1.123485
  C       1.057463     -0.424563      0.182881
  C      -3.291989     -0.467787     -0.040002
  H      -3.224617      1.239326     -1.328216
  H       1.741322      1.223622     -0.906422
  H      -4.362376     -0.617112      0.012757
  H       2.478211     -1.623764      1.028151
  H       3.082851     -0.522284     -0.080809
30
Coordinates from ORCA-job dimethylurea_guanine_opt_freq E -846.027015728083
  O       4.304291     -2.726751      1.273794
  N       6.467985     -3.464577      1.329933
  N       5.833292     -1.541323      2.489088
  C       5.465135     -2.593636      1.681107
  H       7.328233     -3.452307      1.856803
  H       5.067908     -0.936083      2.754560
  C       6.159694     -4.679731      0.585449
  H       5.673439     -5.440146      1.209853
  H       5.484253     -4.436995     -0.236520
  H       7.088814     -5.086996      0.179123
  C       7.178031     -1.219115      2.923753
  H       7.856224     -1.099558      2.068925
  H       7.153893     -0.275192      3.472223
  H       7.599015     -1.975811      3.602215
  O      -0.343547      2.213996     -1.851041
  N      -2.749256      0.526465     -0.774808
  N       0.917781      0.697880     -0.649279
  N       0.052607     -1.110307      0.628415
  N      -2.380582     -1.227582      0.578624
  N       2.346843     -0.700885      0.562794
  C      -1.381341      0.427540     -0.618068
  C      -1.174184     -0.666471      0.227473
  C      -0.308406      1.219076     -1.123411
  C       1.061122     -0.407512      0.178640
  C      -3.287517     -0.488654     -0.035875
  H      -3.237800      1.220130     -1.322460
  H       1.732240      1.242637     -0.907889
  H      -4.356300     -0.648328      0.018928
  H       2.487518     -1.601103      1.011451
  H       3.086397     -0.505087     -0.100228
30
Coordinates from ORCA-job dimethylurea_guanine_opt_freq E -846.027024889276
  O       4.333581     -2.659027      1.247354
  N       6.472004     -3.465441      1.334838
  N       5.877911     -1.527554      2.492034
  C       5.491540     -2.564335      1.674193
  H       7.327285     -3.479336      1.869641
  H       5.126546     -0.904737      2.744248
  C       6.136579     -4.668912      0.582843
  H       5.611690     -5.411856      1.196740
  H       5.487110     -4.403824     -0.253192
  H       7.058333     -5.108375      0.193651
  C       7.230603     -1.264163      2.960527
  H       7.932532     -1.151707      2.124860
  H       7.229041     -0.324779      3.517582
  H       7.603721     -2.044855      3.638837
  O      -0.383519      2.199531     -1.887384
  N      -2.770830      0.502207     -0.782858
  N       0.894105      0.712083     -0.666457
  N       0.050247     -1.088954      0.635606
  N      -2.381419     -1.231860      0.590263
  N       2.340486     -0.654786      0.562600
  C      -1.401565      0.420161     -0.626565
  C      -1.181390     -0.662003      0.230845
  C      -0.338213      1.215741     -1.145925
  C       1.050177     -0.380886      0.173903
  C      -3.296952     -0.511066     -0.032926
  H      -3.267114      1.182545     -1.340174
  H       1.704811      1.259313     -0.931450
  H      -4.363682     -0.682647      0.025858
  H       2.488419     -1.556256      1.006668
  H       3.063742     -0.480650     -0.122592
30
Coordinates from ORCA-job dimethylurea_guanine_opt_freq E -846.027091521476
  O       4.321172     -2.696949      1.257439
  N       6.472047     -3.469278      1.334476
  N       5.853690     -1.537298      2.490545
  C       5.480127     -2.582330      1.677763
  H       7.331225     -3.468240      1.863131
  H       5.093596     -0.924280      2.745430
  C       6.149945     -4.678100      0.585102
  H       5.644559     -5.430079      1.204255
  H       5.488254     -4.423064     -0.244321
  H       7.075354     -5.101457      0.186621
  C       7.200537     -1.242434      2.947929
  H       7.894129     -1.122296      2.106457
  H       7.182960     -0.300999      3.501050
  H       7.591857     -2.012924      3.627628
  O      -0.371806      2.207138     -1.874483
  N      -2.761968      0.513739     -0.772297
  N       0.904273      0.709417     -0.664320
  N       0.056616     -1.095365      0.630475
  N      -2.375751     -1.230313      0.589249
  N       2.347523     -0.671558      0.552950
  C      -1.392596      0.425907     -0.619054
  C      -1.174527     -0.662363      0.231057
  C      -0.327706      1.219664     -1.137695
  C       1.057951     -0.388784      0.170062
  C      -3.290024     -0.501926     -0.027037
  H      -3.256852      1.198580     -1.325306
  H       1.715829      1.253420     -0.933199
  H      -4.357278     -0.669797      0.033074
  H       2.492707     -1.574684      0.994079
  H       3.079937     -0.479774     -0.117491
30
Coordinates from ORCA-job dimethylurea_guanine_opt_freq E -846.027114897645
  O       4.319373     -2.705408      1.251052
  N       6.471110     -3.473407      1.337029
  N       5.844871     -1.539081      2.486145
  C       5.476901     -2.586882      1.675384
  H       7.328681     -3.470141      1.868325
  H       5.082124     -0.927485      2.737312
  C       6.151610     -4.683997      0.589169
  H       5.646333     -5.435285      1.209129
  H       5.491812     -4.430548     -0.242129
  H       7.078389     -5.106933      0.193257
  C       7.188017     -1.239118      2.949674
  H       7.884893     -1.114654      2.111257
  H       7.164015     -0.299405      3.505378
  H       7.576944     -2.011335      3.628593
  O      -0.379441      2.212285     -1.871788
  N      -2.760562      0.513176     -0.761021
  N       0.905871      0.715582     -0.669817
  N       0.067455     -1.093894      0.624801
  N      -2.364946     -1.234922      0.592752
  N       2.356499     -0.666619      0.538061
  C      -1.390321      0.427999     -0.613119
  C      -1.166478     -0.662829      0.232059
  C      -0.329547      1.224187     -1.136150
  C       1.065152     -0.384387      0.161369
  C      -3.283262     -0.506411     -0.017425
  H      -3.258922      1.197621     -1.311381
  H       1.715098      1.259614     -0.945483
  H      -4.349894     -0.676871      0.046450
  H       2.503183     -1.573262      0.972240
  H       3.090824     -0.464019     -0.127555
30
Coordinates from ORCA-job dimethylurea_guanine_opt_freq E -846.027158183801
  O       4.321094     -2.708973      1.230115
  N       6.468794     -3.482690      1.344167
  N       5.835268     -1.540500      2.477203
  C       5.474155     -2.591011      1.667904
  H       7.320571     -3.480087      1.884698
  H       5.070517     -0.926888      2.717310
  C       6.151478     -4.694884      0.597766
  H       5.635650     -5.440752      1.215430
  H       5.503605     -4.440692     -0.242483
  H       7.081010     -5.124002      0.214962
  C       7.171504     -1.242499      2.960777
  H       7.880999     -1.114244      2.133112
  H       7.138575     -0.306373      3.521804
  H       7.547622     -2.020746      3.639869
  O      -0.405090      2.221380     -1.872302
  N      -2.762178      0.505959     -0.738436
  N       0.903746      0.732538     -0.685627
  N       0.090775     -1.085911      0.612912
  N      -2.340930     -1.245933      0.602848
  N       2.374697     -0.644596      0.505503
  C      -1.389919      0.430497     -0.602995
  C      -1.150194     -0.663073      0.234096
  C      -0.340298      1.233513     -1.137375
  C       1.078710     -0.368536      0.141234
  C      -3.270200     -0.521474      0.004401
  H      -3.270194      1.187075     -1.284066
  H       1.706157      1.278770     -0.976351
  H      -4.334898     -0.700101      0.077599
  H       2.526464     -1.557872      0.925006
  H       3.108291     -0.424324     -0.155511
30
Coordinates from ORCA-job dimethylurea_guanine_opt_freq E -846.027198589891
  O       4.323822     -2.700840      1.205325
  N       6.463091     -3.491096      1.351742
  N       5.830775     -1.538228      2.467171
  C       5.471805     -2.589749      1.658280
  H       7.308491     -3.491587      1.902157
  H       5.067527     -0.918331      2.694550
  C       6.145393     -4.703954      0.606581
  H       5.614113     -5.442156      1.220308
  H       5.512330     -4.447444     -0.244143
  H       7.076723     -5.143135      0.239828
  C       7.160811     -1.252915      2.975339
  H       7.886485     -1.123147      2.161646
  H       7.123435     -0.321820      3.544206
  H       7.519528     -2.040172      3.653535
  O      -0.434849      2.228803     -1.875219
  N      -2.764850      0.492793     -0.717772
  N       0.899427      0.751618     -0.702432
  N       0.115739     -1.075245      0.602015
  N      -2.314378     -1.259122      0.614055
  N       2.393848     -0.615033      0.473471
  C      -1.390700      0.430213     -0.594979
  C      -1.132762     -0.663686      0.236256
  C      -0.353764      1.241880     -1.140470
  C       1.092606     -0.348697      0.121503
  C      -3.256019     -0.541939      0.026203
  H      -3.284014      1.169011     -1.258980
  H       1.693347      1.302569     -1.007272
  H      -4.318248     -0.730824      0.108893
  H       2.553208     -1.533642      0.879672
  H       3.122860     -0.380556     -0.187900
30
Coordinates from ORCA-job dimethylurea_guanine_opt_freq E -846.027269574562
  O       4.330764     -2.673345      1.153754
  N       6.447399     -3.506629      1.367001
  N       5.827008     -1.531111      2.448038
  C       5.467478     -2.582294      1.637976
  H       7.279333     -3.516157      1.937316
  H       5.070650     -0.894986      2.649733
  C       6.126280     -4.719162      0.623035
  H       5.559155     -5.439567      1.225780
  H       5.526384     -4.456593     -0.249643
  H       7.059103     -5.182288      0.291314
  C       7.144322     -1.278847      3.005040
  H       7.903312     -1.152718      2.221209
  H       7.102513     -0.356134      3.586878
  H       7.465726     -2.081782      3.683969
  O      -0.494720      2.241374     -1.880604
  N      -2.769033      0.460706     -0.680124
  N       0.889506      0.789516     -0.734965
  N       0.166055     -1.053204      0.580805
  N      -2.259087     -1.286939      0.635870
  N       2.431554     -0.550608      0.413129
  C      -1.391927      0.425727     -0.582258
  C      -1.096778     -0.666309      0.239204
  C      -0.381107      1.256236     -1.147433
  C       1.119968     -0.307617      0.083637
  C      -3.225529     -0.586967      0.067813
  H      -3.311055      1.126429     -1.211855
  H       1.665121      1.352962     -1.063366
  H      -4.282108     -0.797249      0.169112
  H       2.608512     -1.476486      0.797249
  H       3.146980     -0.292387     -0.254045
30
Coordinates from ORCA-job dimethylurea_guanine_opt_freq E -846.027360260892
  O       4.336614     -2.637409      1.099992
  N       6.424412     -3.520923      1.381587
  N       5.824158     -1.521861      2.428664
  C       5.460438     -2.570908      1.616043
  H       7.240800     -3.542672      1.973457
  H       5.078511     -0.866887      2.605019
  C       6.097129     -4.732088      0.638489
  H       5.490361     -5.431398      1.227454
  H       5.533820     -4.463279     -0.256537
  H       7.028355     -5.222793      0.344386
  C       7.127320     -1.306204      3.032372
  H       7.918582     -1.191151      2.279189
  H       7.084852     -0.388786      3.622487
  H       7.410230     -2.120143      3.715969
  O      -0.552864      2.252562     -1.881687
  N      -2.768349      0.421441     -0.644355
  N       0.881100      0.827761     -0.764583
  N       0.220781     -1.031288      0.559893
  N      -2.196893     -1.318585      0.656387
  N       2.471917     -0.481457      0.355059
  C      -1.389391      0.416479     -0.571310
  C      -1.055635     -0.671430      0.241207
  C      -0.406168      1.268634     -1.152449
  C       1.150209     -0.265059      0.047831
  C      -3.188388     -0.638534      0.107732
  H      -3.334145      1.076249     -1.164771
  H       1.636783      1.407280     -1.111210
  H      -4.238238     -0.871929      0.226831
  H       2.669986     -1.410914      0.722026
  H       3.169495     -0.201137     -0.321603
30
Coordinates from ORCA-job dimethylurea_guanine_opt_freq E -846.027518970627
  O       4.338433     -2.604241      1.047757
  N       6.396522     -3.533938      1.393738
  N       5.816097     -1.514924      2.410406
  C       5.448400     -2.561234      1.593528
  H       7.195840     -3.567084      2.007878
  H       5.082833     -0.841246      2.562635
  C       6.065618     -4.744461      0.651734
  H       5.422674     -5.423651      1.225933
  H       5.536694     -4.472722     -0.263399
  H       6.993936     -5.259881      0.393546
  C       7.103657     -1.328771      3.054236
  H       7.922831     -1.232133      2.329305
  H       7.062172     -0.410332      3.643139
  H       7.353519     -2.143058      3.751136
  O      -0.602345      2.264308     -1.874839
  N      -2.761686      0.380300     -0.611195
  N       0.876479      0.862320     -0.789543
  N       0.276697     -1.012908      0.539111
  N      -2.131835     -1.349861      0.675506
  N       2.513217     -0.416854      0.298946
  C      -1.382079      0.403900     -0.562758
  C      -1.011429     -0.678506      0.241777
  C      -0.425349      1.279030     -1.153916
  C       1.182484     -0.226517      0.014789
  C      -3.146590     -0.689677      0.145774
  H      -3.350389      1.026117     -1.117239
  H       1.612271      1.461180     -1.146209
  H      -4.189301     -0.944842      0.281717
  H       2.737687     -1.343550      0.658746
  H       3.188724     -0.113192     -0.388666
30
Coordinates from ORCA-job dimethylurea_guanine_opt_freq E -846.027746190275
  O       4.335149     -2.575901      0.997521
  N       6.365656     -3.544103      1.402475
  N       5.799338     -1.508870      2.391642
  C       5.431203     -2.552829      1.570609
  H       7.145568     -3.588409      2.040531
  H       5.077615     -0.818327      2.522527
  C       6.032988     -4.755533      0.662855
  H       5.362230     -5.417699      1.225212
  H       5.531183     -4.484550     -0.267846
  H       6.957632     -5.290247      0.433017
  C       7.071551     -1.340947      3.067833
  H       7.911130     -1.264745      2.364866
  H       7.033963     -0.416136      3.647625
  H       7.294135     -2.147560      3.783158
  O      -0.636586      2.278189     -1.855046
  N      -2.747629      0.341747     -0.581571
  N       0.878923      0.889175     -0.806041
  N       0.330998     -1.004525      0.517797
  N      -2.068525     -1.380757      0.689851
  N       2.554429     -0.367129      0.246339
  C      -1.368252      0.388288     -0.556190
  C      -0.966313     -0.689589      0.239979
  C      -0.434436      1.287100     -1.148875
  C       1.216182     -0.199176     -0.014028
  C      -3.102532     -0.736002      0.179326
  H      -3.356184      0.983286     -1.069212
  H       1.598086      1.509898     -1.159420
  H      -4.138677     -1.009040      0.329964
  H       2.812401     -1.283284      0.612147
  H       3.204554     -0.038751     -0.453470
30
Coordinates from ORCA-job dimethylurea_guanine_opt_freq E -846.027944858598
  O       4.336232     -2.542382      0.943886
  N       6.331804     -3.554645      1.411891
  N       5.782266     -1.501489      2.373888
  C       5.415862     -2.541313      1.548747
  H       7.089008     -3.616080      2.075535
  H       5.072374     -0.793985      2.483095
  C       5.990874     -4.762587      0.669738
  H       5.288601     -5.404374      1.216886
  H       5.522349     -4.486269     -0.276610
  H       6.907977     -5.321047      0.467944
  C       7.038549     -1.352563      3.083684
  H       7.898164     -1.302208      2.402897
  H       7.007855     -0.418326      3.649021
  H       7.221253     -2.152140      3.817371
  O      -0.672903      2.283454     -1.840650
  N      -2.728642      0.298458     -0.550480
  N       0.883226      0.916037     -0.823050
  N       0.390417     -0.994132      0.499738
  N      -1.999013     -1.412744      0.707963
  N       2.597803     -0.312498      0.195027
  C      -1.350078      0.369681     -0.546806
  C      -0.916373     -0.701390      0.241749
  C      -0.442161      1.291014     -1.145540
  C       1.252327     -0.169694     -0.041596
  C      -3.052243     -0.785682      0.215368
  H      -3.356907      0.932316     -1.022894
  H       1.586280      1.555965     -1.174498
  H      -4.080870     -1.077715      0.381213
  H       2.887704     -1.218495      0.566247
  H       3.224047      0.038404     -0.516194
30
Coordinates from ORCA-job dimethylurea_guanine_opt_freq E -846.028119610815
  O       4.344459     -2.503943      0.886379
  N       6.297579     -3.564100      1.420772
  N       5.765997     -1.493840      2.359420
  C       5.404065     -2.526627      1.527692
  H       7.024795     -3.649678      2.114809
  H       5.068596     -0.770420      2.446347
  C       5.943495     -4.763968      0.670600
  H       5.205795     -5.381943      1.197709
  H       5.515861     -4.476476     -0.291431
  H       6.849422     -5.350076      0.498045
  C       7.005664     -1.365884      3.104352
  H       7.884088     -1.348604      2.445959
  H       6.985666     -0.419494      3.649685
  H       7.136847     -2.158832      3.854822
  O      -0.711567      2.277186     -1.837036
  N      -2.706542      0.252396     -0.517894
  N       0.887666      0.941043     -0.843111
  N       0.452184     -0.979570      0.487095
  N      -1.926009     -1.442036      0.732774
  N       2.640795     -0.254097      0.145501
  C      -1.329298      0.349014     -0.535089
  C      -0.863911     -0.711587      0.248889
  C      -0.449914      1.289463     -1.146660
  C       1.288901     -0.138203     -0.067761
  C      -2.998089     -0.835609      0.255114
  H      -3.353844      0.874702     -0.979797
  H       1.575240      1.596132     -1.196875
  H      -4.018253     -1.147098      0.437178
  H       2.961207     -1.149221      0.522146
  H       3.244888      0.114939     -0.576064
30
Coordinates from ORCA-job dimethylurea_guanine_opt_freq E -846.028232078661
  O       4.356548     -2.432798      0.805819
  N       6.233140     -3.575197      1.432954
  N       5.750287     -1.477540      2.339412
  C       5.383476     -2.497720      1.497306
  H       6.917162     -3.695209      2.164923
  H       5.079046     -0.727080      2.394333
  C       5.854995     -4.759631      0.669237
  H       5.058776     -5.333519      1.159258
  H       5.497481     -4.455693     -0.315916
  H       6.736787     -5.393633      0.547754
  C       6.962809     -1.398183      3.138441
  H       7.868895     -1.436330      2.518900
  H       6.964821     -0.440549      3.663925
  H       7.014201     -2.184840      3.904314
  O      -0.777442      2.250525     -1.848357
  N      -2.667823      0.168823     -0.469687
  N       0.891189      0.982412     -0.877964
  N       0.553501     -0.942228      0.476127
  N      -1.801484     -1.486750      0.776720
  N       2.706644     -0.142372      0.080679
  C      -1.295190      0.313778     -0.516314
  C      -0.776275     -0.723273      0.264965
  C      -0.464642      1.279698     -1.155527
  C       1.347033     -0.076084     -0.103378
  C      -2.904212     -0.922232      0.317448
  H      -3.345960      0.763465     -0.923686
  H       1.548768      1.657709     -1.250053
  H      -3.908363     -1.268448      0.524201
  H       3.059540     -1.030229      0.453744
  H       3.282070      0.246699     -0.656005
30
Coordinates from ORCA-job dimethylurea_guanine_opt_freq E -846.028295799966
  O       4.387344     -2.412336      0.775263
  N       6.236334     -3.578413      1.437903
  N       5.750643     -1.482091      2.349529
  C       5.396714     -2.491723      1.492358
  H       6.890643     -3.719511      2.193136
  H       5.083553     -0.727831      2.394036
  C       5.857803     -4.749948      0.653759
  H       5.035598     -5.310379      1.115048
  H       5.541058     -4.431363     -0.340463
  H       6.730878     -5.400206      0.555834
  C       6.956655     -1.409535      3.161833
  H       7.865507     -1.491687      2.551011
  H       6.978437     -0.433975      3.652111
  H       6.969964     -2.177951      3.946769
  O      -0.794437      2.232091     -1.871094
  N      -2.668712      0.162833     -0.458770
  N       0.885197      0.981504     -0.894216
  N       0.560014     -0.931812      0.480822
  N      -1.792895     -1.478865      0.799527
  N       2.708175     -0.129639      0.066350
  C      -1.296111      0.309953     -0.512590
  C      -0.771707     -0.718259      0.275809
  C      -0.473541      1.271248     -1.168514
  C       1.347369     -0.069190     -0.111985
  C      -2.899021     -0.921132      0.339371
  H      -3.349366      0.750562     -0.917977
  H       1.541998      1.653963     -1.272437
  H      -3.900890     -1.268350      0.555353
  H       3.070867     -1.008780      0.446055
  H       3.277713      0.244394     -0.680261
30
Coordinates from ORCA-job dimethylurea_guanine_opt_freq E -846.028375573662
  O       4.388276     -2.381927      0.747622
  N       6.207377     -3.577575      1.439968
  N       5.741131     -1.474254      2.344603
  C       5.384441     -2.478034      1.480410
  H       6.848570     -3.727274      2.204704
  H       5.084667     -0.710327      2.377205
  C       5.825822     -4.743111      0.648531
  H       4.985559     -5.290217      1.092997
  H       5.533782     -4.419357     -0.351645
  H       6.690281     -5.407199      0.569128
  C       6.934294     -1.424440      3.177685
  H       7.849922     -1.529647      2.580802
  H       6.968740     -0.448952      3.667062
  H       6.921220     -2.194241      3.961698
  O      -0.815061      2.211051     -1.885832
  N      -2.651087      0.131780     -0.438196
  N       0.888244      0.991552     -0.911032
  N       0.599061     -0.913414      0.482645
  N      -1.743730     -1.490045      0.823482
  N       2.733138     -0.088268      0.045619
  C      -1.281052      0.296857     -0.503660
  C      -0.736846     -0.719337      0.287045
  C      -0.476332      1.261578     -1.176018
  C       1.370795     -0.045956     -0.123657
  C      -2.860745     -0.950341      0.367945
  H      -3.342351      0.705874     -0.898819
  H       1.532513      1.666821     -1.305607
  H      -3.856006     -1.309581      0.594490
  H       3.104353     -0.965959      0.420052
  H       3.296805      0.287513     -0.705658
30
Coordinates from ORCA-job dimethylurea_guanine_opt_freq E -846.028449214580
  O       4.408524     -2.358756      0.718734
  N       6.199160     -3.577712      1.444823
  N       5.735853     -1.477558      2.353576
  C       5.386603     -2.471348      1.471666
  H       6.826627     -3.734231      2.219315
  H       5.087141     -0.705950      2.373850
  C       5.833368     -4.734143      0.633403
  H       4.974408     -5.277057      1.046425
  H       5.573817     -4.400801     -0.372785
  H       6.693892     -5.405459      0.578357
  C       6.915476     -1.445471      3.202866
  H       7.833787     -1.588352      2.618981
  H       6.969187     -0.465392      3.680313
  H       6.880087     -2.206195      3.996309
  O      -0.833401      2.181762     -1.921574
  N      -2.649539      0.121340     -0.422763
  N       0.882057      0.990150     -0.934994
  N       0.611818     -0.889981      0.493863
  N      -1.725315     -1.475947      0.857701
  N       2.738937     -0.061878      0.031344
  C      -1.281301      0.293678     -0.498848
  C      -0.726362     -0.707669      0.303576
  C      -0.484842      1.248159     -1.195117
  C       1.375851     -0.029947     -0.132159
  C      -2.848239     -0.949773      0.400701
  H      -3.346070      0.681777     -0.892236
  H       1.518598      1.658027     -1.354264
  H      -3.840041     -1.310832      0.639070
  H       3.115986     -0.937416      0.402720
  H       3.299714      0.300549     -0.729283
30
Coordinates from ORCA-job dimethylurea_guanine_opt_freq E -846.028480476532
  O       4.417832     -2.324789      0.694601
  N       6.181241     -3.569966      1.442932
  N       5.727452     -1.470974      2.358037
  C       5.381816     -2.454386      1.462751
  H       6.795219     -3.737904      2.225709
  H       5.087900     -0.693234      2.368064
  C       5.818124     -4.717092      0.617406
  H       4.949948     -5.256961      1.015025
  H       5.572557     -4.373775     -0.388963
  H       6.674124     -5.394443      0.567640
  C       6.895967     -1.463202      3.224373
  H       7.820403     -1.621916      2.654498
  H       6.963106     -0.486623      3.707191
  H       6.836439     -2.226302      4.014341
  O      -0.840924      2.149142     -1.950813
  N      -2.638496      0.104295     -0.408431
  N       0.885724      0.981759     -0.955422
  N       0.633133     -0.876253      0.504926
  N      -1.698768     -1.468503      0.890801
  N       2.753579     -0.044562      0.016474
  C      -1.271808      0.282368     -0.495354
  C      -0.706969     -0.703734      0.319131
  C      -0.483457      1.229077     -1.211322
  C       1.389555     -0.022872     -0.139352
  C      -2.826987     -0.955339      0.432204
  H      -3.340573      0.653294     -0.883156
  H       1.516333      1.644511     -1.391492
  H      -3.815621     -1.317611      0.681616
  H       3.143111     -0.913234      0.392757
  H       3.305822      0.312798     -0.752601
30
Coordinates from ORCA-job dimethylurea_guanine_opt_freq E -846.028517311325
  O       4.435262     -2.304413      0.660912
  N       6.170393     -3.569821      1.440593
  N       5.707134     -1.478387      2.367241
  C       5.378824     -2.449012      1.451638
  H       6.762177     -3.751453      2.237239
  H       5.073064     -0.695039      2.367214
  C       5.823131     -4.705013      0.592281
  H       4.944761     -5.247128      0.963837
  H       5.599390     -4.348337     -0.414518
  H       6.677828     -5.384511      0.552174
  C       6.857991     -1.475352      3.251323
  H       7.785361     -1.656516      2.694508
  H       6.935750     -0.494611      3.724237
  H       6.777685     -2.226754      4.050942
  O      -0.849777      2.109591     -1.989170
  N      -2.627689      0.093091     -0.387959
  N       0.888863      0.970627     -0.982278
  N       0.654612     -0.855656      0.520723
  N      -1.671782     -1.448406      0.936673
  N       2.767932     -0.027437     -0.004113
  C      -1.262659      0.274297     -0.489685
  C      -0.687493     -0.692264      0.340983
  C      -0.482478      1.207521     -1.232248
  C       1.402944     -0.014400     -0.148307
  C      -2.805516     -0.949750      0.475908
  H      -3.335977      0.628465     -0.869002
  H       1.513854      1.622597     -1.441964
  H      -3.791072     -1.310010      0.739981
  H       3.168671     -0.888286      0.380735
  H       3.314598      0.329937     -0.776328
30
Coordinates from ORCA-job dimethylurea_guanine_opt_freq E -846.028563159544
  O       4.465972     -2.280066      0.641388
  N       6.172982     -3.570333      1.441379
  N       5.707826     -1.485414      2.383593
  C       5.391370     -2.442406      1.450461
  H       6.746451     -3.768448      2.247501
  H       5.080370     -0.695170      2.375442
  C       5.833688     -4.690851      0.570639
  H       4.944846     -5.231554      0.918680
  H       5.630770     -4.319086     -0.435079
  H       6.683959     -5.376166      0.535535
  C       6.849763     -1.496121      3.278571
  H       7.781531     -1.695660      2.735341
  H       6.940113     -0.513567      3.746187
  H       6.746814     -2.237019      4.085205
  O      -0.862174      2.072986     -2.031587
  N      -2.630836      0.088728     -0.381148
  N       0.882212      0.958908     -1.006808
  N       0.656280     -0.835246      0.536144
  N      -1.667673     -1.422625      0.972582
  N       2.766688     -0.015463     -0.015342
  C      -1.266669      0.269945     -0.491690
  C      -0.686907     -0.677737      0.357159
  C      -0.489985      1.188203     -1.256850
  C       1.400582     -0.007514     -0.153681
  C      -2.803882     -0.935281      0.506180
  H      -3.342379      0.611978     -0.870633
  H       1.504986      1.599904     -1.484554
  H      -3.788287     -1.290621      0.781003
  H       3.171362     -0.872005      0.376178
  H       3.306006      0.331275     -0.798229
30
Coordinates from ORCA-job dimethylurea_guanine_opt_freq E -846.028605441199
  O       4.486596     -2.267562      0.634971
  N       6.191955     -3.561382      1.432843
  N       5.698858     -1.495918      2.406772
  C       5.402855     -2.438083      1.453567
  H       6.754371     -3.772535      2.243610
  H       5.070466     -0.705519      2.398228
  C       5.867109     -4.668283      0.539560
  H       4.989311     -5.231454      0.880131
  H       5.653498     -4.277827     -0.456639
  H       6.728429     -5.338466      0.483289
  C       6.834567     -1.511971      3.307998
  H       7.771426     -1.696168      2.768342
  H       6.919904     -0.536671      3.792602
  H       6.727356     -2.262220      4.104899
  O      -0.856022      2.028815     -2.084232
  N      -2.638709      0.106655     -0.375673
  N       0.880894      0.926180     -1.034501
  N       0.642452     -0.823277      0.557977
  N      -1.685377     -1.376763      1.015428
  N       2.758455     -0.040517     -0.021964
  C      -1.273284      0.272155     -0.494896
  C      -0.699687     -0.657924      0.377070
  C      -0.489944      1.162070     -1.286686
  C       1.392253     -0.021800     -0.156685
  C      -2.818408     -0.891298      0.539846
  H      -3.347867      0.622874     -0.875892
  H       1.508130      1.544764     -1.535306
  H      -3.805711     -1.229062      0.826255
  H       3.160685     -0.891144      0.378318
  H       3.301222      0.295903     -0.805663
30
Coordinates from ORCA-job dimethylurea_guanine_opt_freq E -846.028658767487
  O       4.513376     -2.230088      0.601802
  N       6.178953     -3.557188      1.428623
  N       5.681609     -1.500443      2.420232
  C       5.402939     -2.423951      1.444848
  H       6.707257     -3.791009      2.256119
  H       5.070525     -0.697767      2.401104
  C       5.860826     -4.647106      0.512358
  H       4.974750     -5.210971      0.829661
  H       5.666145     -4.237594     -0.479872
  H       6.719273     -5.321287      0.456495
  C       6.797761     -1.541531      3.346423
  H       7.745588     -1.729091      2.827130
  H       6.883466     -0.572730      3.844347
  H       6.661366     -2.296001      4.134585
  O      -0.877945      1.968344     -2.138072
  N      -2.624754      0.084302     -0.350929
  N       0.880302      0.911870     -1.076252
  N       0.674834     -0.788896      0.572942
  N      -1.642421     -1.347960      1.073393
  N       2.776918     -0.009759     -0.054925
  C      -1.262134      0.257249     -0.491417
  C      -0.670450     -0.640738      0.401626
  C      -0.495775      1.129407     -1.318797
  C       1.409595     -0.003935     -0.175217
  C      -2.785010     -0.886788      0.596681
  H      -3.345000      0.579705     -0.856266
  H       1.495680      1.517435     -1.606755
  H      -3.766385     -1.223334      0.904201
  H       3.185625     -0.853281      0.355781
  H       3.308867      0.326706     -0.846278
30
Coordinates from ORCA-job dimethylurea_guanine_opt_freq E -846.028746806585
  O       4.537639     -2.209334      0.582761
  N       6.185473     -3.550079      1.424642
  N       5.664905     -1.510649      2.439283
  C       5.408332     -2.416995      1.441964
  H       6.691002     -3.797362      2.262474
  H       5.066536     -0.698103      2.413216
  C       5.883943     -4.627812      0.488779
  H       5.006651     -5.211898      0.793816
  H       5.685256     -4.200424     -0.494870
  H       6.753088     -5.287335      0.420546
  C       6.765809     -1.567739      3.384127
  H       7.724323     -1.733842      2.876246
  H       6.833273     -0.612041      3.909361
  H       6.621287     -2.344102      4.148995
  O      -0.894149      1.923032     -2.183360
  N      -2.622724      0.087215     -0.328333
  N       0.874976      0.889299     -1.117298
  N       0.686447     -0.765853      0.579379
  N      -1.625133     -1.309437      1.120786
  N       2.781390     -0.009536     -0.090755
  C      -1.261306      0.253992     -0.489645
  C      -0.660244     -0.621189      0.419526
  C      -0.504668      1.103966     -1.347868
  C       1.413790     -0.001777     -0.197958
  C      -2.772704     -0.858731      0.645915
  H      -3.348891      0.572544     -0.834941
  H       1.483616      1.479110     -1.672768
  H      -3.750914     -1.185464      0.973515
  H       3.188697     -0.845992      0.333410
  H       3.310081      0.320109     -0.887377
30
Coordinates from ORCA-job dimethylurea_guanine_opt_freq E -846.028909024337
  O       4.579293     -2.176118      0.553476
  N       6.196217     -3.538362      1.423513
  N       5.634906     -1.528614      2.470818
  C       5.417535     -2.406354      1.438073
  H       6.676017     -3.799774      2.272038
  H       5.062065     -0.698469      2.429694
  C       5.933672     -4.597350      0.455492
  H       5.077018     -5.221833      0.738744
  H       5.723201     -4.143023     -0.513294
  H       6.825485     -5.224152      0.369873
  C       6.708960     -1.610397      3.447410
  H       7.685791     -1.736999      2.962000
  H       6.736608     -0.679154      4.017154
  H       6.557106     -2.427620      4.166652
  O      -0.924468      1.863248     -2.241583
  N      -2.621381      0.102532     -0.285946
  N       0.862157      0.851616     -1.183677
  N       0.702571     -0.738352      0.576297
  N      -1.598876     -1.248093      1.189607
  N       2.785046     -0.023004     -0.163930
  C      -1.262430      0.254153     -0.483913
  C      -0.645956     -0.592181      0.442342
  C      -0.522738      1.069304     -1.388131
  C       1.417137     -0.006579     -0.244357
  C      -2.754318     -0.806202      0.725020
  H      -3.356076      0.578590     -0.788992
  H       1.460184      1.418677     -1.773387
  H      -3.726350     -1.114613      1.087023
  H       3.191419     -0.843413      0.289023
  H       3.305985      0.286108     -0.973471
30
Coordinates from ORCA-job dimethylurea_guanine_opt_freq E -846.029054068116
  O       4.635758     -2.133253      0.520810
  N       6.205665     -3.528080      1.426943
  N       5.603672     -1.547938      2.503726
  C       5.432130     -2.393202      1.434776
  H       6.659006     -3.805385      2.284686
  H       5.060959     -0.698901      2.442344
  C       5.989955     -4.563258      0.422766
  H       5.150760     -5.224089      0.674621
  H       5.775402     -4.081974     -0.531886
  H       6.901911     -5.159254      0.328681
  C       6.646779     -1.654825      3.513581
  H       7.641789     -1.749354      3.057726
  H       6.635309     -0.748931      4.122395
  H       6.483854     -2.508287      4.186427
  O      -0.960141      1.805757     -2.292513
  N      -2.619937      0.123653     -0.238255
  N       0.845047      0.812078     -1.249151
  N       0.718269     -0.716255      0.566861
  N      -1.570669     -1.186018      1.255481
  N       2.785778     -0.044060     -0.248074
  C      -1.264948      0.256934     -0.475246
  C      -0.631666     -0.563545      0.463374
  C      -0.543630      1.035784     -1.424319
  C       1.417582     -0.017517     -0.295732
  C      -2.734089     -0.749416      0.805406
  H      -3.362830      0.592637     -0.735868
  H       1.432295      1.356470     -1.870260
  H      -3.698377     -1.038064      1.202702
  H       3.196660     -0.842686      0.238023
  H       3.293488      0.234550     -1.076457
30
Coordinates from ORCA-job dimethylurea_guanine_opt_freq E -846.029191622079
  O       4.691987     -2.090988      0.493676
  N       6.212976     -3.519354      1.431903
  N       5.575431     -1.564229      2.531555
  C       5.447818     -2.379929      1.432651
  H       6.648944     -3.808145      2.294595
  H       5.064011     -0.697800      2.450519
  C       6.041151     -4.532205      0.397514
  H       5.217359     -5.222089      0.621395
  H       5.822386     -4.030428     -0.545571
  H       6.969262     -5.101881      0.298749
  C       6.588969     -1.689505      3.570358
  H       7.600536     -1.747805      3.145974
  H       6.533544     -0.811153      4.215246
  H       6.421853     -2.576312      4.196991
  O      -0.990860      1.769556     -2.321724
  N      -2.617300      0.149799     -0.192432
  N       0.828835      0.778731     -1.300987
  N       0.730407     -0.711043      0.548728
  N      -1.545963     -1.138495      1.304073
  N       2.783618     -0.078246     -0.331918
  C      -1.267055      0.263667     -0.464365
  C      -0.619746     -0.544186      0.476288
  C      -0.561149      1.013415     -1.447605
  C       1.415685     -0.037527     -0.345029
  C      -2.715356     -0.698597      0.872579
  H      -3.365922      0.618071     -0.682106
  H       1.407498      1.306613     -1.944019
  H      -3.671891     -0.968901      1.300312
  H       3.201845     -0.852554      0.185382
  H       3.276907      0.165095     -1.179161
30
Coordinates from ORCA-job dimethylurea_guanine_opt_freq E -846.029315462138
  O       4.745884     -2.045046      0.467717
  N       6.208282     -3.513910      1.436573
  N       5.552092     -1.572250      2.549849
  C       5.460142     -2.364097      1.429217
  H       6.622726     -3.816647      2.304991
  H       5.072526     -0.690151      2.449494
  C       6.067482     -4.506575      0.378616
  H       5.243326     -5.205175      0.572899
  H       5.861892     -3.988486     -0.558648
  H       7.000187     -5.069602      0.286260
  C       6.536790     -1.716127      3.614183
  H       7.562875     -1.751457      3.223622
  H       6.448512     -0.860622      4.285521
  H       6.358413     -2.623905      4.206362
  O      -1.019081      1.736698     -2.341005
  N      -2.607451      0.161744     -0.150604
  N       0.817403      0.756970     -1.339993
  N       0.750948     -0.706710      0.532484
  N      -1.511087     -1.108612      1.342651
  N       2.787532     -0.096430     -0.404303
  C      -1.263037      0.265432     -0.452242
  C      -0.599695     -0.531490      0.486921
  C      -0.573327      0.994131     -1.462975
  C       1.420060     -0.050290     -0.385600
  C      -2.687361     -0.670013      0.928854
  H      -3.363134      0.624935     -0.634316
  H       1.386093      1.273281     -2.001036
  H      -3.635411     -0.929811      1.381209
  H       3.218508     -0.848523      0.135835
  H       3.263693      0.116310     -1.268968
30
Coordinates from ORCA-job dimethylurea_guanine_opt_freq E -846.029411487505
  O       4.769652     -2.018109      0.454957
  N       6.194746     -3.512754      1.439624
  N       5.547432     -1.565888      2.551884
  C       5.463915     -2.352344      1.426063
  H       6.601220     -3.820414      2.310117
  H       5.088152     -0.674068      2.440714
  C       6.057152     -4.499640      0.376095
  H       5.220322     -5.186617      0.557833
  H       5.869363     -3.978153     -0.563133
  H       6.982692     -5.075498      0.292921
  C       6.515302     -1.715093      3.627925
  H       7.549461     -1.723641      3.259063
  H       6.398805     -0.878122      4.318413
  H       6.338733     -2.636153      4.199454
  O      -1.026368      1.742539     -2.327609
  N      -2.596459      0.163628     -0.127489
  N       0.817945      0.758295     -1.345923
  N       0.765891     -0.722877      0.514067
  N      -1.489017     -1.120273      1.345271
  N       2.794392     -0.110130     -0.443436
  C      -1.255469      0.266257     -0.441787
  C      -0.584918     -0.539711      0.484352
  C      -0.571837      0.996515     -1.456683
  C       1.427211     -0.061935     -0.405446
  C      -2.668314     -0.676087      0.946557
  H      -3.355057      0.627872     -0.605688
  H       1.382861      1.277792     -2.007650
  H      -3.612189     -0.936368      1.407197
  H       3.237791     -0.849356      0.102400
  H       3.262373      0.083905     -1.316494
30
Coordinates from ORCA-job dimethylurea_guanine_opt_freq E -846.029475241179
  O       4.837762     -1.941497      0.409677
  N       6.144817     -3.509927      1.442289
  N       5.512737     -1.555803      2.554235
  C       5.462205     -2.320408      1.411756
  H       6.480610     -3.851620      2.330309
  H       5.104357     -0.644103      2.417148
  C       6.019748     -4.474510      0.356926
  H       5.141722     -5.121843      0.481182
  H       5.909752     -3.933007     -0.583262
  H       6.920233     -5.092840      0.313988
  C       6.433867     -1.746839      3.667666
  H       7.486703     -1.771306      3.352021
  H       6.306132     -0.922380      4.371952
  H       6.206341     -2.670511      4.216011
  O      -1.075187      1.654359     -2.361141
  N      -2.551695      0.115399     -0.070193
  N       0.816262      0.749136     -1.393544
  N       0.845232     -0.678876      0.508756
  N      -1.378198     -1.100288      1.408908
  N       2.834010     -0.050373     -0.521159
  C      -1.222286      0.239109     -0.421833
  C      -0.510127     -0.524782      0.508311
  C      -0.579842      0.949815     -1.477835
  C       1.467687     -0.031877     -0.446510
  C      -2.577302     -0.695272      1.028343
  H      -3.332827      0.541573     -0.547585
  H       1.352668      1.255846     -2.088030
  H      -3.503189     -0.962147      1.520580
  H       3.303320     -0.768630      0.040059
  H       3.270272      0.127172     -1.415454
30
Coordinates from ORCA-job dimethylurea_guanine_opt_freq E -846.029568070154
  O       4.823985     -1.940677      0.410746
  N       6.128927     -3.511124      1.442555
  N       5.530193     -1.539141      2.542518
  C       5.456617     -2.315135      1.409399
  H       6.456486     -3.853105      2.333676
  H       5.120564     -0.627463      2.408092
  C       5.971580     -4.485368      0.369811
  H       5.069940     -5.098544      0.497184
  H       5.888563     -3.953728     -0.578764
  H       6.849896     -5.135584      0.341063
  C       6.452928     -1.732335      3.650987
  H       7.504033     -1.752638      3.331730
  H       6.326476     -0.907920      4.355993
  H       6.227847     -2.653815      4.203836
  O      -1.069258      1.669637     -2.343021
  N      -2.543567      0.092391     -0.077134
  N       0.825214      0.768660     -1.377268
  N       0.856723     -0.683899      0.506234
  N      -1.367372     -1.135467      1.389844
  N       2.845508     -0.027473     -0.505702
  C      -1.213642      0.230378     -0.421268
  C      -0.499907     -0.540099      0.501543
  C      -0.572009      0.959156     -1.465693
  C       1.478499     -0.020212     -0.437746
  C      -2.567903     -0.734879      1.009234
  H      -3.326265      0.514974     -0.555159
  H       1.360725      1.286519     -2.064188
  H      -3.494328     -1.014898      1.493086
  H       3.319053     -0.752355      0.037566
  H       3.286274      0.157718     -1.395581
30
Coordinates from ORCA-job dimethylurea_guanine_opt_freq E -846.029649784389
  O       4.831494     -1.920280      0.387473
  N       6.092868     -3.511329      1.441214
  N       5.517320     -1.524716      2.527259
  C       5.443383     -2.302804      1.396029
  H       6.386101     -3.861173      2.341341
  H       5.126497     -0.604249      2.388507
  C       5.920953     -4.485980      0.370694
  H       4.988300     -5.055604      0.472285
  H       5.896867     -3.958816     -0.583726
  H       6.769069     -5.175782      0.376567
  C       6.417064     -1.727695      3.650619
  H       7.473927     -1.752657      3.347791
  H       6.283922     -0.903659      4.355077
  H       6.177280     -2.648481      4.198130
  O      -1.081010      1.646492     -2.335481
  N      -2.511306      0.051538     -0.055086
  N       0.835863      0.777957     -1.383724
  N       0.905186     -0.669183      0.502765
  N      -1.304582     -1.155345      1.404838
  N       2.875488      0.016360     -0.523674
  C      -1.186130      0.208978     -0.409879
  C      -0.453557     -0.547971      0.508589
  C      -0.565425      0.946137     -1.460850
  C       1.509240      0.002290     -0.447507
  C      -2.514135     -0.774144      1.032882
  H      -3.304786      0.457011     -0.530140
  H       1.357272      1.302378     -2.076556
  H      -3.432772     -1.066659      1.524160
  H       3.361599     -0.705970      0.011085
  H       3.309792      0.206928     -1.417110
30
Coordinates from ORCA-job dimethylurea_guanine_opt_freq E -846.029740429782
  O       4.863912     -1.875675      0.354049
  N       6.050736     -3.503317      1.437406
  N       5.482192     -1.513186      2.520501
  C       5.430843     -2.279884      1.380332
  H       6.296580     -3.868053      2.345758
  H       5.129940     -0.579801      2.371520
  C       5.884688     -4.466191      0.354970
  H       4.922244     -4.990918      0.404628
  H       5.940055     -3.936365     -0.596729
  H       6.697556     -5.195651      0.404673
  C       6.341597     -1.747781      3.669999
  H       7.408330     -1.772810      3.405047
  H       6.187233     -0.936229      4.384465
  H       6.078751     -2.677356      4.191001
  O      -1.107141      1.575205     -2.353116
  N      -2.466997      0.009014     -0.011588
  N       0.842450      0.763274     -1.417188
  N       0.971401     -0.632500      0.504149
  N      -1.213114     -1.139844      1.456024
  N       2.910726      0.064141     -0.568196
  C      -1.150650      0.180757     -0.393439
  C      -0.388811     -0.539150      0.530478
  C      -0.564080      0.904951     -1.471927
  C       1.546644      0.026715     -0.473148
  C      -2.435658     -0.790099      1.095601
  H      -3.276798      0.384952     -0.483316
  H       1.340913      1.279952     -2.132436
  H      -3.340884     -1.086474      1.609030
  H       3.416151     -0.644469     -0.034824
  H       3.326971      0.250361     -1.470153
30
Coordinates from ORCA-job dimethylurea_guanine_opt_freq E -846.029792955020
  O       4.912255     -1.829583      0.311888
  N       6.006703     -3.496803      1.430080
  N       5.427391     -1.508081      2.511740
  C       5.418325     -2.259008      1.359795
  H       6.199984     -3.879183      2.343782
  H       5.118627     -0.560495      2.351514
  C       5.872551     -4.440364      0.325856
  H       4.885745     -4.919183      0.300776
  H       6.023061     -3.905981     -0.613018
  H       6.644013     -5.208372      0.427224
  C       6.234616     -1.765656      3.695320
  H       7.312719     -1.805454      3.475698
  H       6.061188     -0.959408      4.411255
  H       5.938528     -2.698661      4.191175
  O      -1.131862      1.488717     -2.371069
  N      -2.417192     -0.026730      0.042891
  N       0.850100      0.734574     -1.454046
  N       1.040868     -0.593592      0.509637
  N      -1.115822     -1.106467      1.521956
  N       2.946512      0.101343     -0.621291
  C      -1.111313      0.151681     -0.371609
  C      -0.319742     -0.524140      0.560540
  C      -0.560092      0.853274     -1.482462
  C       1.585460      0.043557     -0.500040
  C      -2.350709     -0.787910      1.174885
  H      -3.243129      0.319999     -0.423134
  H       1.325418      1.239185     -2.193284
  H      -3.241190     -1.081266      1.715194
  H       3.473008     -0.588075     -0.080070
  H       3.339759      0.275651     -1.537611
30
Coordinates from ORCA-job dimethylurea_guanine_opt_freq E -846.029897601114
  O       4.947622     -1.794048      0.283680
  N       5.975421     -3.487741      1.422958
  N       5.382603     -1.501624      2.504572
  C       5.408303     -2.241198      1.345258
  H       6.138720     -3.882477      2.337056
  H       5.103731     -0.546147      2.336213
  C       5.872350     -4.415890      0.302023
  H       4.871102     -4.855943      0.215482
  H       6.097426     -3.881649     -0.622057
  H       6.605611     -5.214263      0.442673
  C       6.150498     -1.779243      3.710568
  H       7.234073     -1.828618      3.525104
  H       5.959416     -0.980460      4.429969
  H       5.831616     -2.717328      4.181621
  O      -1.143554      1.424921     -2.381359
  N      -2.381018     -0.047982      0.082787
  N       0.857707      0.704628     -1.478712
  N       1.088248     -0.570208      0.515988
  N      -1.049484     -1.075704      1.572047
  N       2.971304      0.115787     -0.658099
  C      -1.082678      0.129746     -0.355443
  C      -0.271957     -0.513711      0.583793
  C      -0.554026      0.812194     -1.488430
  C       1.612544      0.046995     -0.516852
  C      -2.291789     -0.776786      1.234171
  H      -3.217112      0.281746     -0.377390
  H       1.318818      1.200355     -2.232768
  H      -3.172038     -1.063745      1.794379
  H       3.515120     -0.555886     -0.112396
  H       3.347204      0.277850     -1.583267
30
Coordinates from ORCA-job dimethylurea_guanine_opt_freq E -846.029960922059
  O       4.980015     -1.770091      0.262147
  N       5.955755     -3.481816      1.418168
  N       5.350155     -1.497139      2.497101
  C       5.404472     -2.229177      1.333893
  H       6.092087     -3.887210      2.331939
  H       5.088768     -0.537292      2.323815
  C       5.880164     -4.397942      0.285025
  H       4.867758     -4.795770      0.141278
  H       6.174477     -3.870401     -0.623514
  H       6.570905     -5.226413      0.460209
  C       6.088510     -1.784067      3.718150
  H       7.173498     -1.850548      3.553841
  H       5.892606     -0.983455      4.433901
  H       5.745948     -2.718533      4.179835
  O      -1.148436      1.388632     -2.381951
  N      -2.357521     -0.059782      0.111539
  N       0.863294      0.683828     -1.490742
  N       1.118087     -0.560117      0.520753
  N      -1.007503     -1.057741      1.603992
  N       2.986957      0.117265     -0.683178
  C      -1.064691      0.115687     -0.342833
  C      -0.241854     -0.508586      0.599660
  C      -0.548358      0.787405     -1.488039
  C       1.629694      0.044113     -0.525655
  C      -2.254219     -0.768899      1.273847
  H      -3.199477      0.264284     -0.341918
  H       1.316590      1.175430     -2.252137
  H      -3.127414     -1.051685      1.847030
  H       3.543614     -0.541700     -0.138372
  H       3.351901      0.265293     -1.614213
30
Coordinates from ORCA-job dimethylurea_guanine_opt_freq E -846.029994557693
  O       5.021841     -1.720594      0.228594
  N       5.898275     -3.467489      1.409762
  N       5.292762     -1.477440      2.480856
  C       5.384185     -2.200553      1.314276
  H       5.983738     -3.886780      2.323442
  H       5.071322     -0.511933      2.297166
  C       5.850703     -4.369040      0.263602
  H       4.828432     -4.702577      0.044866
  H       6.237523     -3.857053     -0.619092
  H       6.476055     -5.238874      0.477653
  C       5.979669     -1.790483      3.726749
  H       7.069698     -1.868298      3.607885
  H       5.760696     -1.000439      4.447500
  H       5.603711     -2.726435      4.158404
  O      -1.156850      1.313971     -2.379457
  N      -2.297125     -0.101876      0.166825
  N       0.881085      0.658843     -1.511292
  N       1.193708     -0.537811      0.521032
  N      -0.902582     -1.042990      1.654635
  N       3.027979      0.141423     -0.735579
  C      -1.016974      0.084195     -0.316948
  C      -0.165636     -0.504820      0.623453
  C      -0.530877      0.740393     -1.484914
  C       1.675705      0.051127     -0.547346
  C      -2.160086     -0.781480      1.343135
  H      -3.152394      0.201911     -0.275686
  H       1.313115      1.143308     -2.289405
  H      -3.016565     -1.065835      1.940193
  H       3.603624     -0.495174     -0.179271
  H       3.371046      0.276372     -1.677467
30
Coordinates from ORCA-job dimethylurea_guanine_opt_freq E -846.030042646864
  O       5.025726     -1.724150      0.226685
  N       5.906109     -3.466525      1.411655
  N       5.283114     -1.481439      2.480998
  C       5.385138     -2.202681      1.313991
  H       5.991272     -3.885659      2.325439
  H       5.056367     -0.512726      2.298075
  C       5.871721     -4.367362      0.264884
  H       4.852757     -4.705042      0.037332
  H       6.262399     -3.853538     -0.615251
  H       6.499817     -5.234408      0.482119
  C       5.966532     -1.793026      3.726746
  H       7.055942     -1.863647      3.606016
  H       5.743132     -1.007324      4.451038
  H       5.593893     -2.732498      4.153858
  O      -1.159308      1.324444     -2.374338
  N      -2.299149     -0.092047      0.173894
  N       0.877391      0.658055     -1.513011
  N       1.191068     -0.544756      0.515290
  N      -0.903178     -1.040309      1.655514
  N       3.024322      0.127100     -0.746114
  C      -1.020179      0.090417     -0.313931
  C      -0.167889     -0.504391      0.622006
  C      -0.533962      0.745930     -1.482582
  C       1.672471      0.043661     -0.553573
  C      -2.160803     -0.772749      1.349345
  H      -3.153912      0.221066     -0.263134
  H       1.308858      1.142003     -2.291806
  H      -3.015590     -1.054377      1.950075
  H       3.600270     -0.507909     -0.192249
  H       3.371454      0.257462     -1.685403
30
Coordinates from ORCA-job dimethylurea_guanine_opt_freq E -846.030062762539
  O       5.040810     -1.718539      0.215581
  N       5.893668     -3.467392      1.410701
  N       5.270410     -1.479547      2.473899
  C       5.382982     -2.199717      1.307228
  H       5.956317     -3.889235      2.325029
  H       5.051560     -0.510477      2.292319
  C       5.868202     -4.364679      0.261055
  H       4.848716     -4.677364      0.003137
  H       6.297921     -3.859740     -0.606153
  H       6.469287     -5.246630      0.494460
  C       5.938452     -1.790651      3.728184
  H       7.027791     -1.884441      3.615677
  H       5.728004     -0.988524      4.438353
  H       5.543547     -2.715013      4.168390
  O      -1.164891      1.314953     -2.367225
  N      -2.285050     -0.102659      0.189009
  N       0.879373      0.659737     -1.515420
  N       1.208599     -0.541296      0.511106
  N      -0.877191     -1.045485      1.663028
  N       3.032882      0.136615     -0.758663
  C      -1.009266      0.085439     -0.305245
  C      -0.149778     -0.505936      0.625746
  C      -0.532285      0.741037     -1.477747
  C       1.682186      0.048677     -0.560527
  C      -2.137644     -0.783097      1.363534
  H      -3.142927      0.208688     -0.243184
  H       1.303761      1.143641     -2.298160
  H      -2.988018     -1.068098      1.968908
  H       3.610840     -0.497905     -0.208846
  H       3.377522      0.261211     -1.700603
30
Coordinates from ORCA-job dimethylurea_guanine_opt_freq E -846.030102171253
  O       5.040374     -1.710860      0.206279
  N       5.876809     -3.462772      1.408605
  N       5.251181     -1.473219      2.466828
  C       5.371323     -2.193258      1.300886
  H       5.928384     -3.884366      2.323732
  H       5.036960     -0.503488      2.285470
  C       5.858419     -4.358990      0.258183
  H       4.840753     -4.665288     -0.013376
  H       6.304081     -3.856334     -0.602433
  H       6.451561     -5.244619      0.498556
  C       5.905284     -1.790967      3.726793
  H       6.994228     -1.893926      3.623603
  H       5.696955     -0.984712      4.433015
  H       5.498093     -2.709881      4.167140
  O      -1.166612      1.299938     -2.361270
  N      -2.265051     -0.113954      0.206456
  N       0.885778      0.658069     -1.519171
  N       1.232114     -0.538568      0.506730
  N      -0.844228     -1.050164      1.672470
  N       3.045920      0.142704     -0.774281
  C      -0.992773      0.079587     -0.295198
  C      -0.125343     -0.507564      0.630601
  C      -0.526207      0.732730     -1.473149
  C       1.697153      0.051289     -0.569134
  C      -2.107616     -0.793047      1.380423
  H      -3.126018      0.196770     -0.219999
  H       1.301932      1.139643     -2.307786
  H      -2.953025     -1.080947      1.991330
  H       3.627349     -0.487322     -0.221345
  H       3.388004      0.267085     -1.716386
30
Coordinates from ORCA-job dimethylurea_guanine_opt_freq E -846.030164953288
  O       5.080818     -1.681909      0.181300
  N       5.848248     -3.451051      1.405324
  N       5.178670     -1.470913      2.452925
  C       5.353208     -2.177671      1.286097
  H       5.841910     -3.881844      2.317705
  H       4.989197     -0.494556      2.272515
  C       5.880424     -4.334363      0.245535
  H       4.877625     -4.635058     -0.080595
  H       6.373902     -3.823422     -0.583689
  H       6.459820     -5.224070      0.505211
  C       5.781105     -1.810313      3.735019
  H       6.872290     -1.920462      3.673682
  H       5.554467     -1.011438      4.444255
  H       5.350541     -2.730850      4.148498
  O      -1.190911      1.243669     -2.349832
  N      -2.211648     -0.123948      0.272893
  N       0.888490      0.640642     -1.546058
  N       1.294378     -0.522395      0.487690
  N      -0.747431     -1.030260      1.715496
  N       3.070354      0.145943     -0.847521
  C      -0.952869      0.073920     -0.261279
  C      -0.058783     -0.495874      0.648629
  C      -0.522747      0.703228     -1.465511
  C       1.728662      0.052739     -0.609905
  C      -2.019651     -0.785667      1.451616
  H      -3.083313      0.183523     -0.133711
  H       1.277578      1.103071     -2.359639
  H      -2.847666     -1.069923      2.087531
  H       3.662989     -0.465606     -0.281663
  H       3.396124      0.258428     -1.798948
30
Coordinates from ORCA-job dimethylurea_guanine_opt_freq E -846.030232859257
  O       5.062820     -1.676967      0.173691
  N       5.826675     -3.444467      1.402715
  N       5.168646     -1.457554      2.444217
  C       5.335831     -2.169445      1.279824
  H       5.817269     -3.872095      2.316631
  H       4.967756     -0.482184      2.267157
  C       5.855242     -4.331432      0.245509
  H       4.851627     -4.635295     -0.075141
  H       6.344877     -3.821917     -0.586688
  H       6.437312     -5.219345      0.505529
  C       5.762853     -1.801846      3.727774
  H       6.850256     -1.937492      3.667293
  H       5.556763     -0.990248      4.428784
  H       5.312342     -2.707567      4.153068
  O      -1.183110      1.239497     -2.338090
  N      -2.191602     -0.140583      0.281289
  N       0.901381      0.645393     -1.540160
  N       1.316019     -0.530040      0.484591
  N      -0.721272     -1.050737      1.715524
  N       3.086524      0.150767     -0.851675
  C      -0.934103      0.068213     -0.252078
  C      -0.036414     -0.507314      0.650534
  C      -0.509813      0.700378     -1.456616
  C       1.745807      0.053037     -0.610730
  C      -1.994697     -0.808515      1.455729
  H      -3.064194      0.171324     -0.119895
  H       1.286017      1.108306     -2.355592
  H      -2.820835     -1.099096      2.091285
  H       3.685064     -0.457257     -0.288894
  H       3.410741      0.268052     -1.802015
30
Coordinates from ORCA-job dimethylurea_guanine_opt_freq E -846.030345746316
  O       5.064484     -1.671012      0.172917
  N       5.828917     -3.440387      1.400118
  N       5.153625     -1.461511      2.444709
  C       5.332226     -2.167106      1.278795
  H       5.813752     -3.871794      2.312306
  H       4.936555     -0.488703      2.274617
  C       5.871416     -4.323877      0.240494
  H       4.872757     -4.656315     -0.068222
  H       6.334734     -3.797142     -0.595544
  H       6.481164     -5.195837      0.490749
  C       5.734081     -1.809224      3.730852
  H       6.818465     -1.962430      3.675114
  H       5.538494     -0.991303      4.427354
  H       5.269061     -2.706626      4.158871
  O      -1.186808      1.226268     -2.338568
  N      -2.182330     -0.134072      0.295048
  N       0.901976      0.638949     -1.545780
  N       1.325853     -0.527866      0.482469
  N      -0.706493     -1.042840      1.724594
  N       3.089423      0.142122     -0.868883
  C      -0.926729      0.074830     -0.243057
  C      -0.025312     -0.501498      0.656068
  C      -0.508836      0.695083     -1.455574
  C       1.750051      0.048761     -0.618489
  C      -1.980514     -0.799576      1.470040
  H      -3.056035      0.182087     -0.100308
  H       1.282950      1.089791     -2.369608
  H      -2.804690     -1.087788      2.109295
  H       3.696166     -0.460973     -0.308105
  H       3.407379      0.263562     -1.818701
30
Coordinates from ORCA-job dimethylurea_guanine_opt_freq E -846.030580757538
  O       5.073069     -1.644549      0.165267
  N       5.811438     -3.427498      1.390091
  N       5.107309     -1.463465      2.440375
  C       5.313917     -2.154095      1.271543
  H       5.778653     -3.870006      2.296653
  H       4.865588     -0.495495      2.285531
  C       5.887313     -4.300980      0.224176
  H       4.902669     -4.691583     -0.063761
  H       6.295082     -3.739604     -0.617136
  H       6.550898     -5.138104      0.454824
  C       5.638830     -1.825268      3.741519
  H       6.720362     -2.011619      3.715676
  H       5.446729     -1.005334      4.436192
  H       5.140477     -2.714449      4.150150
  O      -1.195725      1.167235     -2.339025
  N      -2.138822     -0.137992      0.339867
  N       0.910259      0.613056     -1.565875
  N       1.374487     -0.509185      0.480038
  N      -0.636532     -1.015557      1.760947
  N       3.110288      0.139875     -0.918732
  C      -0.892499      0.074286     -0.218344
  C       0.026293     -0.486059      0.675186
  C      -0.499659      0.663770     -1.453605
  C       1.775894      0.045880     -0.640443
  C      -1.915093     -0.783665      1.521919
  H      -3.020644      0.173301     -0.041008
  H       1.277412      1.037293     -2.409706
  H      -2.729092     -1.066432      2.176602
  H       3.739427     -0.443640     -0.367747
  H       3.407452      0.273456     -1.877604
30
Coordinates from ORCA-job dimethylurea_guanine_opt_freq E -846.030724633489
  O       5.075980     -1.639368      0.189862
  N       5.854347     -3.425084      1.388414
  N       5.098767     -1.498209      2.467260
  C       5.324059     -2.162675      1.288609
  H       5.823289     -3.885098      2.286494
  H       4.810378     -0.540375      2.326395
  C       5.953925     -4.282586      0.212439
  H       4.999374     -4.774757     -0.018419
  H       6.242025     -3.673772     -0.644159
  H       6.714245     -5.046899      0.391861
  C       5.624965     -1.871493      3.765698
  H       6.704703     -2.068358      3.738926
  H       5.439203     -1.054665      4.465481
  H       5.118616     -2.760289      4.166670
  O      -1.216769      1.123658     -2.374808
  N      -2.151203     -0.101151      0.346174
  N       0.890756      0.583590     -1.595613
  N       1.362233     -0.476266      0.483114
  N      -0.644971     -0.943326      1.783738
  N       3.091062      0.123656     -0.945377
  C      -0.907109      0.094010     -0.223106
  C       0.014544     -0.446310      0.681064
  C      -0.519189      0.644497     -1.477463
  C       1.758921      0.043749     -0.655852
  C      -1.923854     -0.715362      1.544194
  H      -3.035988      0.199519     -0.036309
  H       1.257219      0.974762     -2.455374
  H      -2.736358     -0.977557      2.209271
  H       3.728325     -0.457256     -0.396715
  H       3.374288      0.276985     -1.898901
30
Coordinates from ORCA-job dimethylurea_guanine_opt_freq E -846.030849463871
  O       5.097512     -1.604090      0.177934
  N       5.835491     -3.409146      1.374934
  N       5.014986     -1.513634      2.457139
  C       5.298981     -2.148986      1.276160
  H       5.768143     -3.887054      2.261604
  H       4.714292     -0.557776      2.328882
  C       6.004887     -4.241289      0.189441
  H       5.081717     -4.775109     -0.073811
  H       6.281960     -3.602207     -0.648789
  H       6.798475     -4.970608      0.372502
  C       5.480028     -1.911600      3.773670
  H       6.556298     -2.128763      3.788745
  H       5.282880     -1.097082      4.472891
  H       4.939425     -2.793578      4.144820
  O      -1.237160      1.022994     -2.377869
  N      -2.094761     -0.099768      0.414172
  N       0.892580      0.531637     -1.629523
  N       1.424598     -0.437354      0.478718
  N      -0.544698     -0.870818      1.844905
  N       3.111510      0.114270     -1.013962
  C      -0.867240      0.084493     -0.193600
  C       0.081864     -0.411473      0.707310
  C      -0.514879      0.586634     -1.478569
  C       1.789278      0.038477     -0.690618
  C      -1.831658     -0.663195      1.629547
  H      -2.991114      0.184218      0.046129
  H       1.231965      0.886959     -2.515555
  H      -2.623967     -0.906061      2.325528
  H       3.762603     -0.430028     -0.450662
  H       3.381786      0.273508     -1.978504
30
Coordinates from ORCA-job dimethylurea_guanine_opt_freq E -846.031004441919
  O       5.080298     -1.621566      0.168802
  N       5.846988     -3.409554      1.375291
  N       4.981063     -1.532427      2.448413
  C       5.285491     -2.161047      1.268867
  H       5.797807     -3.880321      2.266667
  H       4.657498     -0.586124      2.326700
  C       6.060808     -4.238163      0.195784
  H       5.174515     -4.833687     -0.059129
  H       6.288134     -3.584685     -0.647282
  H       6.905712     -4.910018      0.372266
  C       5.430003     -1.926528      3.773008
  H       6.512582     -2.115996      3.794237
  H       5.204433     -1.121925      4.475164
  H       4.905754     -2.825040      4.127440
  O      -1.247907      1.040052     -2.365954
  N      -2.087671     -0.073411      0.439334
  N       0.882855      0.523772     -1.641714
  N       1.429218     -0.438203      0.465194
  N      -0.526142     -0.848603      1.855208
  N       3.104734      0.089409     -1.044828
  C      -0.867044      0.090455     -0.187576
  C       0.088812     -0.402254      0.706419
  C      -0.522027      0.594163     -1.474762
  C       1.787232      0.030070     -0.709859
  C      -1.814821     -0.630884      1.655054
  H      -2.986524      0.210447      0.077257
  H       1.211416      0.881824     -2.530837
  H      -2.598139     -0.862876      2.364575
  H       3.758325     -0.454759     -0.477192
  H       3.382377      0.261454     -2.002979
30
Coordinates from ORCA-job dimethylurea_guanine_opt_freq E -846.031158630562
  O       5.064537     -1.629093      0.170245
  N       5.869898     -3.402398      1.373987
  N       4.932442     -1.563903      2.449786
  C       5.270650     -2.170976      1.269065
  H       5.829002     -3.878772      2.262542
  H       4.565878     -0.629399      2.333931
  C       6.147598     -4.208801      0.193801
  H       5.313185     -4.873689     -0.063263
  H       6.318516     -3.534336     -0.646486
  H       7.047866     -4.807467      0.361847
  C       5.372215     -1.967810      3.778512
  H       6.455489     -2.144473      3.811675
  H       5.130934     -1.169816      4.483091
  H       4.850433     -2.872453      4.120337
  O      -1.263714      1.043589     -2.360148
  N      -2.081552     -0.027908      0.470451
  N       0.866936      0.494608     -1.663613
  N       1.429783     -0.440907      0.450256
  N      -0.508085     -0.795153      1.877344
  N       3.090483      0.036984     -1.089437
  C      -0.870060      0.099221     -0.181690
  C       0.093048     -0.384239      0.708196
  C      -0.532892      0.590480     -1.476680
  C       1.779448      0.004302     -0.736672
  C      -1.797371     -0.562988      1.693411
  H      -2.982570      0.255776      0.113607
  H       1.185177      0.846552     -2.559021
  H      -2.570227     -0.769408      2.421888
  H       3.749040     -0.491365     -0.511804
  H       3.369693      0.217417     -2.041587
30
Coordinates from ORCA-job dimethylurea_guanine_opt_freq E -846.031342878238
  O       5.051119     -1.634959      0.170055
  N       5.904449     -3.390323      1.367048
  N       4.860662     -1.613978      2.446626
  C       5.252973     -2.184732      1.265949
  H       5.869159     -3.880176      2.248207
  H       4.427401     -0.707887      2.339502
  C       6.272131     -4.157122      0.186188
  H       5.521298     -4.915929     -0.069442
  H       6.356511     -3.464078     -0.651691
  H       7.238925     -4.644597      0.345231
  C       5.273614     -2.029527      3.780593
  H       6.358269     -2.191480      3.833682
  H       5.008148     -1.241067      4.487041
  H       4.756424     -2.944219      4.102035
  O      -1.285505      1.019038     -2.357495
  N      -2.066793      0.036100      0.515356
  N       0.846849      0.440550     -1.691758
  N       1.436566     -0.432869      0.441363
  N      -0.476079     -0.700657      1.919446
  N       3.072866     -0.034128     -1.143770
  C      -0.868302      0.111406     -0.168233
  C       0.105982     -0.350571      0.720914
  C      -0.545766      0.568923     -1.479359
  C       1.770996     -0.031464     -0.765910
  C      -1.765261     -0.454088      1.752679
  H      -2.972445      0.310516      0.163138
  H       1.151917      0.767450     -2.601154
  H      -2.524989     -0.619374      2.505087
  H       3.742421     -0.534291     -0.554838
  H       3.352241      0.167107     -2.092921
30
Coordinates from ORCA-job dimethylurea_guanine_opt_freq E -846.031710014686
  O       5.023362     -1.666323      0.166775
  N       5.972634     -3.371271      1.360721
  N       4.754131     -1.705019      2.435659
  C       5.230416     -2.218666      1.260624
  H       5.963100     -3.874788      2.234236
  H       4.213660     -0.859119      2.328849
  C       6.478339     -4.064276      0.186460
  H       5.871552     -4.942979     -0.068583
  H       6.445543     -3.368688     -0.652112
  H       7.514708     -4.377459      0.348334
  C       5.142405     -2.126031      3.772254
  H       6.232043     -2.236225      3.851504
  H       4.823457     -1.360468      4.481770
  H       4.661932     -3.068960      4.067382
  O      -1.315307      1.024031     -2.342856
  N      -2.053765      0.160247      0.574466
  N       0.808546      0.364812     -1.724439
  N       1.426210     -0.443315      0.427026
  N      -0.450715     -0.567997      1.969812
  N       3.028579     -0.173566     -1.216540
  C      -0.876172      0.142087     -0.149036
  C       0.107863     -0.307347      0.736926
  C      -0.568861      0.559002     -1.476695
  C       1.741654     -0.101062     -0.804028
  C      -1.733393     -0.278850      1.825900
  H      -2.963503      0.427541      0.227624
  H       1.100947      0.655551     -2.650138
  H      -2.476467     -0.377888      2.606274
  H       3.710085     -0.639653     -0.609830
  H       3.312800      0.060251     -2.154770
30
Coordinates from ORCA-job dimethylurea_guanine_opt_freq E -846.032318408154
  O       4.990132     -1.707100      0.152498
  N       6.041334     -3.338561      1.356448
  N       4.616481     -1.819696      2.404869
  C       5.196814     -2.259678      1.246552
  H       6.063361     -3.850398      2.224260
  H       3.968739     -1.054591      2.284501
  C       6.701920     -3.925669      0.202298
  H       6.260807     -4.893831     -0.068830
  H       6.584040     -3.241624     -0.637319
  H       7.770224     -4.063894      0.399439
  C       4.973306     -2.241648      3.744964
  H       6.063990     -2.266308      3.870533
  H       4.569140     -1.517543      4.455034
  H       4.559821     -3.225894      4.003625
  O      -1.345562      1.035851     -2.311098
  N      -2.013575      0.310141      0.651662
  N       0.764048      0.277262     -1.754980
  N       1.424692     -0.472496      0.405812
  N      -0.395097     -0.431460      2.023266
  N       2.971075     -0.356185     -1.306085
  C      -0.870112      0.182290     -0.115915
  C       0.127324     -0.266782      0.757209
  C      -0.589511      0.551396     -1.462231
  C       1.708263     -0.193959     -0.849866
  C      -1.665236     -0.083840      1.910443
  H      -2.929053      0.573820      0.317649
  H       1.036584      0.518440     -2.700749
  H      -2.383027     -0.107009      2.720226
  H       3.662656     -0.777066     -0.676452
  H       3.262203     -0.090397     -2.234194
30
Coordinates from ORCA-job dimethylurea_guanine_opt_freq E -846.032968887564
  O       4.974900     -1.775015      0.111532
  N       6.114382     -3.298215      1.362518
  N       4.484972     -1.925371      2.339947
  C       5.174529     -2.306923      1.216928
  H       6.166931     -3.800725      2.234410
  H       3.755661     -1.248677      2.180347
  C       6.900250     -3.786462      0.238906
  H       6.538134     -4.769444     -0.089178
  H       6.818777     -3.078349     -0.583565
  H       7.953465     -3.883741      0.523618
  C       4.801540     -2.314156      3.686794
  H       5.875205     -2.192237      3.889257
  H       4.265442     -1.659471      4.378293
  H       4.519324     -3.349319      3.922064
  O      -1.360001      1.112720     -2.244315
  N      -1.951887      0.470962      0.736591
  N       0.727451      0.235010     -1.762595
  N       1.414176     -0.550861      0.379874
  N      -0.348355     -0.382413      2.063308
  N       2.896320     -0.567981     -1.395191
  C      -0.844542      0.249994     -0.065659
  C       0.149469     -0.261432      0.780448
  C      -0.596832      0.591760     -1.421817
  C       1.664290     -0.294075     -0.889230
  C      -1.591473      0.050627      1.984062
  H      -2.868893      0.743663      0.414177
  H       0.982000      0.414683     -2.726764
  H      -2.291397      0.082620      2.809807
  H       3.604795     -0.964183     -0.757020
  H       3.197146     -0.279418     -2.303978
