22
Coordinates from ORCA-job formamide_guanine_opt_freq E -712.094789425015
  O       3.755083     -3.941792      1.500797
  N       5.987497     -3.384841      1.500797
  C       4.640178     -3.088689      1.500397
  H       6.692309     -2.655194      1.500497
  H       6.315258     -4.344977      1.500797
  H       4.343863     -2.039739      1.499687
  O       0.192100      2.665900     -0.000400
  N      -2.071500      0.658800      0.000600
  N       1.574000      0.803100      0.000100
  N       0.756600     -1.453600     -0.000300
  N      -1.719400     -1.543200     -0.000600
  N       3.054900     -1.010000      0.000500
  C      -0.718000      0.488500     -0.000100
  C      -0.524500     -0.873100     -0.000400
  C       0.338300      1.448600     -0.000100
  C       1.748300     -0.592400      0.000000
  C      -2.630800     -0.592600      0.000500
  H      -2.570600      1.538600      0.001200
  H       2.407800      1.383500      0.000300
  H      -3.701500     -0.739200      0.001000
  H       3.290500     -1.996500      0.000600
  H       3.822300     -0.347100      0.000800
22
Coordinates from ORCA-job formamide_guanine_opt_freq E -712.100496867949
  O       3.793670     -3.989797      1.517203
  N       6.000434     -3.390518      1.515005
  C       4.661710     -3.127503      1.520809
  H       6.686681     -2.650766      1.525039
  H       6.334284     -4.344010      1.507071
  H       4.359943     -2.066100      1.519876
  O       0.214274      2.696769      0.005976
  N      -2.088962      0.666242      0.006955
  N       1.566794      0.812458     -0.007855
  N       0.750874     -1.437540     -0.014213
  N      -1.698015     -1.543645     -0.006901
  N       3.031813     -1.005524     -0.020822
  C      -0.724410      0.504524      0.000762
  C      -0.507904     -0.866266     -0.006939
  C       0.330080      1.470486      0.000912
  C       1.730412     -0.579210     -0.012944
  C      -2.620812     -0.595773      0.001840
  H      -2.595376      1.540530      0.013521
  H       2.393022      1.398018     -0.010720
  H      -3.689694     -0.760135      0.004843
  H       3.251140     -1.993372     -0.022875
  H       3.802730     -0.354798     -0.029870
22
Coordinates from ORCA-job formamide_guanine_opt_freq E -712.103342040330
  O       3.829484     -4.038923      1.529469
  N       6.020496     -3.394539      1.531242
  C       4.682869     -3.165831      1.540809
  H       6.689764     -2.640484      1.555629
  H       6.362466     -4.345653      1.518223
  H       4.382342     -2.097914      1.540645
  O       0.238559      2.718419      0.014686
  N      -2.108258      0.671906      0.014073
  N       1.559917      0.818711     -0.016692
  N       0.739489     -1.420203     -0.031971
  N      -1.692418     -1.538404     -0.014846
  N       3.018119     -1.003111     -0.043680
  C      -0.735726      0.521680      0.001228
  C      -0.502540     -0.855362     -0.015656
  C       0.317946      1.487353      0.001565
  C       1.719517     -0.565989     -0.029783
  C      -2.621377     -0.595116      0.003411
  H      -2.618338      1.543137      0.027778
  H       2.376461      1.417392     -0.019869
  H      -3.688348     -0.774405      0.009692
  H       3.216265     -1.992497     -0.047061
  H       3.795997     -0.366100     -0.062219
22
Coordinates from ORCA-job formamide_guanine_opt_freq E -712.104908500852
  O       3.874026     -4.088738      1.538810
  N       6.055383     -3.401666      1.549364
  C       4.712474     -3.202266      1.559862
  H       6.708060     -2.634464      1.589734
  H       6.409244     -4.348714      1.535521
  H       4.411115     -2.133251      1.562942
  O       0.250534      2.730431      0.023596
  N      -2.126349      0.681880      0.019342
  N       1.549425      0.822144     -0.024299
  N       0.724347     -1.407852     -0.050572
  N      -1.704647     -1.526737     -0.025356
  N       3.005443     -1.002788     -0.066263
  C      -0.751052      0.537741      0.000979
  C      -0.512459     -0.842322     -0.025822
  C       0.303198      1.498504      0.003199
  C       1.710096     -0.556252     -0.046375
  C      -2.633697     -0.585591      0.002153
  H      -2.635687      1.553424      0.040435
  H       2.356956      1.433193     -0.025985
  H      -3.699721     -0.771460      0.010928
  H       3.185271     -1.995729     -0.071765
  H       3.790730     -0.375420     -0.093757
22
Coordinates from ORCA-job formamide_guanine_opt_freq E -712.106385549666
  O       3.950243     -4.159851      1.545190
  N       6.116366     -3.416142      1.576994
  C       4.765042     -3.252875      1.584519
  H       6.746328     -2.631866      1.645507
  H       6.491184     -4.355667      1.565483
  H       4.456447     -2.187305      1.597513
  O       0.252033      2.743231      0.034924
  N      -2.148943      0.700548      0.024330
  N       1.530730      0.827320     -0.033933
  N       0.698767     -1.394358     -0.076429
  N      -1.731029     -1.506019     -0.040108
  N       2.981986     -1.003855     -0.098012
  C      -0.773619      0.558539     -0.001066
  C      -0.535976     -0.823001     -0.040246
  C       0.282095      1.512135      0.003652
  C       1.692301     -0.545217     -0.069071
  C      -2.657344     -0.565273     -0.001026
  H      -2.654605      1.574089      0.054837
  H       2.329515      1.450765     -0.030857
  H      -3.723034     -0.753298      0.010822
  H       3.139056     -2.000625     -0.108494
  H       3.775143     -0.387209     -0.137856
22
Coordinates from ORCA-job formamide_guanine_opt_freq E -712.107382719081
  O       4.038218     -4.229129      1.540705
  N       6.185489     -3.432939      1.607128
  C       4.827746     -3.301989      1.604988
  H       6.792585     -2.634458      1.712356
  H       6.584064     -4.362766      1.599445
  H       4.503949     -2.243214      1.633894
  O       0.241750      2.754512      0.044178
  N      -2.169472      0.723474      0.027444
  N       1.509850      0.832801     -0.043372
  N       0.667875     -1.384079     -0.101463
  N      -1.762872     -1.482838     -0.054523
  N       2.952247     -1.006947     -0.129031
  C      -0.795913      0.576751     -0.003779
  C      -0.565266     -0.804661     -0.054507
  C       0.263038      1.524369      0.004575
  C       1.667708     -0.537795     -0.091693
  C      -2.685008     -0.539394     -0.004830
  H      -2.670039      1.599786      0.066615
  H       2.306138      1.460088     -0.034687
  H      -3.751274     -0.723433      0.010012
  H       3.091413     -2.006272     -0.146619
  H       3.750461     -0.397799     -0.180163
22
Coordinates from ORCA-job formamide_guanine_opt_freq E -712.108223272756
  O       4.144185     -4.301217      1.520437
  N       6.267027     -3.450444      1.643176
  C       4.905106     -3.354024      1.621930
  H       6.847229     -2.640085      1.799866
  H       6.693269     -4.367807      1.637623
  H       4.556146     -2.305451      1.675066
  O       0.224957      2.765349      0.053204
  N      -2.191225      0.752519      0.030750
  N       1.486004      0.837583     -0.054489
  N       0.628809     -1.375344     -0.128821
  N      -1.802915     -1.455708     -0.069972
  N       2.914539     -1.013131     -0.160232
  C      -0.820243      0.594569     -0.009332
  C      -0.601690     -0.786360     -0.070880
  C       0.244988      1.535923      0.001063
  C       1.634244     -0.534244     -0.115615
  C      -2.718594     -0.505975     -0.008533
  H      -2.685028      1.632250      0.079708
  H       2.286507      1.459606     -0.038587
  H      -3.786242     -0.680536      0.010499
  H       3.039577     -2.013957     -0.188542
  H       3.716037     -0.409447     -0.221648
22
Coordinates from ORCA-job formamide_guanine_opt_freq E -712.108899758181
  O       4.268035     -4.373224      1.481224
  N       6.360128     -3.465305      1.682983
  C       4.996896     -3.407955      1.634138
  H       6.907485     -2.647341      1.905818
  H       6.816483     -4.367893      1.673886
  H       4.613390     -2.373847      1.720516
  O       0.208190      2.775429      0.058456
  N      -2.215451      0.787934      0.029488
  N       1.459710      0.839475     -0.064699
  N       0.581180     -1.367903     -0.151455
  N      -1.851859     -1.424497     -0.083836
  N       2.869198     -1.024306     -0.188395
  C      -0.847108      0.613123     -0.013710
  C      -0.644876     -0.768047     -0.084991
  C       0.228062      1.545857      0.002588
  C       1.592455     -0.535693     -0.136866
  C      -2.757892     -0.464776     -0.014138
  H      -2.700757      1.671977      0.085052
  H       2.270401      1.447817     -0.045168
  H      -3.827569     -0.625405      0.007444
  H       2.983310     -2.025837     -0.230591
  H       3.673274     -0.425517     -0.261072
22
Coordinates from ORCA-job formamide_guanine_opt_freq E -712.109397426688
  O       4.402205     -4.440684      1.420354
  N       6.455411     -3.475751      1.730520
  C       5.094068     -3.461638      1.642727
  H       6.962667     -2.657277      2.032744
  H       6.942443     -4.361966      1.709052
  H       4.669330     -2.447426      1.769995
  O       0.196275      2.784873      0.064939
  N      -2.240693      0.825137      0.033740
  N       1.432926      0.839231     -0.079856
  N       0.530138     -1.360047     -0.178398
  N      -1.904022     -1.391605     -0.098029
  N       2.821411     -1.038454     -0.214606
  C      -0.875060      0.633138     -0.023714
  C      -0.689960     -0.749347     -0.102280
  C       0.211311      1.555668     -0.010263
  C       1.548077     -0.539538     -0.160554
  C      -2.798338     -0.421021     -0.016147
  H      -2.716644      1.713466      0.099537
  H       2.255882      1.430077     -0.053756
  H      -3.869937     -0.567252      0.011336
  H       2.926397     -2.040015     -0.273908
  H       3.628803     -0.445499     -0.296759
22
Coordinates from ORCA-job formamide_guanine_opt_freq E -712.109809036613
  O       4.557562     -4.503170      1.342253
  N       6.562335     -3.484114      1.778834
  C       5.205733     -3.516458      1.648144
  H       7.022644     -2.674986      2.168875
  H       7.081202     -4.351327      1.733031
  H       4.734893     -2.529944      1.824964
  O       0.188936      2.795265      0.061289
  N      -2.270370      0.868306      0.025075
  N       1.402970      0.835429     -0.089261
  N       0.471160     -1.352524     -0.189674
  N      -1.964058     -1.353707     -0.106868
  N       2.766469     -1.058939     -0.233120
  C      -0.907064      0.656658     -0.027629
  C      -0.741122     -0.728163     -0.111019
  C       0.192607      1.564944     -0.006016
  C       1.498216     -0.546549     -0.174385
  C      -2.844471     -0.370347     -0.024229
  H      -2.735299      1.762369      0.090913
  H       2.238598      1.407801     -0.065861
  H      -3.918172     -0.500880      0.002764
  H       2.861745     -2.061030     -0.309375
  H       3.578175     -0.474565     -0.332032
22
Coordinates from ORCA-job formamide_guanine_opt_freq E -712.110165725574
  O       4.716953     -4.551265      1.250554
  N       6.663230     -3.491487      1.835162
  C       5.314872     -3.567309      1.652886
  H       7.072412     -2.703459      2.315126
  H       7.213902     -4.336475      1.754103
  H       4.796523     -2.615486      1.882372
  O       0.185973      2.805245      0.058261
  N      -2.299232      0.909148      0.023754
  N       1.373650      0.830905     -0.104549
  N       0.413906     -1.344408     -0.206530
  N      -2.021153     -1.316371     -0.115471
  N       2.713255     -1.080026     -0.250082
  C      -0.938540      0.681182     -0.037443
  C      -0.789899     -0.706210     -0.122918
  C       0.172770      1.575331     -0.019173
  C       1.451178     -0.552716     -0.191919
  C      -2.888206     -0.322092     -0.026900
  H      -2.753013      1.808582      0.093705
  H       2.219051      1.388366     -0.078897
  H      -3.963393     -0.439604      0.003784
  H       2.797748     -2.081462     -0.343897
  H       3.530700     -0.506319     -0.365255
22
Coordinates from ORCA-job formamide_guanine_opt_freq E -712.110473116254
  O       4.836085     -4.571551      1.169635
  N       6.732060     -3.495638      1.879328
  C       5.391667     -3.599784      1.654039
  H       7.103517     -2.730664      2.423056
  H       7.308015     -4.318734      1.757201
  H       4.837428     -2.680263      1.927251
  O       0.188688      2.811847      0.049480
  N      -2.319617      0.938601      0.019620
  N       1.353090      0.824988     -0.114348
  N       0.372674     -1.339910     -0.211978
  N      -2.061353     -1.289010     -0.117812
  N       2.674971     -1.098761     -0.254703
  C      -0.960728      0.699627     -0.043997
  C      -0.824084     -0.689927     -0.127873
  C       0.158483      1.582430     -0.028397
  C       1.418754     -0.558576     -0.199411
  C      -2.919028     -0.287209     -0.029313
  H      -2.764622      1.842497      0.088755
  H       2.203293      1.375218     -0.089282
  H      -3.995087     -0.396513      0.002768
  H       2.750425     -2.099592     -0.361812
  H       3.498057     -0.535007     -0.385533
22
Coordinates from ORCA-job formamide_guanine_opt_freq E -712.110786270244
  O       4.915661     -4.565151      1.088311
  N       6.767123     -3.495115      1.913950
  C       5.434247     -3.614336      1.649191
  H       7.113302     -2.750584      2.500763
  H       7.365357     -4.292386      1.739221
  H       4.852305     -2.726013      1.962761
  O       0.198650      2.814397      0.034471
  N      -2.330459      0.957376      0.013836
  N       1.342359      0.816372     -0.119630
  N       0.347309     -1.340220     -0.206291
  N      -2.085004     -1.271316     -0.113663
  N       2.651742     -1.117290     -0.244949
  C      -0.972687      0.711693     -0.048516
  C      -0.843631     -0.679742     -0.125897
  C       0.151309      1.585730     -0.037492
  C       1.401059     -0.565659     -0.196972
  C      -2.936808     -0.264755     -0.029788
  H      -2.768481      1.865153      0.077430
  H       2.192880      1.366659     -0.097031
  H      -4.013285     -0.369849      0.002342
  H       2.720020     -2.117593     -0.363046
  H       3.479720     -0.563303     -0.392329
22
Coordinates from ORCA-job formamide_guanine_opt_freq E -712.111222636697
  O       5.029114     -4.525384      0.953980
  N       6.808690     -3.493110      1.963338
  C       5.490394     -3.624739      1.635432
  H       7.117729     -2.786529      2.613797
  H       7.444343     -4.235336      1.701494
  H       4.865780     -2.794504      2.015697
  O       0.217190      2.813864      0.008740
  N      -2.341464      0.985007      0.002236
  N       1.330489      0.798587     -0.123747
  N       0.311212     -1.345322     -0.189965
  N      -2.118545     -1.246056     -0.103844
  N       2.618535     -1.151263     -0.220419
  C      -0.985961      0.726153     -0.054449
  C      -0.870675     -0.667699     -0.118785
  C       0.146518      1.586356     -0.049922
  C       1.376317     -0.581693     -0.186271
  C      -2.960460     -0.230689     -0.032311
  H      -2.767883      1.899109      0.054114
  H       2.182404      1.347474     -0.105543
  H      -4.037790     -0.326826     -0.002154
  H       2.674918     -2.150601     -0.356141
  H       3.451832     -0.612730     -0.398608
22
Coordinates from ORCA-job formamide_guanine_opt_freq E -712.111859909246
  O       5.186167     -4.415463      0.761577
  N       6.858992     -3.492754      2.027746
  C       5.566159     -3.624476      1.609923
  H       7.112842     -2.857850      2.769032
  H       7.551807     -4.123949      1.647689
  H       4.880494     -2.900479      2.087879
  O       0.247670      2.806179     -0.026079
  N      -2.350646      1.025170     -0.015835
  N       1.317943      0.766422     -0.126061
  N       0.259112     -1.357620     -0.164841
  N      -2.167100     -1.209885     -0.090810
  N       2.570506     -1.208309     -0.179491
  C      -0.999728      0.742153     -0.062764
  C      -0.908899     -0.654351     -0.107914
  C       0.147547      1.580649     -0.066444
  C       1.340308     -0.612572     -0.167787
  C      -2.991543     -0.179312     -0.036058
  H      -2.758592      1.948559      0.018381
  H       2.175374      1.307367     -0.111810
  H      -4.070334     -0.257604     -0.009082
  H       2.607076     -2.205565     -0.342866
  H       3.407530     -0.692241     -0.407712
22
Coordinates from ORCA-job formamide_guanine_opt_freq E -712.112667198428
  O       5.291495     -4.220722      0.573764
  N       6.870666     -3.488634      2.067778
  C       5.603421     -3.588779      1.570716
  H       7.077503     -2.935662      2.884941
  H       7.616574     -3.964038      1.578050
  H       4.866398     -2.999826      2.147518
  O       0.292602      2.785097     -0.061415
  N      -2.341507      1.057447     -0.037121
  N       1.321365      0.721611     -0.117532
  N       0.219930     -1.381035     -0.126849
  N      -2.202540     -1.181471     -0.073312
  N       2.535303     -1.278713     -0.116188
  C      -0.996626      0.746332     -0.068870
  C      -0.933753     -0.651551     -0.090318
  C       0.167154      1.561788     -0.079446
  C       1.316627     -0.656556     -0.134612
  C      -3.007188     -0.133983     -0.043357
  H      -2.729595      1.989939     -0.024403
  H       2.186027      1.251451     -0.104208
  H      -4.087406     -0.190359     -0.023323
  H       2.547728     -2.271871     -0.308077
  H       3.368508     -0.786396     -0.407062
22
Coordinates from ORCA-job formamide_guanine_opt_freq E -712.113772534307
  O       5.318643     -3.970598      0.421952
  N       6.844936     -3.476197      2.067804
  C       5.595435     -3.516911      1.521148
  H       7.019685     -3.000724      2.939507
  H       7.627432     -3.783677      1.506158
  H       4.829102     -3.074191      2.185597
  O       0.344680      2.751907     -0.088882
  N      -2.312579      1.077942     -0.062185
  N       1.341930      0.669403     -0.095530
  N       0.198739     -1.413233     -0.081564
  N      -2.221265     -1.164602     -0.058179
  N       2.517964     -1.354207     -0.035566
  C      -0.975353      0.735890     -0.072704
  C      -0.942640     -0.661285     -0.069510
  C       0.206074      1.529609     -0.085157
  C       1.307190     -0.709813     -0.089216
  C      -3.004416     -0.099505     -0.054834
  H      -2.681992      2.018005     -0.072004
  H       2.217418      1.180927     -0.075403
  H      -4.085744     -0.129758     -0.045432
  H       2.501900     -2.341583     -0.251345
  H       3.335551     -0.883329     -0.397982
22
Coordinates from ORCA-job formamide_guanine_opt_freq E -712.114658320532
  O       5.277478     -3.756140      0.334233
  N       6.804727     -3.452413      2.028408
  C       5.560138     -3.426829      1.475597
  H       6.972674     -3.035209      2.931825
  H       7.604234     -3.669118      1.447027
  H       4.796360     -3.089596      2.203398
  O       0.381355      2.718356     -0.099995
  N      -2.276442      1.085940     -0.089746
  N       1.368664      0.627334     -0.063002
  N       0.193900     -1.442174     -0.040682
  N      -2.227617     -1.160264     -0.051509
  N       2.517807     -1.411860      0.043467
  C      -0.947256      0.715489     -0.076676
  C      -0.941572     -0.679273     -0.052847
  C       0.250428      1.493776     -0.082065
  C       1.305725     -0.756996     -0.041702
  C      -2.990614     -0.079612     -0.075618
  H      -2.634056      2.030102     -0.115857
  H       2.260047      1.108220     -0.022583
  H      -4.072415     -0.082859     -0.080669
  H       2.470180     -2.396551     -0.176028
  H       3.308945     -0.956254     -0.388306
22
Coordinates from ORCA-job formamide_guanine_opt_freq E -712.114997645995
  O       5.200148     -3.595788      0.271388
  N       6.728555     -3.420162      1.990614
  C       5.484681     -3.356551      1.434158
  H       6.890318     -3.025270      2.904693
  H       7.530353     -3.546828      1.387060
  H       4.724821     -3.089818      2.196407
  O       0.436507      2.689302     -0.104697
  N      -2.238465      1.078852     -0.103361
  N       1.402587      0.589864     -0.037250
  N       0.211089     -1.467952     -0.005929
  N      -2.207861     -1.166695     -0.041796
  N       2.537303     -1.456511      0.104702
  C      -0.912329      0.699165     -0.074273
  C      -0.917724     -0.695719     -0.035410
  C       0.291530      1.466651     -0.077313
  C       1.329341     -0.792581     -0.003131
  C      -2.961841     -0.080791     -0.082156
  H      -2.588015      2.025600     -0.142852
  H       2.296295      1.065780      0.013498
  H      -4.043579     -0.076282     -0.096596
  H       2.473659     -2.441633     -0.116766
  H       3.315317     -1.018563     -0.374319
22
Coordinates from ORCA-job formamide_guanine_opt_freq E -712.115581546663
  O       5.117913     -3.538513      0.247922
  N       6.659188     -3.380633      1.945812
  C       5.411747     -3.295220      1.409023
  H       6.836638     -3.002836      2.864674
  H       7.454790     -3.543697      1.342179
  H       4.670586     -3.015615      2.182389
  O       0.463696      2.675035     -0.094279
  N      -2.213247      1.063185     -0.115207
  N       1.427937      0.577018     -0.013936
  N       0.237734     -1.478793      0.012624
  N      -2.183205     -1.182120     -0.040127
  N       2.568942     -1.466278      0.139463
  C      -0.886623      0.685548     -0.075178
  C      -0.891908     -0.710847     -0.027020
  C       0.317835      1.451703     -0.069581
  C       1.355212     -0.807161      0.021990
  C      -2.935253     -0.096638     -0.089524
  H      -2.565392      2.008799     -0.157711
  H       2.326320      1.040442      0.059102
  H      -4.017077     -0.092321     -0.111236
  H       2.489865     -2.460484     -0.050709
  H       3.336990     -1.046508     -0.373998
22
Coordinates from ORCA-job formamide_guanine_opt_freq E -712.116154321976
  O       5.031008     -3.500335      0.229139
  N       6.581302     -3.338043      1.910031
  C       5.328880     -3.243440      1.387322
  H       6.772291     -2.983194      2.835507
  H       7.364485     -3.544314      1.303467
  H       4.597937     -2.934734      2.157826
  O       0.492138      2.665178     -0.086218
  N      -2.189578      1.041849     -0.116757
  N       1.453961      0.569022     -0.000315
  N       0.272566     -1.488391      0.025073
  N      -2.148399     -1.201783     -0.029739
  N       2.606126     -1.467309      0.158049
  C      -0.860194      0.673829     -0.073328
  C      -0.857984     -0.724675     -0.018587
  C       0.340097      1.442745     -0.062189
  C       1.389870     -0.814601      0.036796
  C      -2.904674     -0.121147     -0.089448
  H      -2.546085      1.985923     -0.158578
  H       2.352141      1.030363      0.086380
  H      -3.986531     -0.125474     -0.114354
  H       2.520694     -2.467298      0.001518
  H       3.372638     -1.070104     -0.374922
22
Coordinates from ORCA-job formamide_guanine_opt_freq E -712.116596013243
  O       4.976785     -3.465802      0.218270
  N       6.529387     -3.299505      1.891773
  C       5.273465     -3.205038      1.376043
  H       6.723337     -3.005054      2.837527
  H       7.299701     -3.556988      1.288580
  H       4.539089     -2.872855      2.134124
  O       0.504709      2.662191     -0.084247
  N      -2.175093      1.024373     -0.113266
  N       1.470405      0.568892     -0.000896
  N       0.299987     -1.494122      0.025777
  N      -2.120578     -1.217850     -0.020063
  N       2.632563     -1.460345      0.154957
  C      -0.843007      0.665495     -0.073575
  C      -0.832310     -0.733989     -0.014251
  C       0.352261      1.440143     -0.061546
  C       1.415767     -0.814586      0.036334
  C      -2.883314     -0.141843     -0.076052
  H      -2.535907      1.966979     -0.152497
  H       2.368534      1.029021      0.091902
  H      -3.965179     -0.155204     -0.096514
  H       2.547157     -2.465688      0.028247
  H       3.404930     -1.084159     -0.383954
22
Coordinates from ORCA-job formamide_guanine_opt_freq E -712.116828111705
  O       4.908354     -3.404681      0.192053
  N       6.460023     -3.267035      1.871483
  C       5.205420     -3.162310      1.354401
  H       6.651945     -3.017170      2.829772
  H       7.224596     -3.541646      1.269245
  H       4.465580     -2.829316      2.104911
  O       0.516880      2.653502     -0.094290
  N      -2.151202      1.004543     -0.108170
  N       1.494630      0.564283      0.000241
  N       0.332634     -1.506088      0.038828
  N      -2.088230     -1.236860     -0.000193
  N       2.662265     -1.460116      0.167821
  C      -0.818289      0.649326     -0.070704
  C      -0.802668     -0.748387     -0.002945
  C       0.373721      1.430802     -0.063426
  C       1.445233     -0.819089      0.044908
  C      -2.856192     -0.163907     -0.064950
  H      -2.514354      1.946142     -0.150068
  H       2.390619      1.029468      0.089546
  H      -3.937906     -0.181203     -0.083108
  H       2.583493     -2.462633      0.053171
  H       3.436136     -1.093559     -0.371854
22
Coordinates from ORCA-job formamide_guanine_opt_freq E -712.116785533789
  O       4.977732     -3.403953      0.211175
  N       6.497108     -3.259598      1.911857
  C       5.250247     -3.177960      1.382048
  H       6.655060     -3.156423      2.901863
  H       7.244460     -3.607267      1.326893
  H       4.474207     -2.838752      2.095618
  O       0.472948      2.673011     -0.118739
  N      -2.170997      1.001907     -0.085750
  N       1.477271      0.592237     -0.042502
  N       0.332688     -1.493434      0.014442
  N      -2.089194     -1.239345      0.022507
  N       2.654687     -1.424975      0.106950
  C      -0.835680      0.653499     -0.075392
  C      -0.809020     -0.741697     -0.007707
  C       0.349508      1.448553     -0.085238
  C       1.438549     -0.792109      0.003265
  C      -2.868001     -0.171529     -0.032938
  H      -2.539541      1.941728     -0.118501
  H       2.371345      1.064824      0.024221
  H      -3.949513     -0.196554     -0.031610
  H       2.596727     -2.433637     -0.001094
  H       3.452096     -1.054459     -0.394697
22
Coordinates from ORCA-job formamide_guanine_opt_freq E -712.117035590686
  O       4.955284     -3.377575      0.190248
  N       6.478370     -3.266194      1.896340
  C       5.231913     -3.168647      1.363995
  H       6.643363     -3.116832      2.880283
  H       7.243920     -3.564993      1.306513
  H       4.465830     -2.853992      2.096761
  O       0.490134      2.662249     -0.119421
  N      -2.161365      1.003429     -0.097498
  N       1.485952      0.578686     -0.026407
  N       0.331904     -1.499780      0.032770
  N      -2.090573     -1.238336      0.015282
  N       2.657445     -1.442558      0.138930
  C      -0.827714      0.649451     -0.073052
  C      -0.807698     -0.745747     -0.000577
  C       0.361593      1.438105     -0.081764
  C       1.440260     -0.805112      0.025208
  C      -2.863445     -0.166866     -0.039201
  H      -2.526695      1.944037     -0.141186
  H       2.379677      1.051679      0.042292
  H      -3.945161     -0.185573     -0.044642
  H       2.595948     -2.447153      0.016315
  H       3.443746     -1.064208     -0.374519
22
Coordinates from ORCA-job formamide_guanine_opt_freq E -712.117098617544
  O       4.957267     -3.350608      0.177230
  N       6.470074     -3.268345      1.894351
  C       5.227293     -3.162638      1.356470
  H       6.628561     -3.129040      2.880725
  H       7.242783     -3.550337      1.305835
  H       4.459097     -2.866655      2.093994
  O       0.493809      2.658638     -0.130197
  N      -2.158914      1.002607     -0.098081
  N       1.488900      0.575524     -0.026846
  N       0.333016     -1.500792      0.043770
  N      -2.090176     -1.238923      0.024340
  N       2.659596     -1.445725      0.148227
  C      -0.825505      0.647558     -0.071648
  C      -0.806623     -0.747352      0.005835
  C       0.364662      1.434609     -0.085533
  C       1.441761     -0.807845      0.031652
  C      -2.861681     -0.167311     -0.039255
  H      -2.523849      1.943085     -0.147035
  H       2.381611      1.051378      0.035429
  H      -3.943464     -0.184360     -0.046121
  H       2.601092     -2.449147      0.017477
  H       3.443378     -1.060251     -0.363949
22
Coordinates from ORCA-job formamide_guanine_opt_freq E -712.117159586665
  O       4.976425     -3.309741      0.160912
  N       6.464147     -3.276345      1.899642
  C       5.228898     -3.158414      1.349789
  H       6.605827     -3.177370      2.893348
  H       7.245596     -3.545103      1.316748
  H       4.451195     -2.890221      2.087141
  O       0.490130      2.657802     -0.154640
  N      -2.160549      0.999788     -0.097469
  N       1.489181      0.577800     -0.036000
  N       0.335590     -1.498090      0.058417
  N      -2.088852     -1.241085      0.039601
  N       2.662645     -1.440872      0.152455
  C      -0.826541      0.646417     -0.070551
  C      -0.805630     -0.747842      0.016283
  C       0.362811      1.433849     -0.097468
  C       1.443523     -0.804876      0.035483
  C      -2.861359     -0.170843     -0.028831
  H      -2.527040      1.939062     -0.156304
  H       2.379025      1.060906      0.010052
  H      -3.943202     -0.188175     -0.033305
  H       2.614178     -2.442272      0.008344
  H       3.446690     -1.040307     -0.346977
22
Coordinates from ORCA-job formamide_guanine_opt_freq E -712.117206666886
  O       5.009918     -3.258926      0.150566
  N       6.470587     -3.286752      1.912214
  C       5.242557     -3.155446      1.348452
  H       6.591044     -3.250153      2.913245
  H       7.259593     -3.543533      1.333854
  H       4.451702     -2.921230      2.084570
  O       0.483231      2.659579     -0.182027
  N      -2.166757      0.999223     -0.095253
  N       1.484702      0.582226     -0.050690
  N       0.333983     -1.493173      0.069399
  N      -2.090942     -1.240582      0.057580
  N       2.661043     -1.433767      0.149656
  C      -0.831881      0.648338     -0.071059
  C      -0.808228     -0.745622      0.025056
  C       0.356287      1.436041     -0.112159
  C       1.441451     -0.799888      0.034015
  C      -2.865048     -0.172237     -0.017454
  H      -2.535195      1.937192     -0.161920
  H       2.372834      1.069760     -0.021355
  H      -3.946921     -0.190950     -0.017848
  H       2.621341     -2.434795     -0.005288
  H       3.447386     -1.021236     -0.336881
22
Coordinates from ORCA-job formamide_guanine_opt_freq E -712.117232038652
  O       5.029465     -3.235185      0.147290
  N       6.471021     -3.299364      1.921509
  C       5.248091     -3.154914      1.349548
  H       6.578382     -3.300718      2.924666
  H       7.260625     -3.561383      1.346479
  H       4.450129     -2.931176      2.080671
  O       0.472980      2.664185     -0.202608
  N      -2.172197      0.994853     -0.093007
  N       1.481137      0.591004     -0.063321
  N       0.338355     -1.487397      0.075704
  N      -2.086931     -1.243768      0.070263
  N       2.664710     -1.420204      0.144224
  C      -0.835785      0.649602     -0.071829
  C      -0.806208     -0.744068      0.031013
  C       0.349239      1.440817     -0.123923
  C       1.443772     -0.790766      0.031017
  C      -2.865553     -0.178825     -0.006373
  H      -2.544698      1.930860     -0.164480
  H       2.367461      1.082427     -0.046034
  H      -3.947331     -0.201914     -0.002398
  H       2.631949     -2.420143     -0.012584
  H       3.454077     -0.999855     -0.329154
22
Coordinates from ORCA-job formamide_guanine_opt_freq E -712.117272807506
  O       5.051587     -3.193664      0.145816
  N       6.474736     -3.315849      1.932857
  C       5.257144     -3.151140      1.351825
  H       6.567892     -3.363191      2.936541
  H       7.266222     -3.573197      1.358024
  H       4.451640     -2.946756      2.081178
  O       0.463406      2.668961     -0.224531
  N      -2.178197      0.991597     -0.091660
  N       1.476298      0.599086     -0.077389
  N       0.340887     -1.481851      0.081438
  N      -2.084096     -1.245479      0.083507
  N       2.666333     -1.407718      0.138569
  C      -0.840398      0.651782     -0.073884
  C      -0.805325     -0.741657      0.036518
  C       0.341678      1.446067     -0.137012
  C       1.444669     -0.782215      0.027212
  C      -2.867052     -0.183779      0.004786
  H      -2.554525      1.925759     -0.167269
  H       2.362321      1.091276     -0.070450
  H      -3.948671     -0.211410      0.013562
  H       2.637239     -2.408402     -0.016255
  H       3.458900     -0.984152     -0.326711
22
Coordinates from ORCA-job formamide_guanine_opt_freq E -712.117334760198
  O       5.078844     -3.148535      0.147915
  N       6.477101     -3.353085      1.947407
  C       5.268368     -3.150197      1.356840
  H       6.556008     -3.439615      2.949853
  H       7.270771     -3.604348      1.372624
  H       4.457174     -2.960964      2.083751
  O       0.444173      2.678586     -0.255328
  N      -2.187823      0.984483     -0.090006
  N       1.468529      0.615411     -0.097636
  N       0.348096     -1.471722      0.088163
  N      -2.076750     -1.249967      0.101973
  N       2.671666     -1.382919      0.129053
  C      -0.847553      0.654863     -0.077332
  C      -0.802012     -0.737886      0.043452
  C       0.328557      1.456252     -0.155889
  C       1.447803     -0.764929      0.020820
  C      -2.868105     -0.194494      0.019716
  H      -2.571473      1.915312     -0.170069
  H       2.353576      1.109337     -0.103714
  H      -3.949335     -0.230785      0.035375
  H       2.646427     -2.384329     -0.015749
  H       3.468644     -0.956402     -0.324548
22
Coordinates from ORCA-job formamide_guanine_opt_freq E -712.117414274169
  O       5.108869     -3.076578      0.153088
  N       6.474135     -3.405687      1.961654
  C       5.280050     -3.145293      1.362566
  H       6.537124     -3.534915      2.960545
  H       7.274581     -3.634613      1.386939
  H       4.462332     -2.980600      2.088552
  O       0.420242      2.688433     -0.294748
  N      -2.197557      0.975137     -0.089770
  N       1.460617      0.634287     -0.121527
  N       0.358291     -1.460166      0.097756
  N      -2.066955     -1.255772      0.125591
  N       2.679219     -1.353260      0.119920
  C      -0.854592      0.656733     -0.082605
  C      -0.797018     -0.734343      0.052848
  C       0.314191      1.466870     -0.180052
  C       1.452362     -0.744354      0.014203
  C      -2.867840     -0.207531      0.038388
  H      -2.589511      1.901973     -0.175805
  H       2.344075      1.130618     -0.141931
  H      -3.948500     -0.253339      0.062474
  H       2.657666     -2.357047     -0.007136
  H       3.480904     -0.926487     -0.324277
22
Coordinates from ORCA-job formamide_guanine_opt_freq E -712.117401604124
  O       5.200573     -2.885718      0.191682
  N       6.455945     -3.588799      1.984970
  C       5.316081     -3.150996      1.385612
  H       6.489033     -3.781018      2.974985
  H       7.288719     -3.720596      1.424627
  H       4.483820     -3.045764      2.106082
  O       0.339187      2.714460     -0.410835
  N      -2.226169      0.946990     -0.092475
  N       1.437300      0.693029     -0.187591
  N       0.390396     -1.421978      0.125838
  N      -2.038720     -1.272120      0.196553
  N       2.702376     -1.259309      0.093594
  C      -0.875808      0.659029     -0.100336
  C      -0.783081     -0.724312      0.079672
  C       0.269737      1.495476     -0.251172
  C       1.464395     -0.679040     -0.004094
  C      -2.866137     -0.245886      0.087809
  H      -2.641423      1.861944     -0.195549
  H       2.310152      1.204990     -0.247913
  H      -3.944788     -0.316641      0.134947
  H       2.696305     -2.266653      0.034141
  H       3.514795     -0.833020     -0.323875
22
Coordinates from ORCA-job formamide_guanine_opt_freq E -712.116826225888
  O       5.063296     -3.163839      0.173062
  N       6.501841     -3.357231      1.916188
  C       5.284199     -3.125692      1.382632
  H       6.631325     -3.413328      2.917209
  H       7.269376     -3.614948      1.308540
  H       4.487756     -2.926402      2.116141
  O       0.452135      2.667552     -0.236624
  N      -2.188064      0.996832     -0.113127
  N       1.468575      0.601394     -0.068526
  N       0.327554     -1.475741      0.094240
  N      -2.101928     -1.240539      0.079311
  N       2.656198     -1.403854      0.156963
  C      -0.850976      0.652552     -0.084442
  C      -0.820192     -0.739408      0.038759
  C       0.333566      1.443579     -0.142881
  C       1.431779     -0.781453      0.041062
  C      -2.879637     -0.176819     -0.008836
  H      -2.560837      1.931377     -0.199525
  H       2.349727      1.102219     -0.057940
  H      -3.961790     -0.198357     -0.007294
  H       2.640245     -2.418739      0.021348
  H       3.448538     -0.975089     -0.319589
22
Coordinates from ORCA-job formamide_guanine_opt_freq E -712.117117286143
  O       5.089233     -3.112347      0.162684
  N       6.504516     -3.372322      1.930097
  C       5.297580     -3.121194      1.368977
  H       6.605690     -3.462285      2.931166
  H       7.288795     -3.610095      1.337337
  H       4.491095     -2.948040      2.105570
  O       0.447431      2.667123     -0.253697
  N      -2.191328      0.996817     -0.111124
  N       1.465477      0.602773     -0.079205
  N       0.325986     -1.473305      0.098876
  N      -2.103486     -1.239197      0.092546
  N       2.654473     -1.400378      0.151786
  C      -0.854068      0.653102     -0.085916
  C      -0.822116     -0.738045      0.044080
  C       0.329808      1.443689     -0.153081
  C       1.429893     -0.779600      0.037530
  C      -2.881821     -0.176325      0.002146
  H      -2.564652      1.930685     -0.201151
  H       2.345817      1.104713     -0.076055
  H      -3.963825     -0.197941      0.008184
  H       2.643039     -2.413094      0.020766
  H       3.445150     -0.970663     -0.324844
22
Coordinates from ORCA-job formamide_guanine_opt_freq E -712.117406172090
  O       5.094291     -3.087249      0.171062
  N       6.492930     -3.419679      1.939173
  C       5.295768     -3.128537      1.373139
  H       6.594518     -3.496515      2.938777
  H       7.278522     -3.649496      1.347080
  H       4.489913     -2.940394      2.106996
  O       0.428084      2.678051     -0.271988
  N      -2.197262      0.985558     -0.106336
  N       1.460657      0.620460     -0.097352
  N       0.340631     -1.465728      0.092699
  N      -2.087157     -1.247348      0.108443
  N       2.664681     -1.371783      0.136218
  C      -0.857199      0.653819     -0.091069
  C      -0.811834     -0.736216      0.043358
  C       0.318597      1.455158     -0.167797
  C       1.438985     -0.759955      0.024141
  C      -2.877104     -0.192497      0.014714
  H      -2.578291      1.916675     -0.192980
  H       2.338615      1.126435     -0.097068
  H      -3.958350     -0.225846      0.029831
  H       2.655922     -2.376027      0.035471
  H       3.457769     -0.954817     -0.329836
22
Coordinates from ORCA-job formamide_guanine_opt_freq E -712.117167633459
  O       5.202512     -2.901988      0.170938
  N       6.488413     -3.546711      1.984428
  C       5.337211     -3.149282      1.366550
  H       6.518304     -3.719956      2.980093
  H       7.325057     -3.686595      1.430890
  H       4.509266     -3.031450      2.098643
  O       0.372716      2.704402     -0.368988
  N      -2.224635      0.968177     -0.098745
  N       1.437461      0.665289     -0.161114
  N       0.358976     -1.436615      0.111445
  N      -2.067964     -1.256528      0.166843
  N       2.676691     -1.302886      0.101042
  C      -0.877907      0.662861     -0.103638
  C      -0.803962     -0.724034      0.066637
  C       0.281271      1.483751     -0.228788
  C       1.444573     -0.710433      0.001996
  C      -2.880463     -0.218081      0.067737
  H      -2.625837      1.890097     -0.195836
  H       2.315520      1.171090     -0.193406
  H      -3.960536     -0.274477      0.107163
  H       2.673661     -2.311051      0.051541
  H       3.482361     -0.891513     -0.348760
22
Coordinates from ORCA-job formamide_guanine_opt_freq E -712.116737054169
  O       5.129255     -3.145847      0.163415
  N       6.501275     -3.472696      1.962699
  C       5.313430     -3.167123      1.393613
  H       6.612944     -3.491988      2.970080
  H       7.283742     -3.727303      1.365493
  H       4.525345     -2.916645      2.116000
  O       0.398330      2.705400     -0.274447
  N      -2.215910      0.978914     -0.099128
  N       1.444822      0.651576     -0.115127
  N       0.347977     -1.451100      0.072512
  N      -2.078589     -1.253809      0.108067
  N       2.669321     -1.330967      0.104766
  C      -0.871575      0.664205     -0.097082
  C      -0.810038     -0.727838      0.034322
  C       0.295651      1.481287     -0.177240
  C       1.439352     -0.728387      0.002965
  C      -2.882873     -0.207454      0.022792
  H      -2.608921      1.906813     -0.173663
  H       2.327419      1.151794     -0.104692
  H      -3.963890     -0.257509      0.046849
  H       2.650619     -2.347315      0.042953
  H       3.475004     -0.929939     -0.358477
22
Coordinates from ORCA-job formamide_guanine_opt_freq E -712.117539794655
  O       5.124401     -3.069686      0.169533
  N       6.499819     -3.458302      1.954157
  C       5.312649     -3.144365      1.374741
  H       6.589921     -3.534689      2.955277
  H       7.296136     -3.674171      1.370377
  H       4.506853     -2.957189      2.108927
  O       0.408838      2.689000     -0.289858
  N      -2.207583      0.982383     -0.104461
  N       1.451437      0.636059     -0.112806
  N       0.343232     -1.456512      0.091337
  N      -2.084753     -1.249060      0.118017
  N       2.665835     -1.350249      0.122916
  C      -0.865667      0.658131     -0.094667
  C      -0.812619     -0.731537      0.045111
  C       0.305634      1.466144     -0.180543
  C       1.437655     -0.743822      0.015207
  C      -2.881095     -0.198502      0.025067
  H      -2.594676      1.911118     -0.190625
  H       2.330707      1.139921     -0.115911
  H      -3.962080     -0.238451      0.046138
  H       2.655294     -2.356285      0.038190
  H       3.462752     -0.935869     -0.339451
22
Coordinates from ORCA-job formamide_guanine_opt_freq E -712.117583986230
  O       5.134269     -3.036272      0.165251
  N       6.488731     -3.469500      1.957262
  C       5.308699     -3.142172      1.372737
  H       6.566355     -3.572030      2.957675
  H       7.290867     -3.676041      1.376866
  H       4.498459     -2.966365      2.103563
  O       0.402389      2.691235     -0.307879
  N      -2.208399      0.976684     -0.103396
  N       1.451569      0.642150     -0.122145
  N       0.350834     -1.453316      0.098720
  N      -2.077396     -1.253126      0.130743
  N       2.672359     -1.339544      0.122565
  C      -0.865312      0.657207     -0.095601
  C      -0.807248     -0.731688      0.051468
  C       0.303008      1.468820     -0.190767
  C       1.442885     -0.736753      0.014880
  C      -2.877741     -0.205682      0.034856
  H      -2.599188      1.903532     -0.193794
  H       2.330178      1.147305     -0.132715
  H      -3.958544     -0.249534      0.059587
  H       2.663997     -2.347515      0.041158
  H       3.471914     -0.923327     -0.334362
22
Coordinates from ORCA-job formamide_guanine_opt_freq E -712.117565217316
  O       5.176708     -2.923123      0.168675
  N       6.463827     -3.517910      1.962785
  C       5.307673     -3.136105      1.367946
  H       6.500531     -3.711170      2.953255
  H       7.286460     -3.686854      1.398797
  H       4.480181     -3.010079      2.089330
  O       0.374483      2.696182     -0.376768
  N      -2.214331      0.959776     -0.103894
  N       1.448413      0.663354     -0.153046
  N       0.372072     -1.438364      0.131672
  N      -2.058003     -1.263240      0.175652
  N       2.690153     -1.301628      0.128653
  C      -0.867852      0.654674     -0.098924
  C      -0.794041     -0.730160      0.076062
  C       0.290513      1.476166     -0.227158
  C       1.455683     -0.711695      0.019371
  C      -2.870191     -0.226525      0.062476
  H      -2.617084      1.879522     -0.212755
  H       2.322582      1.174656     -0.195018
  H      -3.950263     -0.281060      0.096072
  H       2.691205     -2.310771      0.050314
  H       3.493971     -0.871577     -0.306827
22
Coordinates from ORCA-job formamide_guanine_opt_freq E -712.113357190995
  O       5.158033     -2.980426      0.213934
  N       6.494671     -3.532805      1.962315
  C       5.324466     -3.142403      1.405156
  H       6.593219     -3.649530      2.899154
  H       7.290400     -3.715561      1.365580
  H       4.535092     -2.974283      2.123182
  O       0.382148      2.703286     -0.344290
  N      -2.222378      0.972170     -0.116706
  N       1.439173      0.659772     -0.134633
  N       0.354215     -1.439227      0.119777
  N      -2.073292     -1.254744      0.140873
  N       2.675537     -1.313646      0.133879
  C      -0.876636      0.664345     -0.102920
  C      -0.807475     -0.724847      0.061764
  C       0.285379      1.481748     -0.211523
  C       1.441556     -0.717198      0.024651
  C      -2.881764     -0.214104      0.036476
  H      -2.622504      1.894908     -0.218883
  H       2.317803      1.161109     -0.152749
  H      -3.962049     -0.267498      0.060127
  H       2.658003     -2.332359      0.069525
  H       3.479091     -0.894638     -0.328017
22
Coordinates from ORCA-job formamide_guanine_opt_freq E -712.117236222089
  O       5.158305     -2.980248      0.196454
  N       6.498887     -3.521552      1.959513
  C       5.325880     -3.139859      1.390681
  H       6.575611     -3.654147      2.959200
  H       7.289690     -3.706014      1.384438
  H       4.514224     -2.980560      2.115104
  O       0.378350      2.697955     -0.336501
  N      -2.217924      0.970563     -0.103629
  N       1.442167      0.658526     -0.143938
  N       0.356512     -1.440650      0.098963
  N      -2.071435     -1.254785      0.142611
  N       2.674618     -1.312883      0.116025
  C      -0.873154      0.659396     -0.102356
  C      -0.805730     -0.726756      0.052956
  C       0.289016      1.477256     -0.210840
  C       1.443063     -0.717907      0.005112
  C      -2.879246     -0.213996      0.047513
  H      -2.615231      1.893277     -0.195690
  H       2.319141      1.163159     -0.162694
  H      -3.959418     -0.264735      0.080215
  H       2.663827     -2.321450      0.051630
  H       3.475536     -0.900523     -0.338096
22
Coordinates from ORCA-job formamide_guanine_opt_freq E -712.113217853841
  O       5.186061     -2.962400      0.173941
  N       6.487372     -3.528547      1.988669
  C       5.334246     -3.146152      1.375969
  H       6.537206     -3.688431      2.989964
  H       7.351454     -3.710008      1.366587
  H       4.489529     -2.996419      2.113625
  O       0.361791      2.696131     -0.356184
  N      -2.220080      0.970292     -0.102734
  N       1.441386      0.660087     -0.149115
  N       0.358475     -1.441912      0.106338
  N      -2.073839     -1.255152      0.161478
  N       2.676107     -1.308221      0.110217
  C      -0.875573      0.653797     -0.101263
  C      -0.807969     -0.729022      0.061233
  C       0.284829      1.473400     -0.216900
  C       1.443041     -0.716798      0.005440
  C      -2.882191     -0.212879      0.054589
  H      -2.615533      1.894675     -0.201378
  H       2.308960      1.181112     -0.180634
  H      -3.962371     -0.258534      0.088622
  H       2.680045     -2.299088      0.047565
  H       3.479740     -0.891862     -0.329356
22
Coordinates from ORCA-job formamide_guanine_opt_freq E -712.117304188588
  O       5.214106     -2.895411      0.179235
  N       6.482997     -3.564200      1.974577
  C       5.333362     -3.147516      1.384728
  H       6.516891     -3.774083      2.959814
  H       7.309388     -3.714216      1.408966
  H       4.500651     -3.032247      2.106248
  O       0.355452      2.707703     -0.406191
  N      -2.228631      0.959086     -0.108096
  N       1.436044      0.678156     -0.164736
  N       0.369393     -1.428728      0.131745
  N      -2.061218     -1.263170      0.189321
  N       2.687489     -1.279649      0.118608
  C      -0.880399      0.660459     -0.105905
  C      -0.799639     -0.724530      0.079367
  C       0.274142      1.487184     -0.244193
  C       1.450512     -0.696438      0.014777
  C      -2.878718     -0.229738      0.072403
  H      -2.635992      1.877499     -0.222229
  H       2.309811      1.193170     -0.211937
  H      -3.958644     -0.289690      0.111844
  H       2.689979     -2.290416      0.049505
  H       3.495711     -0.849156     -0.311178
22
Coordinates from ORCA-job formamide_guanine_opt_freq E -712.116656953426
  O       5.157505     -2.971391      0.216115
  N       6.497316     -3.527922      1.943821
  C       5.329513     -3.131638      1.398301
  H       6.593581     -3.661494      2.945221
  H       7.287354     -3.715656      1.347254
  H       4.529980     -2.969914      2.125009
  O       0.376092      2.697654     -0.339863
  N      -2.219087      0.972151     -0.114861
  N       1.441144      0.659486     -0.136656
  N       0.353824     -1.438839      0.118902
  N      -2.074565     -1.253503      0.142408
  N       2.672711     -1.316231      0.131976
  C      -0.874605      0.660242     -0.104290
  C      -0.808396     -0.726101      0.060443
  C       0.287924      1.477158     -0.210735
  C       1.439868     -0.717852      0.020584
  C      -2.880340     -0.212099      0.035036
  H      -2.616162      1.894690     -0.213783
  H       2.317516      1.163802     -0.156514
  H      -3.960308     -0.261422      0.058809
  H       2.659104     -2.332025      0.075175
  H       3.472717     -0.905027     -0.335680
22
Coordinates from ORCA-job formamide_guanine_opt_freq E -712.116865991348
  O       5.125527     -3.013798      0.190323
  N       6.516389     -3.477732      1.966041
  C       5.325495     -3.124139      1.390936
  H       6.613386     -3.618518      2.951561
  H       7.289318     -3.700748      1.373249
  H       4.508455     -2.953085      2.126159
  O       0.397213      2.686832     -0.307771
  N      -2.211723      0.979248     -0.102312
  N       1.446057      0.640870     -0.131351
  N       0.344513     -1.450016      0.077213
  N      -2.081886     -1.247772      0.123976
  N       2.663733     -1.339630      0.122377
  C      -0.869601      0.657966     -0.104137
  C      -0.812166     -0.728875      0.035784
  C       0.298200      1.466368     -0.196623
  C       1.437263     -0.737276     -0.000904
  C      -2.881512     -0.201243      0.037655
  H      -2.599498      1.905797     -0.186234
  H       2.319637      1.150488     -0.140782
  H      -3.961816     -0.243366      0.071305
  H       2.657986     -2.337171      0.039657
  H       3.457718     -0.930132     -0.329450
22
Coordinates from ORCA-job formamide_guanine_opt_freq E -712.117309645556
  O       5.171282     -2.943223      0.177415
  N       6.494234     -3.516372      1.961679
  C       5.323482     -3.139499      1.386653
  H       6.548123     -3.692627      2.952845
  H       7.310326     -3.683601      1.371597
  H       4.500070     -3.008597      2.118712
  O       0.385722      2.698452     -0.369848
  N      -2.219036      0.970860     -0.112792
  N       1.443838      0.654330     -0.137546
  N       0.355012     -1.445673      0.120372
  N      -2.074951     -1.256544      0.164300
  N       2.677185     -1.314048      0.131127
  C      -0.873890      0.658511     -0.104114
  C      -0.807515     -0.729145      0.067967
  C       0.290422      1.475782     -0.221040
  C       1.444182     -0.722353      0.023152
  C      -2.882216     -0.213730      0.052496
  H      -2.615982      1.895285     -0.221588
  H       2.321570      1.166323     -0.167184
  H      -3.963092     -0.262913      0.084298
  H       2.673297     -2.319602      0.042707
  H       3.480626     -0.887550     -0.314536
22
Coordinates from ORCA-job formamide_guanine_opt_freq E -712.117542560540
  O       5.138567     -2.968585      0.191111
  N       6.491882     -3.494588      1.951823
  C       5.315934     -3.127927      1.390009
  H       6.577048     -3.658196      2.946499
  H       7.289224     -3.689886      1.356537
  H       4.510701     -2.979482      2.123045
  O       0.389724      2.691829     -0.342464
  N      -2.212634      0.972752     -0.110315
  N       1.447363      0.649885     -0.134293
  N       0.353461     -1.446047      0.107374
  N      -2.075414     -1.254234      0.144449
  N       2.674826     -1.326689      0.138500
  C      -0.869209      0.656849     -0.106186
  C      -0.807187     -0.730213      0.054373
  C       0.296424      1.470521     -0.212372
  C       1.442401     -0.728035      0.016825
  C      -2.877846     -0.210033      0.042229
  H      -2.606905      1.896875     -0.207846
  H       2.323906      1.157206     -0.152349
  H      -3.958054     -0.255385      0.074054
  H       2.664962     -2.337780      0.050627
  H       3.473514     -0.904769     -0.314959
22
Coordinates from ORCA-job formamide_guanine_opt_freq E -712.117523402797
  O       5.146886     -2.970752      0.188669
  N       6.501521     -3.507209      1.941214
  C       5.323614     -3.130988      1.387063
  H       6.582715     -3.644258      2.935476
  H       7.292844     -3.684047      1.346801
  H       4.511708     -2.978338      2.132961
  O       0.391324      2.692363     -0.339674
  N      -2.214293      0.975321     -0.118343
  N       1.444811      0.648400     -0.126905
  N       0.350111     -1.448165      0.121011
  N      -2.077206     -1.250744      0.142364
  N       2.670143     -1.327725      0.144446
  C      -0.870533      0.658959     -0.105122
  C      -0.808710     -0.728054      0.060903
  C       0.294817      1.472455     -0.206957
  C       1.440743     -0.728783      0.029513
  C      -2.880794     -0.206196      0.032445
  H      -2.606918      1.900259     -0.219663
  H       2.322903      1.151979     -0.144015
  H      -3.961367     -0.252884      0.055433
  H       2.658944     -2.335709      0.070842
  H       3.469427     -0.921815     -0.321790
22
Coordinates from ORCA-job formamide_guanine_opt_freq E -712.117624833194
  O       5.154563     -2.941703      0.190598
  N       6.490895     -3.534545      1.958466
  C       5.321358     -3.132452      1.392111
  H       6.571007     -3.693417      2.950170
  H       7.290978     -3.712678      1.368335
  H       4.511213     -2.982518      2.128192
  O       0.375063      2.699589     -0.357878
  N      -2.219595      0.966533     -0.109168
  N       1.442582      0.662548     -0.147948
  N       0.360682     -1.439421      0.112305
  N      -2.068192     -1.257951      0.154386
  N       2.679490     -1.306501      0.129998
  C      -0.873689      0.658223     -0.106607
  C      -0.803149     -0.727612      0.059607
  C       0.287145      1.478678     -0.221225
  C       1.446528     -0.713909      0.012277
  C      -2.878488     -0.218748      0.049793
  H      -2.619034      1.888495     -0.208450
  H       2.318535      1.171312     -0.172615
  H      -3.958824     -0.271520      0.083207
  H       2.670770     -2.313997      0.063852
  H       3.482850     -0.894338     -0.322735
22
Coordinates from ORCA-job formamide_guanine_opt_freq E -712.117638856610
  O       5.146715     -2.954140      0.192612
  N       6.497798     -3.516967      1.947218
  C       5.322558     -3.131055      1.391175
  H       6.584229     -3.669221      2.941629
  H       7.295487     -3.694327      1.347404
  H       4.518105     -2.985181      2.131896
  O       0.386852      2.695171     -0.352211
  N      -2.216636      0.972882     -0.117738
  N       1.444234      0.652324     -0.132658
  N       0.352138     -1.444328      0.116640
  N      -2.076738     -1.253840      0.149402
  N       2.672880     -1.321108      0.144743
  C      -0.872495      0.658445     -0.106400
  C      -0.808937     -0.728450      0.059903
  C       0.292663      1.473493     -0.214713
  C       1.440952     -0.724547      0.024476
  C      -2.881113     -0.210491      0.039643
  H      -2.611800      1.897031     -0.222091
  H       2.321871      1.159733     -0.152842
  H      -3.961566     -0.257727      0.067266
  H       2.663372     -2.329737      0.062688
  H       3.472118     -0.903892     -0.311370
22
Coordinates from ORCA-job formamide_guanine_opt_freq E -712.117673281236
  O       5.158362     -2.946344      0.198373
  N       6.499417     -3.539667      1.949255
  C       5.330348     -3.134995      1.395584
  H       6.585796     -3.688518      2.943235
  H       7.299425     -3.712650      1.355651
  H       4.524367     -2.984768      2.138492
  O       0.374042      2.698980     -0.357273
  N      -2.221274      0.970029     -0.116154
  N       1.439919      0.661426     -0.142029
  N       0.355149     -1.438478      0.115589
  N      -2.074206     -1.254532      0.150748
  N       2.674435     -1.308089      0.137768
  C      -0.876070      0.659715     -0.109204
  C      -0.808073     -0.725976      0.059318
  C       0.285678      1.478387     -0.220680
  C       1.441404     -0.714902      0.018851
  C      -2.882012     -0.214164      0.042784
  H      -2.619152      1.892265     -0.217051
  H       2.316599      1.168187     -0.163395
  H      -3.962315     -0.264966      0.073089
  H       2.664868     -2.318683      0.073133
  H       3.475979     -0.898189     -0.319410
22
Coordinates from ORCA-job formamide_guanine_opt_freq E -712.117644381085
  O       5.152735     -2.931719      0.198022
  N       6.499789     -3.535827      1.945112
  C       5.327969     -3.125363      1.395060
  H       6.590452     -3.696321      2.936270
  H       7.290495     -3.712432      1.345105
  H       4.523517     -2.976908      2.139495
  O       0.379461      2.697397     -0.356983
  N      -2.220461      0.970275     -0.118930
  N       1.441590      0.658171     -0.139294
  N       0.354138     -1.440936      0.127160
  N      -2.074196     -1.254437      0.151109
  N       2.673498     -1.314181      0.145871
  C      -0.875040      0.659585     -0.106713
  C      -0.807681     -0.726625      0.064940
  C       0.287687      1.477051     -0.217781
  C       1.442391     -0.718365      0.026812
  C      -2.881999     -0.213731      0.037109
  H      -2.617438      1.893000     -0.224460
  H       2.317649      1.166540     -0.164503
  H      -3.962539     -0.264619      0.061625
  H       2.663822     -2.320497      0.079326
  H       3.476849     -0.905991     -0.317677
22
Coordinates from ORCA-job formamide_guanine_opt_freq E -712.117680321747
  O       5.159532     -2.935584      0.203864
  N       6.506516     -3.548471      1.948514
  C       5.335021     -3.135224      1.399898
  H       6.595864     -3.702777      2.940951
  H       7.300929     -3.716545      1.346839
  H       4.532362     -2.989641      2.144724
  O       0.373473      2.700383     -0.364278
  N      -2.224002      0.970615     -0.119689
  N       1.437924      0.662207     -0.141933
  N       0.353065     -1.437301      0.119982
  N      -2.075929     -1.254060      0.153124
  N       2.672199     -1.306684      0.142580
  C      -0.878533      0.660936     -0.109318
  C      -0.809961     -0.724909      0.061653
  C       0.283458      1.479552     -0.222980
  C       1.439794     -0.713742      0.021934
  C      -2.884393     -0.214051      0.041270
  H      -2.622126      1.892957     -0.225335
  H       2.314096      1.171300     -0.166578
  H      -3.964788     -0.265493      0.069830
  H       2.664147     -2.315227      0.073192
  H       3.474039     -0.894171     -0.311572
22
Coordinates from ORCA-job formamide_guanine_opt_freq E -712.117686486786
  O       5.161084     -2.927234      0.206209
  N       6.507090     -3.550883      1.944317
  C       5.337654     -3.130858      1.400744
  H       6.599738     -3.713489      2.935887
  H       7.303068     -3.723997      1.343606
  H       4.536375     -2.985103      2.148563
  O       0.371242      2.700120     -0.366983
  N      -2.224879      0.970662     -0.122791
  N       1.437087      0.662818     -0.141342
  N       0.352294     -1.436387      0.123443
  N      -2.077412     -1.253664      0.153643
  N       2.671904     -1.305528      0.146681
  C      -0.879451      0.660872     -0.111019
  C      -0.811171     -0.724666      0.062540
  C       0.282525      1.479324     -0.224563
  C       1.438747     -0.713234      0.024928
  C      -2.885384     -0.213742      0.039291
  H      -2.623094      1.892669     -0.229431
  H       2.313338      1.170927     -0.165181
  H      -3.965786     -0.264767      0.067008
  H       2.663957     -2.315294      0.081661
  H       3.473761     -0.894478     -0.310539
22
Coordinates from ORCA-job formamide_guanine_opt_freq E -712.117700972707
  O       5.164270     -2.914960      0.213518
  N       6.512876     -3.560721      1.941681
  C       5.343806     -3.130657      1.405626
  H       6.608432     -3.727707      2.932121
  H       7.305610     -3.727581      1.335915
  H       4.545583     -2.988917      2.157221
  O       0.368763      2.700392     -0.371756
  N      -2.227216      0.971196     -0.125588
  N       1.434749      0.664103     -0.142873
  N       0.350172     -1.434476      0.126399
  N      -2.079261     -1.252242      0.153526
  N       2.669441     -1.303597      0.150994
  C      -0.881722      0.661968     -0.112815
  C      -0.813138     -0.723119      0.062929
  C       0.279999      1.480230     -0.227663
  C       1.436685     -0.711429      0.026692
  C      -2.887442     -0.212961      0.037349
  H      -2.625417      1.892707     -0.233765
  H       2.310572      1.172867     -0.168109
  H      -3.967816     -0.264382      0.064537
  H       2.661926     -2.313213      0.087245
  H       3.471817     -0.893433     -0.306511
22
Coordinates from ORCA-job formamide_guanine_opt_freq E -712.117742653349
  O       5.169173     -2.870470      0.242020
  N       6.531408     -3.603721      1.925485
  C       5.362854     -3.127657      1.423313
  H       6.642308     -3.791479      2.909873
  H       7.308821     -3.762901      1.301409
  H       4.578784     -2.991188      2.190348
  O       0.354619      2.704944     -0.400493
  N      -2.237743      0.969288     -0.141922
  N       1.425727      0.673965     -0.145644
  N       0.347089     -1.425623      0.143928
  N      -2.082690     -1.251250      0.160452
  N       2.665398     -1.286455      0.171416
  C      -0.890979      0.665058     -0.120259
  C      -0.817966     -0.718361      0.069862
  C       0.268482      1.485962     -0.241874
  C       1.432182     -0.699629      0.038890
  C      -2.894517     -0.215864      0.030399
  H      -2.638509      1.888657     -0.262149
  H       2.299834      1.186448     -0.176911
  H      -3.974973     -0.271327      0.053448
  H       2.662950     -2.295489      0.116738
  H       3.470436     -0.878838     -0.281657
22
Coordinates from ORCA-job formamide_guanine_opt_freq E -712.117771342020
  O       5.174337     -2.844005      0.259617
  N       6.541487     -3.629156      1.915381
  C       5.376164     -3.126846      1.433852
  H       6.660839     -3.834438      2.895464
  H       7.311834     -3.786616      1.280828
  H       4.601874     -2.994500      2.211467
  O       0.344079      2.706715     -0.420355
  N      -2.244382      0.967586     -0.152224
  N       1.419723      0.680819     -0.148074
  N       0.345265     -1.418686      0.154206
  N      -2.085067     -1.250330      0.165473
  N       2.662967     -1.274455      0.185445
  C      -0.897040      0.666643     -0.126187
  C      -0.821262     -0.715104      0.072958
  C       0.260690      1.488934     -0.252530
  C       1.428865     -0.691275      0.046345
  C      -2.898671     -0.217842      0.026850
  H      -2.646927      1.884980     -0.279613
  H       2.292067      1.196093     -0.183137
  H      -3.978954     -0.275437      0.048947
  H       2.664575     -2.283488      0.135114
  H       3.470226     -0.865524     -0.263154
22
Coordinates from ORCA-job formamide_guanine_opt_freq E -712.117815881895
  O       5.178356     -2.803916      0.289262
  N       6.556430     -3.669601      1.893933
  C       5.396196     -3.123747      1.450720
  H       6.689778     -3.906246      2.865564
  H       7.310876     -3.834453      1.240031
  H       4.641562     -2.992545      2.248016
  O       0.325928      2.709394     -0.456436
  N      -2.255274      0.963031     -0.172052
  N       1.410107      0.693264     -0.150308
  N       0.344040     -1.407056      0.174199
  N      -2.087652     -1.249815      0.174370
  N       2.660976     -1.251131      0.213476
  C      -0.906712      0.668357     -0.137457
  C      -0.825573     -0.710245      0.079476
  C       0.247894      1.493777     -0.271017
  C       1.424674     -0.676270      0.061775
  C      -2.904931     -0.222810      0.019661
  H      -2.661517      1.876653     -0.312595
  H       2.279897      1.211946     -0.190339
  H      -3.985013     -0.284525      0.039270
  H       2.670906     -2.261119      0.173197
  H       3.471740     -0.838877     -0.226075
22
Coordinates from ORCA-job formamide_guanine_opt_freq E -712.117850748007
  O       5.179621     -2.769527      0.319185
  N       6.571237     -3.709723      1.868785
  C       5.417144     -3.121730      1.467160
  H       6.720694     -3.975541      2.830480
  H       7.303194     -3.886447      1.192319
  H       4.686887     -2.987348      2.286818
  O       0.307926      2.711996     -0.493877
  N      -2.266066      0.957513     -0.196019
  N       1.400123      0.706477     -0.149692
  N       0.343062     -1.394713      0.197168
  N      -2.089374     -1.249421      0.184658
  N       2.658669     -1.226089      0.246557
  C      -0.916366      0.669932     -0.149868
  C      -0.829468     -0.705109      0.087001
  C       0.234793      1.498950     -0.289520
  C       1.420549     -0.660068      0.081042
  C      -2.910720     -0.228671      0.010637
  H      -2.676260      1.867093     -0.352489
  H       2.267567      1.228320     -0.193656
  H      -3.990459     -0.295228      0.026335
  H       2.677098     -2.236204      0.216994
  H       3.472838     -0.810394     -0.183346
22
Coordinates from ORCA-job formamide_guanine_opt_freq E -712.117910678753
  O       5.175709     -2.725427      0.365512
  N       6.592189     -3.765600      1.825623
  C       5.448435     -3.117632      1.492030
  H       6.767990     -4.069300      2.771411
  H       7.281258     -3.964975      1.110949
  H       4.762957     -2.972425      2.347802
  O       0.284810      2.713858     -0.547801
  N      -2.280730      0.948633     -0.233382
  N       1.386311      0.724535     -0.146551
  N       0.340466     -1.376990      0.233052
  N      -2.092498     -1.247969      0.195308
  N       2.654048     -1.189618      0.302769
  C      -0.929523      0.671398     -0.170028
  C      -0.835425     -0.697579      0.097171
  C       0.217322      1.505374     -0.316175
  C       1.414173     -0.636944      0.112910
  C      -2.919256     -0.236927     -0.007043
  H      -2.695834      1.851629     -0.411990
  H       2.251455      1.249892     -0.194297
  H      -3.998669     -0.310408      0.001283
  H       2.684943     -2.199662      0.293046
  H       3.472558     -0.769793     -0.114927
22
Coordinates from ORCA-job formamide_guanine_opt_freq E -712.117976404470
  O       5.164041     -2.670222      0.434524
  N       6.618039     -3.841855      1.751282
  C       5.498171     -3.111561      1.525598
  H       6.840532     -4.190796      2.670884
  H       7.226928     -4.074497      0.977175
  H       4.894708     -2.944982      2.437454
  O       0.257369      2.712066     -0.624254
  N      -2.298352      0.934682     -0.297620
  N       1.367251      0.747966     -0.134142
  N       0.333668     -1.350849      0.293333
  N      -2.098485     -1.243893      0.211425
  N       2.643097     -1.138381      0.398720
  C      -0.946231      0.671933     -0.201535
  C      -0.844893     -0.686363      0.114434
  C       0.195266      1.511813     -0.353135
  C       1.403034     -0.604294      0.169493
  C      -2.930526     -0.247777     -0.039720
  H      -2.718175      1.827691     -0.513983
  H       2.229362      1.277381     -0.183506
  H      -4.009110     -0.330703     -0.046762
  H       2.690504     -2.147170      0.423350
  H       3.466492     -0.716121     -0.006341
22
Coordinates from ORCA-job formamide_guanine_opt_freq E -712.118045219952
  O       5.153655     -2.613998      0.528557
  N       6.649777     -3.925599      1.653529
  C       5.572541     -3.106477      1.567102
  H       6.939538     -4.315137      2.537003
  H       7.143420     -4.189446      0.811330
  H       5.090040     -2.915824      2.542842
  O       0.237154      2.703790     -0.711623
  N      -2.316557      0.921223     -0.378365
  N       1.344601      0.768594     -0.114147
  N       0.313917     -1.319782      0.369379
  N      -2.115152     -1.232612      0.222689
  N       2.618501     -1.084687      0.523569
  C      -0.965356      0.672455     -0.239907
  C      -0.863224     -0.670959      0.134280
  C       0.173963      1.514960     -0.393930
  C       1.381891     -0.570187      0.243486
  C      -2.947451     -0.253829     -0.088663
  H      -2.736657      1.801876     -0.638982
  H       2.205612      1.300275     -0.162174
  H      -4.024982     -0.345119     -0.119018
  H       2.680528     -2.089840      0.595201
  H       3.446928     -0.665607      0.124515
22
Coordinates from ORCA-job formamide_guanine_opt_freq E -712.118123275427
  O       5.147510     -2.582517      0.604203
  N       6.664300     -3.987965      1.581409
  C       5.632979     -3.107238      1.597797
  H       7.012287     -4.397030      2.434274
  H       7.062318     -4.269952      0.696393
  H       5.255049     -2.895705      2.613255
  O       0.222085      2.698417     -0.767744
  N      -2.327663      0.908598     -0.439895
  N       1.327829      0.786094     -0.098385
  N       0.299289     -1.293823      0.426335
  N      -2.126136     -1.224610      0.230892
  N       2.599683     -1.040791      0.612287
  C      -0.978026      0.672374     -0.267644
  C      -0.875921     -0.658580      0.149733
  C       0.158716      1.518177     -0.421360
  C       1.365906     -0.541371      0.298314
  C      -2.957864     -0.260710     -0.126164
  H      -2.747216      1.779177     -0.733931
  H       2.187109      1.320788     -0.141822
  H      -4.034000     -0.360134     -0.175494
  H       2.660926     -2.041676      0.726461
  H       3.433529     -0.637455      0.207757
22
Coordinates from ORCA-job formamide_guanine_opt_freq E -712.118239145446
  O       5.111204     -2.535667      0.706552
  N       6.668777     -4.034086      1.463789
  C       5.709864     -3.087427      1.623609
  H       7.117014     -4.458276      2.260677
  H       6.916011     -4.337571      0.532981
  H       5.505134     -2.849444      2.682502
  O       0.236415      2.671579     -0.841396
  N      -2.324931      0.896115     -0.534490
  N       1.315622      0.785658     -0.061231
  N       0.263924     -1.266666      0.523463
  N      -2.152259     -1.204689      0.237050
  N       2.560135     -1.010452      0.766094
  C      -0.982780      0.666927     -0.304754
  C      -0.898943     -0.643383      0.177342
  C       0.159542      1.505669     -0.453067
  C       1.336812     -0.522788      0.395333
  C      -2.968647     -0.257438     -0.191634
  H      -2.731057      1.753412     -0.880210
  H       2.175422      1.320373     -0.092777
  H      -4.042372     -0.359129     -0.276533
  H       2.614611     -2.004228      0.942236
  H       3.393189     -0.644419      0.331135
