22
Coordinates from ORCA-job formamide_guanine_opt_freq E -712.118239145446
  O           5.11120372450630     -2.53566746442647      0.70655164366577
  N           6.66877721219249     -4.03408606943889      1.46378949341215
  C           5.70986366196298     -3.08742719025186      1.62360944119051
  H           7.11701391673570     -4.45827560776534      2.26067685965270
  H           6.91601108286436     -4.33757107786921      0.53298086360774
  H           5.50513449418740     -2.84944421093868      2.68250180246275
  O           0.23641515441247      2.67157941774816     -0.84139602544067
  N          -2.32493088325585      0.89611499444753     -0.53449033780847
  N           1.31562184263749      0.78565791290435     -0.06123060289112
  N           0.26392393377717     -1.26666629803395      0.52346281196089
  N          -2.15225853668678     -1.20468911734212      0.23704974663328
  N           2.56013533476832     -1.01045243992801      0.76609446120979
  C          -0.98277971631154      0.66692653842158     -0.30475382341820
  C          -0.89894287830615     -0.64338318528123      0.17734229618845
  C           0.15954210002027      1.50566861410927     -0.45306658463349
  C           1.33681186463505     -0.52278765164088      0.39533309154709
  C          -2.96864719385653     -0.25743848129883     -0.19163374525650
  H          -2.73105705865830      1.75341181433700     -0.88020989514160
  H           2.17542191209484      1.32037286708944     -0.09277667711731
  H          -4.04237215916534     -0.35912851524580     -0.27653306998965
  H           2.61461130702623     -2.00422810510503      0.94223557870060
  H           3.39318888441932     -0.64441874449097      0.33113467146527
