16
Coordinates from ORCA-job guanine_opt_freq E -542.291233037554
  O           0.26666613679924      2.70892844097059      0.00028411201912
  N          -2.09713020546615      0.65371386605744      0.00024177717932
  N           1.57737574116841      0.80816978352238      0.00019824405268
  N           0.76123321820295     -1.42590488290743      0.00011274142863
  N          -1.67101299795262     -1.55135203695625     -0.00001357403527
  N           3.03590584809442     -1.02194041391886      0.00026914796128
  C          -0.72320090878445      0.51534650699199      0.00014659785780
  C          -0.48211207517052     -0.86187982780178      0.00016825323662
  C           0.32615978671196      1.47917594252301      0.00004576505700
  C           1.74760162837265     -0.56587330044803      0.00019540677307
  C          -2.60346439629224     -0.61415064776269      0.00049354591598
  H          -2.60829815892345      1.52478133672481      0.00023776259218
  H           2.37867349371479      1.42861091878207      0.00029354994164
  H          -3.66879506059790     -0.80317394176632      0.00061410927583
  H           3.17155892994794     -2.02046962635041      0.00019085017078
  H           3.83733902017496     -0.41468211766052      0.00022171057333
