16
Coordinates from ORCA-job guanine_opt_freq E -542.287032305422
  O       0.192100      2.665900     -0.000400
  N      -2.071500      0.658800      0.000600
  N       1.574000      0.803100      0.000100
  N       0.756600     -1.453600     -0.000300
  N      -1.719400     -1.543200     -0.000600
  N       3.054900     -1.010000      0.000500
  C      -0.718000      0.488500     -0.000100
  C      -0.524500     -0.873100     -0.000400
  C       0.338300      1.448600     -0.000100
  C       1.748300     -0.592400      0.000000
  C      -2.630800     -0.592600      0.000500
  H      -2.570600      1.538600      0.001200
  H       2.407800      1.383500      0.000300
  H      -3.701500     -0.739200      0.001000
  H       3.290500     -1.996500      0.000600
  H       3.822300     -0.347100      0.000800
16
Coordinates from ORCA-job guanine_opt_freq E -542.289996456578
  O       0.221959      2.690566      0.000043
  N      -2.081522      0.659481      0.000358
  N       1.575640      0.807229      0.000222
  N       0.758783     -1.442877     -0.000005
  N      -1.689807     -1.550308      0.000308
  N       3.035811     -1.014442      0.000253
  C      -0.716733      0.498169      0.000156
  C      -0.500108     -0.872436      0.000015
  C       0.338102      1.464685      0.000155
  C       1.738830     -0.583527      0.000137
  C      -2.613057     -0.602436      0.000283
  H      -2.588038      1.533775      0.000501
  H       2.401867      1.392874      0.000265
  H      -3.681893     -0.767076      0.000451
  H       3.237765     -2.000165      0.000216
  H       3.810899     -0.374212      0.000341
16
Coordinates from ORCA-job guanine_opt_freq E -542.290961109934
  O       0.251361      2.706424      0.000270
  N      -2.092725      0.656793      0.000235
  N       1.577387      0.809648      0.000247
  N       0.758110     -1.430596      0.000252
  N      -1.673419     -1.553078      0.000138
  N       3.030249     -1.018539      0.000166
  C      -0.719659      0.508400      0.000251
  C      -0.484923     -0.868094      0.000337
  C       0.333309      1.476070      0.000216
  C       1.738277     -0.573286      0.000230
  C      -2.604144     -0.610522      0.000395
  H      -2.603821      1.527591      0.000153
  H       2.393407      1.409180      0.000212
  H      -3.670878     -0.791228      0.000384
  H       3.195152     -2.011482      0.000129
  H       3.820817     -0.397981      0.000086
16
Coordinates from ORCA-job guanine_opt_freq E -542.291173408120
  O       0.263752      2.709411      0.000291
  N      -2.097378      0.654862      0.000268
  N       1.577840      0.809177      0.000225
  N       0.759474     -1.426152      0.000312
  N      -1.671415     -1.552638      0.000578
  N       3.033485     -1.020290      0.000129
  C      -0.722448      0.513355      0.000311
  C      -0.482122     -0.864670      0.000316
  C       0.328955      1.478797      0.000332
  C       1.743287     -0.568422      0.000223
  C      -2.603430     -0.613201      0.000150
  H      -2.609124      1.525382      0.000220
  H       2.386018      1.419731      0.000143
  H      -3.669205     -0.800127      0.000100
  H       3.179391     -2.016683      0.000114
  H       3.831420     -0.409234     -0.000014
16
Coordinates from ORCA-job guanine_opt_freq E -542.291231349851
  O       0.267807      2.709360      0.000297
  N      -2.098139      0.653753      0.000217
  N       1.577522      0.808435      0.000218
  N       0.760901     -1.425055      0.000194
  N      -1.671399     -1.551701     -0.000017
  N       3.035902     -1.021430      0.000221
  C      -0.723590      0.515608      0.000186
  C      -0.482003     -0.862265      0.000246
  C       0.326206      1.479349      0.000124
  C       1.747098     -0.566014      0.000218
  C      -2.603513     -0.614178      0.000489
  H      -2.609577      1.524613      0.000166
  H       2.380389      1.426624      0.000262
  H      -3.668844     -0.803489      0.000559
  H       3.172251     -2.019847      0.000166
  H       3.837487     -0.414462      0.000155
16
Coordinates from ORCA-job guanine_opt_freq E -542.291228174900
  O       0.267164      2.709071      0.000176
  N      -2.097515      0.653674      0.000331
  N       1.577379      0.808274      0.000201
  N       0.761160     -1.425516      0.000289
  N      -1.671223     -1.551434      0.000553
  N       3.036016     -1.021767      0.000168
  C      -0.723396      0.515550      0.000315
  C      -0.482124     -0.861914      0.000272
  C       0.326026      1.479258      0.000357
  C       1.747576     -0.565840      0.000206
  C      -2.603493     -0.614187      0.000102
  H      -2.608761      1.524688      0.000368
  H       2.379191      1.427990      0.000125
  H      -3.668811     -0.803413      0.000066
  H       3.171639     -2.020321      0.000149
  H       3.837672     -0.414813      0.000021
16
Coordinates from ORCA-job guanine_opt_freq E -542.291233037554
  O       0.266666      2.708928      0.000284
  N      -2.097130      0.653714      0.000242
  N       1.577376      0.808170      0.000198
  N       0.761233     -1.425905      0.000113
  N      -1.671013     -1.551352     -0.000014
  N       3.035906     -1.021940      0.000269
  C      -0.723201      0.515347      0.000147
  C      -0.482112     -0.861880      0.000168
  C       0.326160      1.479176      0.000046
  C       1.747602     -0.565873      0.000195
  C      -2.603464     -0.614151      0.000494
  H      -2.608298      1.524781      0.000238
  H       2.378673      1.428611      0.000294
  H      -3.668795     -0.803174      0.000614
  H       3.171559     -2.020470      0.000191
  H       3.837339     -0.414682      0.000222
