27
Coordinates from ORCA-job methylurea_guanine_opt_freq E -806.652212656370
  O       3.755083     -3.941792      1.500797
  N       5.987497     -3.384841      1.500797
  N       4.393436     -1.731280      1.500797
  C       4.640178     -3.088689      1.500397
  H       6.692309     -2.655194      1.500497
  H       6.315258     -4.344977      1.500797
  H       3.446046     -1.368669      1.500897
  C       5.487446     -0.749423      1.500652
  H       5.757847     -0.506894      0.472954
  H       5.163403      0.155679      2.014349
  H       6.352292     -1.169012      2.014545
  O       0.192100      2.665900     -0.000400
  N      -2.071500      0.658800      0.000600
  N       1.574000      0.803100      0.000100
  N       0.756600     -1.453600     -0.000300
  N      -1.719400     -1.543200     -0.000600
  N       3.054900     -1.010000      0.000500
  C      -0.718000      0.488500     -0.000100
  C      -0.524500     -0.873100     -0.000400
  C       0.338300      1.448600     -0.000100
  C       1.748300     -0.592400      0.000000
  C      -2.630800     -0.592600      0.000500
  H      -2.570600      1.538600      0.001200
  H       2.407800      1.383500      0.000300
  H      -3.701500     -0.739200      0.001000
  H       3.290500     -1.996500      0.000600
  H       3.822300     -0.347100      0.000800
27
Coordinates from ORCA-job methylurea_guanine_opt_freq E -806.676855005304
  O       3.727773     -3.872012      1.535281
  N       5.984032     -3.512590      1.499743
  N       4.459550     -1.710400      1.534217
  C       4.669570     -3.081868      1.531752
  H       6.763636     -2.880685      1.482656
  H       6.191670     -4.499814      1.485660
  H       3.486222     -1.343429      1.531714
  C       5.526870     -0.703964      1.518837
  H       5.775598     -0.448592      0.472525
  H       5.190704      0.195737      2.038552
  H       6.410816     -1.084279      2.025399
  O       0.161080      2.694978     -0.009755
  N      -2.102424      0.638435     -0.000402
  N       1.548707      0.835160     -0.016632
  N       0.763195     -1.428693     -0.015063
  N      -1.691717     -1.563997     -0.004536
  N       3.044974     -0.965491     -0.017493
  C      -0.738448      0.493470     -0.006983
  C      -0.509744     -0.872512     -0.008994
  C       0.302909      1.472442     -0.010889
  C       1.734925     -0.556631     -0.018892
  C      -2.624781     -0.627860      0.000926
  H      -2.619294      1.507038      0.002819
  H       2.369375      1.430331     -0.020065
  H      -3.691868     -0.801812      0.005776
  H       3.295521     -1.955854     -0.012277
  H       3.810443     -0.302899     -0.012696
27
Coordinates from ORCA-job methylurea_guanine_opt_freq E -806.692500348297
  O       3.733915     -3.854101      1.558175
  N       5.995781     -3.546296      1.514133
  N       4.511104     -1.721412      1.563583
  C       4.696607     -3.086110      1.556842
  H       6.801387     -2.943417      1.495523
  H       6.155190     -4.539891      1.493626
  H       3.530900     -1.352976      1.559436
  C       5.566079     -0.715042      1.530162
  H       5.792651     -0.448236      0.473639
  H       5.238435      0.183029      2.060659
  H       6.472151     -1.082476      2.015360
  O       0.148862      2.719036     -0.008504
  N      -2.134803      0.634817     -0.000561
  N       1.523869      0.853413     -0.029894
  N       0.748748     -1.407436     -0.036134
  N      -1.689057     -1.566853     -0.017498
  N       3.023856     -0.942464     -0.039411
  C      -0.763437      0.506110     -0.012784
  C      -0.512669     -0.863980     -0.022549
  C       0.271175      1.492177     -0.015839
  C       1.712815     -0.533124     -0.039577
  C      -2.633278     -0.639232     -0.004028
  H      -2.660655      1.497210      0.008796
  H       2.334558      1.460589     -0.034874
  H      -3.697676     -0.831269      0.003550
  H       3.278909     -1.931360     -0.032715
  H       3.793877     -0.286495     -0.027936
27
Coordinates from ORCA-job methylurea_guanine_opt_freq E -806.708313543040
  O       3.749562     -3.837505      1.597300
  N       6.016270     -3.597455      1.529876
  N       4.587129     -1.733587      1.606393
  C       4.736755     -3.096304      1.592096
  H       6.851120     -3.037946      1.503907
  H       6.110120     -4.600143      1.503788
  H       3.617930     -1.373935      1.604674
  C       5.626266     -0.722412      1.540429
  H       5.825643     -0.441162      0.482311
  H       5.308782      0.173026      2.082702
  H       6.558502     -1.064397      1.996623
  O       0.129897      2.740984     -0.005166
  N      -2.179929      0.631331     -0.005809
  N       1.487946      0.871950     -0.042409
  N       0.723668     -1.382558     -0.061691
  N      -1.703398     -1.565291     -0.040267
  N       2.996906     -0.912087     -0.063260
  C      -0.802769      0.522343     -0.021486
  C      -0.530710     -0.850321     -0.041941
  C       0.224812      1.511890     -0.020378
  C       1.685203     -0.504716     -0.060738
  C      -2.656653     -0.648413     -0.018138
  H      -2.713336      1.488600      0.010711
  H       2.283402      1.499027     -0.048875
  H      -3.717856     -0.859411     -0.010331
  H       3.253479     -1.893558     -0.055309
  H       3.770555     -0.263741     -0.043832
27
Coordinates from ORCA-job methylurea_guanine_opt_freq E -806.720267500698
  O       3.806566     -3.854800      1.639324
  N       6.074719     -3.639529      1.557945
  N       4.675577     -1.759505      1.653235
  C       4.802014     -3.124338      1.624950
  H       6.923223     -3.098774      1.535006
  H       6.133316     -4.645548      1.536389
  H       3.721563     -1.415766      1.660454
  C       5.703592     -0.744897      1.546784
  H       5.876237     -0.448704      0.493945
  H       5.401274      0.146361      2.105165
  H       6.657962     -1.069750      1.970526
  O       0.093692      2.762286      0.001554
  N      -2.235659      0.643748     -0.017235
  N       1.437150      0.890378     -0.052377
  N       0.678285     -1.358421     -0.091669
  N      -1.748150     -1.548071     -0.074035
  N       2.951281     -0.885717     -0.090500
  C      -0.857051      0.545649     -0.033274
  C      -0.575916     -0.827425     -0.067601
  C       0.167037      1.533297     -0.023973
  C       1.642548     -0.477923     -0.081088
  C      -2.704098     -0.637497     -0.043075
  H      -2.770596      1.499967      0.007467
  H       2.218473      1.535501     -0.059495
  H      -3.763505     -0.858236     -0.038119
  H       3.201325     -1.864345     -0.084349
  H       3.728438     -0.243733     -0.064778
27
Coordinates from ORCA-job methylurea_guanine_opt_freq E -806.726734375369
  O       3.883791     -3.889863      1.664596
  N       6.151302     -3.665496      1.578883
  N       4.752492     -1.789256      1.698791
  C       4.875140     -3.157685      1.654158
  H       6.996812     -3.120557      1.567661
  H       6.209820     -4.672002      1.555295
  H       3.800798     -1.459655      1.714303
  C       5.774759     -0.773632      1.557011
  H       5.927949     -0.470315      0.508773
  H       5.487416      0.114812      2.128177
  H       6.740700     -1.095047      1.957256
  O       0.049557      2.782399     -0.005297
  N      -2.285604      0.666242     -0.034695
  N       1.387177      0.907552     -0.061915
  N       0.626932     -1.339292     -0.110034
  N      -1.800139     -1.524260     -0.098947
  N       2.898943     -0.870454     -0.107796
  C      -0.907871      0.568544     -0.047642
  C      -0.627579     -0.803810     -0.086824
  C       0.116162      1.553853     -0.034070
  C       1.594430     -0.458212     -0.094089
  C      -2.755618     -0.614428     -0.066824
  H      -2.818551      1.523765     -0.008114
  H       2.162101      1.560956     -0.070164
  H      -3.814861     -0.835805     -0.065239
  H       3.134849     -1.851024     -0.100447
  H       3.678384     -0.233122     -0.081628
27
Coordinates from ORCA-job methylurea_guanine_opt_freq E -806.730812440610
  O       3.972875     -3.930389      1.675191
  N       6.239196     -3.687845      1.595343
  N       4.826395     -1.821802      1.741634
  C       4.956967     -3.192385      1.671148
  H       7.076744     -3.131350      1.611417
  H       6.312543     -4.692943      1.570406
  H       3.867661     -1.508709      1.764159
  C       5.842499     -0.802816      1.573798
  H       5.981120     -0.497150      0.525794
  H       5.566393      0.083519      2.154132
  H       6.813892     -1.126151      1.959104
  O       0.001209      2.803248     -0.022184
  N      -2.334440      0.694572     -0.053858
  N       1.337338      0.925183     -0.074355
  N       0.571046     -1.321205     -0.123947
  N      -1.855974     -1.497507     -0.116561
  N       2.842444     -0.860448     -0.122020
  C      -0.957668      0.591349     -0.063862
  C      -0.682410     -0.780524     -0.102533
  C       0.069062      1.574686     -0.049832
  C       1.540907     -0.441600     -0.107055
  C      -2.809703     -0.584821     -0.086568
  H      -2.864256      1.554096     -0.028524
  H       2.112389      1.578616     -0.083196
  H      -3.869697     -0.802090     -0.086742
  H       3.059491     -1.845289     -0.112398
  H       3.623271     -0.226036     -0.097311
27
Coordinates from ORCA-job methylurea_guanine_opt_freq E -806.733422447164
  O       4.063313     -3.965706      1.675583
  N       6.327440     -3.705086      1.588195
  N       4.899873     -1.852617      1.794064
  C       5.042230     -3.222436      1.691559
  H       7.157151     -3.138908      1.637417
  H       6.418227     -4.707860      1.547092
  H       3.933661     -1.560604      1.822130
  C       5.907821     -0.827810      1.604563
  H       6.036287     -0.529311      0.553004
  H       5.636738      0.060125      2.184604
  H       6.881476     -1.150630      1.984458
  O      -0.043218      2.821485     -0.059795
  N      -2.381283      0.726095     -0.079565
  N       1.290201      0.938677     -0.090201
  N       0.512441     -1.306297     -0.124910
  N      -1.915653     -1.469973     -0.122120
  N       2.784834     -0.858222     -0.125051
  C      -1.005423      0.612886     -0.084203
  C      -0.739057     -0.759737     -0.110769
  C       0.027112      1.592486     -0.075981
  C       1.485186     -0.431071     -0.113035
  C      -2.864881     -0.550964     -0.102725
  H      -2.906566      1.588573     -0.062963
  H       2.071115      1.584918     -0.102010
  H      -3.926390     -0.760222     -0.104047
  H       2.980031     -1.847630     -0.108851
  H       3.566632     -0.225952     -0.105261
27
Coordinates from ORCA-job methylurea_guanine_opt_freq E -806.735027923645
  O       4.156951     -4.000934      1.665674
  N       6.418816     -3.724275      1.578019
  N       4.975458     -1.885758      1.835859
  C       5.131435     -3.250846      1.686964
  H       7.241538     -3.155971      1.684562
  H       6.522537     -4.725611      1.540498
  H       4.000890     -1.618920      1.870052
  C       5.969463     -0.848246      1.636814
  H       6.091756     -0.557325      0.581618
  H       5.691842      0.039677      2.213191
  H       6.945053     -1.163005      2.018410
  O      -0.084403      2.839322     -0.097984
  N      -2.427937      0.758894     -0.102795
  N       1.243911      0.951064     -0.108004
  N       0.452789     -1.291097     -0.125748
  N      -1.976953     -1.441517     -0.124487
  N       2.727003     -0.857269     -0.128377
  C      -1.052818      0.635087     -0.104039
  C      -0.796192     -0.739117     -0.117966
  C      -0.013538      1.609719     -0.103002
  C       1.428773     -0.421940     -0.120300
  C      -2.920179     -0.515259     -0.115065
  H      -2.948456      1.624317     -0.094479
  H       2.033200      1.586595     -0.122186
  H      -3.983368     -0.715766     -0.116001
  H       2.901950     -1.850815     -0.107982
  H       3.509772     -0.226795     -0.112068
27
Coordinates from ORCA-job methylurea_guanine_opt_freq E -806.736076313389
  O       4.249966     -4.032595      1.643974
  N       6.507541     -3.727332      1.531961
  N       5.049400     -1.918916      1.895938
  C       5.219618     -3.276087      1.699644
  H       7.323123     -3.162021      1.700294
  H       6.624239     -4.726506      1.473993
  H       4.068555     -1.677842      1.934299
  C       6.026874     -0.866992      1.685922
  H       6.149169     -0.592864      0.626791
  H       5.732142      0.024121      2.247710
  H       7.004095     -1.164139      2.078245
  O      -0.113450      2.852040     -0.161626
  N      -2.470625      0.795183     -0.134734
  N       1.202090      0.954288     -0.131393
  N       0.390012     -1.281457     -0.109447
  N      -2.042918     -1.410029     -0.112777
  N       2.668392     -0.868937     -0.115647
  C      -1.097064      0.656893     -0.129018
  C      -0.855157     -0.719632     -0.116024
  C      -0.048037      1.622042     -0.142660
  C       1.373170     -0.422025     -0.117805
  C      -2.976187     -0.473764     -0.123937
  H      -2.983266      1.665282     -0.144220
  H       2.002053      1.575854     -0.153414
  H      -4.041613     -0.662118     -0.124348
  H       2.822867     -1.865882     -0.083037
  H       3.454306     -0.242357     -0.107502
27
Coordinates from ORCA-job methylurea_guanine_opt_freq E -806.736880908316
  O       4.352835     -4.070597      1.610231
  N       6.606220     -3.731100      1.491098
  N       5.126201     -1.957902      1.939377
  C       5.313339     -3.302263      1.681143
  H       7.406839     -3.180354      1.755342
  H       6.728611     -4.730662      1.444825
  H       4.138471     -1.743525      1.983279
  C       6.080851     -0.884576      1.729421
  H       6.207910     -0.621934      0.667855
  H       5.756184      0.004422      2.277081
  H       7.059937     -1.154578      2.137377
  O      -0.140308      2.866291     -0.218633
  N      -2.514771      0.832930     -0.161721
  N       1.158874      0.957725     -0.155849
  N       0.325427     -1.269914     -0.096431
  N      -2.109160     -1.375996     -0.101432
  N       2.607506     -0.879720     -0.106443
  C      -1.142595      0.681057     -0.151975
  C      -0.914493     -0.697663     -0.114996
  C      -0.084267      1.636024     -0.179885
  C       1.316332     -0.420773     -0.118157
  C      -3.032710     -0.430514     -0.130000
  H      -3.019413      1.707377     -0.186360
  H       1.968221      1.566345     -0.185585
  H      -4.100051     -0.607945     -0.128792
  H       2.745675     -1.879122     -0.064901
  H       3.397628     -0.258822     -0.104691
27
Coordinates from ORCA-job methylurea_guanine_opt_freq E -806.737484975822
  O       4.462216     -4.110277      1.561540
  N       6.709550     -3.717692      1.430824
  N       5.200421     -2.001271      1.989095
  C       5.408335     -3.327622      1.663482
  H       7.485410     -3.195067      1.807761
  H       6.835390     -4.718195      1.386839
  H       4.207342     -1.812083      2.038676
  C       6.128585     -0.903139      1.780867
  H       6.268420     -0.654580      0.717706
  H       5.762279     -0.017845      2.307049
  H       7.107558     -1.135952      2.212455
  O      -0.156703      2.876748     -0.290391
  N      -2.556029      0.873937     -0.192508
  N       1.118691      0.954194     -0.184473
  N       0.258104     -1.261093     -0.073044
  N      -2.177668     -1.337592     -0.080121
  N       2.544729     -0.899178     -0.087961
  C      -1.185790      0.705913     -0.177237
  C      -0.974562     -0.674504     -0.107903
  C      -0.116204      1.647048     -0.224389
  C       1.259799     -0.424973     -0.113354
  C      -3.089366     -0.381848     -0.132089
  H      -3.050039      1.753609     -0.238128
  H       1.937004      1.549883     -0.226720
  H      -4.158758     -0.546574     -0.128556
  H       2.668442     -1.900169     -0.032886
  H       3.342139     -0.287471     -0.095358
27
Coordinates from ORCA-job methylurea_guanine_opt_freq E -806.737839012598
  O       4.553407     -4.144720      1.514770
  N       6.794877     -3.693608      1.380303
  N       5.252711     -2.039522      2.028865
  C       5.481626     -3.346619      1.645358
  H       7.543958     -3.201945      1.847763
  H       6.925971     -4.694426      1.319453
  H       4.256727     -1.867879      2.085066
  C       6.156615     -0.918581      1.824416
  H       6.314715     -0.682643      0.761176
  H       5.747682     -0.038379      2.326783
  H       7.132315     -1.113700      2.282025
  O      -0.159412      2.881411     -0.355427
  N      -2.584775      0.908651     -0.217699
  N       1.090877      0.945568     -0.208926
  N       0.204408     -1.255924     -0.047629
  N      -2.231424     -1.303663     -0.056562
  N       2.494840     -0.921243     -0.067232
  C      -1.216432      0.725919     -0.198078
  C      -1.020659     -0.655081     -0.097874
  C      -0.136439      1.653114     -0.264110
  C       1.216755     -0.432292     -0.105660
  C      -3.132307     -0.339270     -0.130317
  H      -3.068278      1.792894     -0.283303
  H       1.915155      1.531965     -0.264764
  H      -4.203358     -0.492721     -0.124357
  H       2.609087     -1.922605      0.000845
  H       3.300654     -0.320495     -0.083707
27
Coordinates from ORCA-job methylurea_guanine_opt_freq E -806.738062734758
  O       4.608930     -4.169414      1.482853
  N       6.844825     -3.668617      1.352660
  N       5.274211     -2.065471      2.054129
  C       5.520212     -3.357708      1.633500
  H       7.578660     -3.190054      1.859007
  H       6.990268     -4.665203      1.250884
  H       4.277678     -1.901981      2.117798
  C       6.161372     -0.928651      1.853314
  H       6.338909     -0.703586      0.791104
  H       5.719136     -0.052127      2.333296
  H       7.131272     -1.094342      2.334558
  O      -0.149531      2.880167     -0.402376
  N      -2.596654      0.931757     -0.234266
  N       1.079712      0.934159     -0.224054
  N       0.172883     -1.255271     -0.025202
  N      -2.262398     -1.280168     -0.035536
  N       2.465990     -0.942211     -0.048961
  C      -1.229836      0.737856     -0.210626
  C      -1.045859     -0.642970     -0.087185
  C      -0.141748      1.653675     -0.290591
  C       1.193676     -0.441520     -0.096870
  C      -3.155039     -0.309639     -0.126196
  H      -3.071659      1.819290     -0.315749
  H       1.906856      1.515475     -0.291864
  H      -4.227242     -0.454570     -0.118477
  H       2.575479     -1.943193      0.028878
  H       3.279192     -0.351476     -0.072851
27
Coordinates from ORCA-job methylurea_guanine_opt_freq E -806.738262934941
  O       4.657171     -4.192095      1.446344
  N       6.883612     -3.637936      1.329024
  N       5.285001     -2.090464      2.077067
  C       5.549431     -3.366081      1.619102
  H       7.605826     -3.161694      1.853192
  H       7.052135     -4.623004      1.171222
  H       4.288998     -1.933201      2.151985
  C       6.154235     -0.937283      1.882616
  H       6.358455     -0.726785      0.822700
  H       5.674975     -0.064527      2.332885
  H       7.113495     -1.070016      2.395016
  O      -0.129672      2.874236     -0.450279
  N      -2.601003      0.954213     -0.248142
  N       1.076025      0.917556     -0.238273
  N       0.146293     -1.257597     -0.000435
  N      -2.288138     -1.256958     -0.011347
  N       2.442155     -0.968972     -0.028133
  C      -1.235939      0.747417     -0.222141
  C      -1.065240     -0.632795     -0.074156
  C      -0.138622      1.650013     -0.318355
  C       1.176188     -0.455284     -0.086409
  C      -3.171431     -0.279587     -0.118702
  H      -3.066434      1.845181     -0.345841
  H       1.905814      1.493674     -0.318931
  H      -4.244899     -0.414530     -0.108339
  H       2.547173     -1.969172      0.060224
  H       3.263692     -0.390099     -0.060715
27
Coordinates from ORCA-job methylurea_guanine_opt_freq E -806.738405190852
  O       4.688147     -4.202791      1.411859
  N       6.905350     -3.613083      1.306657
  N       5.291782     -2.107739      2.093747
  C       5.568549     -3.368763      1.603262
  H       7.622236     -3.134136      1.834142
  H       7.092207     -4.586679      1.108789
  H       4.296526     -1.956016      2.181347
  C       6.145888     -0.941304      1.906993
  H       6.375457     -0.745335      0.849940
  H       5.636060     -0.071671      2.328576
  H       7.092770     -1.046028      2.449109
  O      -0.110414      2.865910     -0.489170
  N      -2.600456      0.970770     -0.260381
  N       1.076702      0.901715     -0.246718
  N       0.127538     -1.261062      0.022318
  N      -2.306448     -1.239251      0.009459
  N       2.425684     -0.993181     -0.008670
  C      -1.237073      0.752876     -0.229358
  C      -1.078137     -0.626540     -0.061696
  C      -0.131742      1.644253     -0.336932
  C       1.164665     -0.469018     -0.075298
  C      -3.181343     -0.256116     -0.113140
  H      -3.057856      1.864184     -0.372576
  H       1.909589      1.471824     -0.338149
  H      -4.255921     -0.381831     -0.101672
  H       2.525895     -1.992854      0.088718
  H       3.253637     -0.423925     -0.049976
27
Coordinates from ORCA-job methylurea_guanine_opt_freq E -806.738612128701
  O       4.706639     -4.202226      1.366238
  N       6.913322     -3.582726      1.274124
  N       5.292074     -2.121766      2.111459
  C       5.579030     -3.364181      1.579637
  H       7.631150     -3.091491      1.787080
  H       7.121191     -4.540915      1.031927
  H       4.298189     -1.977208      2.219236
  C       6.129347     -0.940147      1.939137
  H       6.397214     -0.763949      0.888194
  H       5.582104     -0.074252      2.319135
  H       7.054639     -1.010031      2.524267
  O      -0.080415      2.850200     -0.533102
  N      -2.591229      0.987408     -0.270518
  N       1.085391      0.877865     -0.256107
  N       0.112070     -1.269497      0.048210
  N      -2.321751     -1.221260      0.034940
  N       2.413052     -1.026877      0.016435
  C      -1.230273      0.754489     -0.237945
  C      -1.086688     -0.623479     -0.046561
  C      -0.114808      1.631119     -0.362775
  C       1.157736     -0.490737     -0.061770
  C      -3.185587     -0.230465     -0.103395
  H      -3.038734      1.883749     -0.398099
  H       1.923453      1.438632     -0.357579
  H      -4.261565     -0.343410     -0.089292
  H       2.505915     -2.026059      0.125089
  H       3.247828     -0.468576     -0.036787
27
Coordinates from ORCA-job methylurea_guanine_opt_freq E -806.738790328546
  O       4.694542     -4.182961      1.331145
  N       6.896115     -3.559343      1.234275
  N       5.285818     -2.121836      2.123308
  C       5.570589     -3.349436      1.555797
  H       7.624836     -3.052913      1.714560
  H       7.113839     -4.506338      0.961786
  H       4.294049     -1.983445      2.255468
  C       6.113734     -0.930961      1.966442
  H       6.419018     -0.772526      0.923400
  H       5.538779     -0.066427      2.306314
  H       7.015536     -0.974039      2.591195
  O      -0.049526      2.830840     -0.566965
  N      -2.574608      0.994745     -0.283091
  N       1.100660      0.854153     -0.255529
  N       0.107602     -1.280594      0.076343
  N      -2.326410     -1.211659      0.056360
  N       2.410971     -1.058399      0.044168
  C      -1.216050      0.750215     -0.239712
  C      -1.085799     -0.626265     -0.029927
  C      -0.092134      1.615451     -0.371825
  C       1.159881     -0.513386     -0.043210
  C      -3.180560     -0.215113     -0.099667
  H      -3.014111      1.892640     -0.426462
  H       1.944670      1.404147     -0.365432
  H      -4.257666     -0.317109     -0.087629
  H       2.495661     -2.057267      0.162853
  H       3.249858     -0.507966     -0.022788
27
Coordinates from ORCA-job methylurea_guanine_opt_freq E -806.739003391304
  O       4.654445     -4.146180      1.305116
  N       6.856818     -3.538402      1.186905
  N       5.271607     -2.108662      2.132166
  C       5.543016     -3.324247      1.532846
  H       7.602809     -3.023809      1.629811
  H       7.071824     -4.478884      0.891737
  H       4.282491     -1.976484      2.289890
  C       6.098439     -0.914494      1.995173
  H       6.442733     -0.769664      0.962704
  H       5.504020     -0.048650      2.296054
  H       6.974469     -0.939948      2.657512
  O      -0.017403      2.809373     -0.589729
  N      -2.551258      0.994505     -0.287160
  N       1.122152      0.829552     -0.256368
  N       0.114239     -1.295856      0.095311
  N      -2.320120     -1.210617      0.073196
  N       2.419465     -1.087987      0.068863
  C      -1.194812      0.739494     -0.243384
  C      -1.075245     -0.635340     -0.018071
  C      -0.064460      1.594911     -0.387721
  C       1.171396     -0.537584     -0.029340
  C      -3.166513     -0.209061     -0.092876
  H      -2.984809      1.893834     -0.439372
  H       1.972564      1.369172     -0.367118
  H      -4.244470     -0.301744     -0.080111
  H       2.495775     -2.086669      0.196297
  H       3.260125     -0.542351     -0.011153
27
Coordinates from ORCA-job methylurea_guanine_opt_freq E -806.739348964360
  O       4.576923     -4.079302      1.278932
  N       6.784558     -3.507940      1.106749
  N       5.250849     -2.079199      2.142231
  C       5.489250     -3.279274      1.500399
  H       7.558566     -3.001279      1.508794
  H       6.979160     -4.442814      0.780916
  H       4.267174     -1.954745      2.339839
  C       6.084745     -0.887496      2.033767
  H       6.481116     -0.758149      1.018192
  H       5.474010     -0.016313      2.282790
  H       6.924955     -0.898169      2.741858
  O       0.027535      2.777251     -0.618510
  N      -2.516004      0.986201     -0.299626
  N       1.154525      0.795644     -0.250446
  N       0.129739     -1.318109      0.128015
  N      -2.304645     -1.215220      0.094705
  N       2.437047     -1.126422      0.109180
  C      -1.162185      0.721097     -0.243994
  C      -1.054917     -0.651232      0.001039
  C      -0.024646      1.566272     -0.395395
  C       1.192731     -0.570482     -0.003530
  C      -3.142066     -0.209376     -0.090248
  H      -2.942675      1.886097     -0.467099
  H       2.013265      1.321167     -0.363047
  H      -4.220863     -0.292392     -0.081423
  H       2.501951     -2.124716      0.248844
  H       3.279193     -0.586891      0.008245
27
Coordinates from ORCA-job methylurea_guanine_opt_freq E -806.740034788929
  O       4.429900     -3.949071      1.235650
  N       6.643922     -3.444254      0.957907
  N       5.215144     -2.022831      2.156422
  C       5.383413     -3.191774      1.442678
  H       7.463112     -2.982549      1.323234
  H       6.784968     -4.367609      0.575511
  H       4.245328     -1.909611      2.425035
  C       6.068344     -0.842627      2.100486
  H       6.550673     -0.735329      1.120393
  H       5.445009      0.040472      2.264552
  H       6.845069     -0.838916      2.877533
  O       0.105932      2.719905     -0.666724
  N      -2.453993      0.965035     -0.319986
  N       1.211814      0.736833     -0.241973
  N       0.162111     -1.356980      0.183222
  N      -2.271179     -1.227990      0.131714
  N       2.472058     -1.188177      0.181501
  C      -1.104047      0.685688     -0.248366
  C      -1.014410     -0.680993      0.032462
  C       0.043706      1.514547     -0.414874
  C       1.234294     -0.625167      0.040992
  C      -3.095594     -0.217560     -0.084728
  H      -2.870209      1.864886     -0.512064
  H       2.082279      1.242253     -0.354423
  H      -4.175338     -0.287563     -0.081384
  H       2.519914     -2.184869      0.341363
  H       3.317072     -0.661540      0.045046
27
Coordinates from ORCA-job methylurea_guanine_opt_freq E -806.740834970081
  O       4.289140     -3.817165      1.202899
  N       6.507885     -3.387450      0.829520
  N       5.187296     -1.964665      2.160384
  C       5.280722     -3.106386      1.395197
  H       7.365412     -3.012010      1.207008
  H       6.578168     -4.304026      0.410711
  H       4.233771     -1.858275      2.485695
  C       6.068589     -0.806180      2.151856
  H       6.607483     -0.710086      1.201641
  H       5.459353      0.095580      2.267284
  H       6.802625     -0.817377      2.967652
  O       0.163213      2.675016     -0.698480
  N      -2.405321      0.935937     -0.336652
  N       1.257741      0.694143     -0.234010
  N       0.197669     -1.387854      0.224469
  N      -2.234082     -1.248859      0.157232
  N       2.508504     -1.226769      0.238054
  C      -1.056929      0.652605     -0.251742
  C      -0.974207     -0.709145      0.055074
  C       0.094659      1.474291     -0.426141
  C       1.274639     -0.663100      0.075244
  C      -3.053224     -0.239278     -0.082588
  H      -2.816833      1.834055     -0.546034
  H       2.133813      1.190206     -0.343533
  H      -4.133181     -0.305778     -0.084111
  H       2.547766     -2.222758      0.411388
  H       3.354624     -0.710463      0.073163
27
Coordinates from ORCA-job methylurea_guanine_opt_freq E -806.741486316373
  O       4.175586     -3.688653      1.151965
  N       6.392338     -3.302800      0.700197
  N       5.171653     -1.918553      2.167854
  C       5.194162     -3.019781      1.344821
  H       7.270324     -3.055677      1.135224
  H       6.387363     -4.205291      0.243581
  H       4.238285     -1.818660      2.549424
  C       6.081345     -0.785441      2.206600
  H       6.665819     -0.702018      1.283149
  H       5.495230      0.135867      2.290178
  H       6.780012     -0.822862      3.050754
  O       0.216458      2.628290     -0.749269
  N      -2.367467      0.910724     -0.359106
  N       1.293535      0.650745     -0.234120
  N       0.220737     -1.413138      0.272185
  N      -2.208500     -1.260991      0.191601
  N       2.532258     -1.262966      0.296672
  C      -1.020420      0.623524     -0.261672
  C      -0.944869     -0.730522      0.080430
  C       0.135387      1.435086     -0.449710
  C       1.304383     -0.697096      0.110015
  C      -3.022009     -0.254214     -0.077213
  H      -2.772620      1.806132     -0.591165
  H       2.171956      1.142063     -0.346993
  H      -4.102128     -0.317625     -0.081157
  H       2.567425     -2.259121      0.484147
  H       3.383050     -0.762813      0.102786
27
Coordinates from ORCA-job methylurea_guanine_opt_freq E -806.741767504681
  O       4.246955     -3.729745      1.133120
  N       6.467288     -3.286786      0.730169
  N       5.191253     -1.933560      2.171703
  C       5.239193     -3.036514      1.353349
  H       7.304306     -3.115342      1.272873
  H       6.458009     -4.194191      0.280459
  H       4.254008     -1.829695      2.534497
  C       6.109552     -0.809799      2.200801
  H       6.648525     -0.722324      1.250716
  H       5.548288      0.119288      2.345506
  H       6.850430     -0.893602      3.003699
  O       0.184802      2.644872     -0.762853
  N      -2.403150      0.919277     -0.361600
  N       1.261141      0.667529     -0.251405
  N       0.196244     -1.396100      0.264104
  N      -2.231805     -1.249787      0.193519
  N       2.506694     -1.241223      0.277289
  C      -1.053724      0.638371     -0.270917
  C      -0.970105     -0.714677      0.074430
  C       0.097887      1.453106     -0.462637
  C       1.279331     -0.675501      0.095007
  C      -3.051052     -0.247385     -0.073125
  H      -2.810492      1.813838     -0.593094
  H       2.130424      1.173724     -0.372608
  H      -4.130726     -0.317793     -0.071042
  H       2.555998     -2.240555      0.461586
  H       3.360023     -0.741218      0.087634
27
Coordinates from ORCA-job methylurea_guanine_opt_freq E -806.742381400586
  O       4.225547     -3.717361      1.064674
  N       6.431545     -3.199924      0.681207
  N       5.147481     -1.942078      2.174277
  C       5.201193     -3.006014      1.305873
  H       7.272874     -2.974318      1.196960
  H       6.463069     -4.056487      0.142841
  H       4.231217     -1.825071      2.590193
  C       6.070935     -0.818830      2.227249
  H       6.664245     -0.771274      1.306941
  H       5.501803      0.111549      2.310678
  H       6.758859     -0.873479      3.082301
  O       0.257616      2.591543     -0.830205
  N      -2.366084      0.930119     -0.375652
  N       1.294543      0.611617     -0.255320
  N       0.190045     -1.413941      0.320363
  N      -2.235104     -1.223951      0.244875
  N       2.503137     -1.300791      0.333134
  C      -1.021867      0.626790     -0.276770
  C      -0.963251     -0.716136      0.109717
  C       0.145431      1.412074     -0.492582
  C       1.287209     -0.719197      0.129721
  C      -3.035261     -0.215050     -0.051903
  H      -2.755587      1.824620     -0.636252
  H       2.166642      1.108083     -0.397112
  H      -4.116128     -0.264357     -0.047605
  H       2.551684     -2.292887      0.533908
  H       3.367502     -0.831040      0.119668
27
Coordinates from ORCA-job methylurea_guanine_opt_freq E -806.742684264344
  O       4.194722     -3.677077      1.057735
  N       6.415043     -3.229759      0.686870
  N       5.148722     -1.925023      2.164685
  C       5.191333     -2.994277      1.302594
  H       7.260802     -3.026155      1.201213
  H       6.426556     -4.097253      0.168175
  H       4.233817     -1.806599      2.577461
  C       6.084539     -0.809920      2.226883
  H       6.669250     -0.750956      1.305342
  H       5.530130      0.127880      2.331681
  H       6.777685     -0.890738      3.074884
  O       0.242374      2.598666     -0.816922
  N      -2.368632      0.918468     -0.373708
  N       1.293645      0.623253     -0.250724
  N       0.201037     -1.412732      0.312088
  N      -2.225349     -1.238500      0.236458
  N       2.513258     -1.285855      0.326837
  C      -1.022707      0.622231     -0.274629
  C      -0.956590     -0.722596      0.104944
  C       0.140418      1.415916     -0.485603
  C       1.292803     -0.711002      0.126819
  C      -3.030984     -0.232604     -0.056671
  H      -2.764039      1.811578     -0.630002
  H       2.164863      1.122513     -0.386436
  H      -4.111628     -0.287445     -0.054065
  H       2.566484     -2.278039      0.522618
  H       3.371742     -0.809766      0.112652
27
Coordinates from ORCA-job methylurea_guanine_opt_freq E -806.742868552618
  O       4.202225     -3.659254      1.039915
  N       6.434492     -3.250909      0.707776
  N       5.161634     -1.923480      2.161271
  C       5.208370     -2.994268      1.301900
  H       7.276310     -3.059935      1.232890
  H       6.444259     -4.123500      0.198072
  H       4.245191     -1.802539      2.566889
  C       6.109826     -0.816498      2.229669
  H       6.677845     -0.745679      1.299766
  H       5.569375      0.125020      2.367136
  H       6.814987     -0.926484      3.064004
  O       0.217717      2.605666     -0.820772
  N      -2.384965      0.917319     -0.375914
  N       1.278543      0.635003     -0.254955
  N       0.192670     -1.404971      0.307412
  N      -2.235226     -1.239574      0.234077
  N       2.504903     -1.270500      0.318976
  C      -1.038190      0.624768     -0.277630
  C      -0.968137     -0.719917      0.101917
  C       0.122772      1.421935     -0.489377
  C       1.281327     -0.700583      0.121530
  C      -3.043700     -0.235803     -0.058554
  H      -2.783754      1.808813     -0.632522
  H       2.148778      1.135769     -0.390666
  H      -4.124273     -0.292634     -0.055649
  H       2.565669     -2.264220      0.511534
  H       3.360645     -0.789335      0.102484
27
Coordinates from ORCA-job methylurea_guanine_opt_freq E -806.743229446392
  O       4.189216     -3.595755      0.989488
  N       6.439802     -3.259503      0.716729
  N       5.176683     -1.907181      2.154304
  C       5.213295     -2.968635      1.284608
  H       7.274645     -3.113901      1.268101
  H       6.433247     -4.130939      0.204139
  H       4.264915     -1.774905      2.563915
  C       6.163792     -0.833738      2.254711
  H       6.712322     -0.741726      1.315918
  H       5.662759      0.117956      2.453813
  H       6.879859     -1.015248      3.066663
  O       0.186885      2.601641     -0.852704
  N      -2.405990      0.908442     -0.387423
  N       1.259041      0.642745     -0.267495
  N       0.181485     -1.395948      0.316013
  N      -2.248318     -1.241550      0.245132
  N       2.494094     -1.250874      0.323072
  C      -1.058153      0.621451     -0.287937
  C      -0.983081     -0.718922      0.105768
  C       0.100100      1.420294     -0.508759
  C       1.267118     -0.690614      0.121540
  C      -3.060287     -0.243664     -0.057212
  H      -2.808751      1.795183     -0.654010
  H       2.127058      1.145756     -0.408428
  H      -4.140776     -0.302704     -0.052787
  H       2.572740     -2.245264      0.514195
  H       3.345592     -0.768190      0.089825
27
Coordinates from ORCA-job methylurea_guanine_opt_freq E -806.743679698770
  O       4.199458     -3.554286      0.952879
  N       6.465823     -3.290436      0.757764
  N       5.201144     -1.891412      2.143697
  C       5.234460     -2.957824      1.280968
  H       7.293482     -3.157535      1.323806
  H       6.456216     -4.163708      0.247911
  H       4.289208     -1.735022      2.543152
  C       6.240717     -0.871529      2.278882
  H       6.748465     -0.736868      1.321675
  H       5.795412      0.080709      2.577624
  H       6.981573     -1.151034      3.039420
  O       0.128225      2.609563     -0.887587
  N      -2.445605      0.899370     -0.400161
  N       1.221682      0.667193     -0.286671
  N       0.162847     -1.375768      0.317158
  N      -2.269414     -1.243467      0.251551
  N       2.475252     -1.208872      0.316437
  C      -1.095524      0.624132     -0.301547
  C      -1.008826     -0.711810      0.104273
  C       0.055962      1.430124     -0.532115
  C       1.242028     -0.664370      0.113736
  C      -3.089915     -0.255038     -0.058066
  H      -2.856867      1.779415     -0.675791
  H       2.085305      1.175780     -0.434075
  H      -4.169992     -0.321166     -0.050982
  H       2.580200     -2.202928      0.503104
  H       3.317979     -0.719005      0.064136
27
Coordinates from ORCA-job methylurea_guanine_opt_freq E -806.744441049377
  O       4.180151     -3.460184      0.910646
  N       6.458105     -3.294002      0.759036
  N       5.239115     -1.857195      2.139066
  C       5.235370     -2.913760      1.265783
  H       7.289435     -3.192981      1.326934
  H       6.423699     -4.159429      0.236580
  H       4.336772     -1.664320      2.544307
  C       6.353299     -0.933224      2.340974
  H       6.836510     -0.735572      1.380446
  H       5.981018      0.006574      2.752981
  H       7.097376     -1.338721      3.040200
  O       0.068274      2.598049     -0.966957
  N      -2.486754      0.879746     -0.429244
  N       1.181581      0.682156     -0.318975
  N       0.141859     -1.353780      0.340933
  N      -2.292094     -1.243814      0.277221
  N       2.454223     -1.162668      0.334091
  C      -1.134660      0.618119     -0.327003
  C      -1.036167     -0.705711      0.113610
  C       0.009775      1.427117     -0.580829
  C       1.215356     -0.639971      0.116508
  C      -3.121293     -0.270603     -0.055971
  H      -2.906363      1.747825     -0.729157
  H       2.041852      1.192617     -0.478922
  H      -4.200842     -0.344304     -0.045162
  H       2.588232     -2.154040      0.524705
  H       3.285467     -0.673718      0.039378
27
Coordinates from ORCA-job methylurea_guanine_opt_freq E -806.745358000246
  O       4.161637     -3.394807      0.916226
  N       6.441579     -3.296804      0.749842
  N       5.283869     -1.824796      2.139793
  C       5.232491     -2.878991      1.265474
  H       7.293162     -3.189060      1.284707
  H       6.383018     -4.156467      0.220541
  H       4.391746     -1.587621      2.546944
  C       6.460402     -1.007842      2.402725
  H       6.936679     -0.738313      1.453941
  H       6.147425     -0.095221      2.912070
  H       7.195216     -1.518501      3.041400
  O       0.008816      2.588150     -1.047872
  N      -2.526724      0.858089     -0.459601
  N       1.142074      0.700295     -0.353235
  N       0.125498     -1.328315      0.363732
  N      -2.308858     -1.243892      0.301420
  N       2.436859     -1.108977      0.354140
  C      -1.172163      0.613217     -0.353673
  C      -1.058957     -0.697276      0.121006
  C      -0.036812      1.427317     -0.631307
  C       1.191900     -0.609325      0.118759
  C      -3.149103     -0.288739     -0.055687
  H      -2.955974      1.712996     -0.782879
  H       1.999097      1.212859     -0.523826
  H      -4.227715     -0.373815     -0.040489
  H       2.589997     -2.095689      0.552904
  H       3.254138     -0.624263      0.014125
27
Coordinates from ORCA-job methylurea_guanine_opt_freq E -806.745942273152
  O       4.125546     -3.320324      0.938575
  N       6.400381     -3.282845      0.707558
  N       5.326967     -1.794761      2.147572
  C       5.215908     -2.836244      1.263024
  H       7.277567     -3.174868      1.196808
  H       6.304203     -4.133308      0.170277
  H       4.451886     -1.518941      2.565365
  C       6.546330     -1.073026      2.463846
  H       7.047519     -0.752973      1.543535
  H       6.273640     -0.179787      3.028737
  H       7.250692     -1.657816      3.072911
  O      -0.029199      2.569043     -1.126777
  N      -2.551422      0.833234     -0.490259
  N       1.117590      0.708431     -0.381898
  N       0.119388     -1.308353      0.391649
  N      -2.314517     -1.245181      0.327320
  N       2.429250     -1.066118      0.383820
  C      -1.194729      0.603272     -0.378419
  C      -1.069545     -0.692478      0.131832
  C      -0.066912      1.420035     -0.679295
  C       1.179546     -0.585629      0.127278
  C      -3.163695     -0.307429     -0.054534
  H      -2.987903      1.675235     -0.836894
  H       1.972133      1.222806     -0.559614
  H      -4.241318     -0.403035     -0.035524
  H       2.584652     -2.048486      0.595507
  H       3.235338     -0.596246     -0.001220
27
Coordinates from ORCA-job methylurea_guanine_opt_freq E -806.746266112260
  O       4.133319     -3.297271      0.974310
  N       6.404847     -3.317700      0.728253
  N       5.375951     -1.774611      2.145145
  C       5.234211     -2.831424      1.282155
  H       7.294978     -3.188493      1.185408
  H       6.288800     -4.177999      0.212428
  H       4.504816     -1.457913      2.549077
  C       6.628877     -1.132581      2.489776
  H       7.130983     -0.755693      1.590529
  H       6.402491     -0.276792      3.128799
  H       7.318163     -1.787944      3.041260
  O      -0.097125      2.581631     -1.165925
  N      -2.593725      0.813016     -0.510406
  N       1.076816      0.744877     -0.403703
  N       0.110598     -1.278988      0.390577
  N      -2.323661     -1.252996      0.328194
  N       2.416727     -0.999943      0.384508
  C      -1.233402      0.605184     -0.397521
  C      -1.087626     -0.683139      0.125525
  C      -0.118784      1.437042     -0.707604
  C       1.158449     -0.541147      0.118561
  C      -3.187775     -0.332749     -0.063041
  H      -3.043011      1.645121     -0.864535
  H       1.923660      1.272350     -0.580184
  H      -4.263623     -0.446041     -0.041328
  H       2.576701     -1.980664      0.600740
  H       3.207640     -0.530924     -0.029819
27
Coordinates from ORCA-job methylurea_guanine_opt_freq E -806.746559416429
  O       4.117889     -3.237826      0.976395
  N       6.384583     -3.321330      0.711106
  N       5.408867     -1.757953      2.147446
  C       5.234243     -2.804913      1.277518
  H       7.284276     -3.205487      1.151986
  H       6.241491     -4.178157      0.196798
  H       4.550494     -1.419739      2.557092
  C       6.683237     -1.166421      2.518455
  H       7.215617     -0.776704      1.642598
  H       6.482952     -0.320801      3.180179
  H       7.338180     -1.861970      3.061522
  O      -0.126804      2.574917     -1.203033
  N      -2.612177      0.795438     -0.529138
  N       1.059213      0.756715     -0.415118
  N       0.107021     -1.263812      0.403318
  N      -2.327413     -1.256874      0.338273
  N       2.411163     -0.967624      0.399484
  C      -1.250165      0.599512     -0.411323
  C      -1.095308     -0.680490      0.129516
  C      -0.141611      1.436191     -0.730466
  C       1.149020     -0.520843      0.123379
  C      -3.197813     -0.348607     -0.066883
  H      -3.066818      1.619897     -0.894095
  H       1.901278      1.291854     -0.591381
  H      -4.272751     -0.470368     -0.044784
  H       2.565433     -1.947377      0.623222
  H       3.195200     -0.513020     -0.040888
27
Coordinates from ORCA-job methylurea_guanine_opt_freq E -806.746789141153
  O       4.113704     -3.162153      0.971252
  N       6.375190     -3.347244      0.720931
  N       5.456370     -1.732610      2.142463
  C       5.247461     -2.777332      1.277276
  H       7.278626     -3.257969      1.160349
  H       6.198766     -4.204290      0.217466
  H       4.611600     -1.362563      2.549910
  C       6.754612     -1.210976      2.543387
  H       7.311661     -0.799417      1.692896
  H       6.596705     -0.396359      3.253923
  H       7.369350     -1.967774      3.049034
  O      -0.181842      2.578892     -1.237076
  N      -2.644441      0.770437     -0.549836
  N       1.028068      0.785880     -0.428286
  N       0.103098     -1.238907      0.408773
  N      -2.331426     -1.267337      0.342214
  N       2.403388     -0.910959      0.406521
  C      -1.279537      0.595455     -0.427912
  C      -1.107138     -0.675858      0.128628
  C      -0.182802      1.444646     -0.753646
  C       1.134558     -0.483936      0.122348
  C      -3.213918     -0.375764     -0.073505
  H      -3.109627      1.585093     -0.923372
  H       1.859655      1.338132     -0.601762
  H      -4.287041     -0.512833     -0.050829
  H       2.556448     -1.890247      0.635981
  H       3.177806     -0.469801     -0.065950
27
Coordinates from ORCA-job methylurea_guanine_opt_freq E -806.746923484744
  O       4.135864     -3.126619      0.967426
  N       6.393558     -3.363292      0.725493
  N       5.504582     -1.734206      2.151554
  C       5.277636     -2.770254      1.280077
  H       7.295182     -3.298381      1.173093
  H       6.199012     -4.217136      0.223171
  H       4.666801     -1.350483      2.558065
  C       6.812303     -1.240132      2.558874
  H       7.389121     -0.830252      1.720444
  H       6.667321     -0.433810      3.281330
  H       7.404936     -2.016773      3.061011
  O      -0.221476      2.584006     -1.260942
  N      -2.674601      0.762423     -0.568901
  N       0.998045      0.805080     -0.436241
  N       0.084807     -1.219675      0.411922
  N      -2.349425     -1.265321      0.341426
  N       2.383194     -0.876586      0.414920
  C      -1.308608      0.598140     -0.442525
  C      -1.128666     -0.667442      0.125234
  C      -0.217300      1.452772     -0.770478
  C       1.111917     -0.459702      0.122755
  C      -3.236958     -0.383818     -0.084698
  H      -3.144121      1.571990     -0.948043
  H       1.823641      1.367354     -0.606411
  H      -4.309129     -0.528498     -0.063514
  H       2.527355     -1.855017      0.651326
  H       3.154306     -0.450161     -0.075187
27
Coordinates from ORCA-job methylurea_guanine_opt_freq E -806.747060085153
  O       4.154841     -3.075278      0.954471
  N       6.407359     -3.380425      0.736974
  N       5.552106     -1.727928      2.156073
  C       5.303724     -2.755180      1.281158
  H       7.300995     -3.355528      1.204945
  H       6.189867     -4.227965      0.232908
  H       4.721423     -1.326342      2.561255
  C       6.868402     -1.271451      2.575716
  H       7.455687     -0.859445      1.745407
  H       6.743611     -0.482572      3.320711
  H       7.442070     -2.076227      3.056042
  O      -0.264001      2.589232     -1.283695
  N      -2.703745      0.750167     -0.586350
  N       0.968353      0.826358     -0.444736
  N       0.070951     -1.200297      0.413731
  N      -2.362687     -1.267242      0.340589
  N       2.366929     -0.837007      0.421310
  C      -1.336616      0.598960     -0.456616
  C      -1.146698     -0.660587      0.121695
  C      -0.252179      1.460857     -0.786565
  C       1.092643     -0.433652      0.122201
  C      -3.257041     -0.396647     -0.093301
  H      -3.179286      1.553792     -0.970641
  H       1.787104      1.399520     -0.612238
  H      -4.327976     -0.550297     -0.072779
  H       2.509465     -1.814591      0.662867
  H       3.133997     -0.426018     -0.089952
27
Coordinates from ORCA-job methylurea_guanine_opt_freq E -806.747226183227
  O       4.185725     -3.026303      0.937712
  N       6.432371     -3.387775      0.736697
  N       5.608043     -1.736339      2.172411
  C       5.339144     -2.742571      1.280394
  H       7.315087     -3.410301      1.225688
  H       6.195160     -4.220486      0.216716
  H       4.784229     -1.322459      2.581075
  C       6.927742     -1.302551      2.599189
  H       7.526987     -0.906717      1.769564
  H       6.810384     -0.511483      3.342703
  H       7.488164     -2.115749      3.082548
  O      -0.301595      2.589854     -1.313294
  N      -2.734592      0.744755     -0.607585
  N       0.936259      0.841069     -0.453967
  N       0.046395     -1.181785      0.419524
  N      -2.386569     -1.260963      0.341431
  N       2.341088     -0.805469      0.434687
  C      -1.367370      0.601605     -0.473094
  C      -1.173059     -0.650763      0.119313
  C      -0.285869      1.465766     -0.806360
  C       1.065659     -0.413182      0.124927
  C      -3.284012     -0.399151     -0.103340
  H      -3.213014      1.543063     -0.999394
  H       1.751973      1.419226     -0.619558
  H      -4.354305     -0.557260     -0.084218
  H       2.477799     -1.781077      0.684624
  H       3.107470     -0.418746     -0.097213
27
Coordinates from ORCA-job methylurea_guanine_opt_freq E -806.747378163121
  O       4.216689     -2.961001      0.919683
  N       6.454001     -3.385807      0.730647
  N       5.668887     -1.741225      2.191221
  C       5.374362     -2.719553      1.277581
  H       7.329399     -3.450951      1.229012
  H       6.198086     -4.197745      0.187245
  H       4.856342     -1.310120      2.604068
  C       6.995952     -1.348674      2.634177
  H       7.609443     -0.968289      1.808311
  H       6.891560     -0.555928      3.377388
  H       7.535583     -2.176368      3.117775
  O      -0.341924      2.581907     -1.359913
  N      -2.767457      0.737299     -0.632965
  N       0.901503      0.853091     -0.468512
  N       0.018354     -1.160033      0.433642
  N      -2.414137     -1.250492      0.351011
  N       2.311800     -0.769567      0.454864
  C      -1.400464      0.602053     -0.492480
  C      -1.202830     -0.639007      0.121632
  C      -0.321038      1.466010     -0.835280
  C       1.034743     -0.391536      0.130883
  C      -3.314009     -0.400402     -0.111203
  H      -3.248521      1.527231     -1.038337
  H       1.716748      1.431605     -0.635222
  H      -4.383759     -0.562041     -0.092866
  H       2.447086     -1.742271      0.714715
  H       3.072898     -0.413979     -0.105896
27
Coordinates from ORCA-job methylurea_guanine_opt_freq E -806.747477492300
  O       4.237901     -2.904812      0.907837
  N       6.465336     -3.381677      0.719894
  N       5.715178     -1.746935      2.207986
  C       5.399266     -2.699414      1.274413
  H       7.339878     -3.472727      1.215486
  H       6.195830     -4.173625      0.154108
  H       4.912327     -1.299562      2.625954
  C       7.046727     -1.387657      2.664782
  H       7.676857     -1.030143      1.840916
  H       6.953810     -0.582754      3.396459
  H       7.561681     -2.222433      3.162092
  O      -0.371845      2.572122     -1.399685
  N      -2.790737      0.729895     -0.653531
  N       0.876469      0.861200     -0.479761
  N      -0.001954     -1.142598      0.448505
  N      -2.434442     -1.242276      0.360335
  N       2.291166     -0.740611      0.472884
  C      -1.424113      0.600823     -0.507006
  C      -1.224719     -0.629911      0.125998
  C      -0.346010      1.464089     -0.859143
  C       1.011596     -0.374501      0.137717
  C      -3.335754     -0.401399     -0.115863
  H      -3.273561      1.512066     -1.071703
  H       1.692928      1.437803     -0.647034
  H      -4.405118     -0.565515     -0.098258
  H       2.423181     -1.711205      0.741571
  H       3.047418     -0.414033     -0.113775
27
Coordinates from ORCA-job methylurea_guanine_opt_freq E -806.747518879045
  O       4.262581     -2.832104      0.895620
  N       6.475565     -3.373363      0.710926
  N       5.767144     -1.742838      2.223480
  C       5.427557     -2.668637      1.271561
  H       7.348307     -3.490432      1.203779
  H       6.188307     -4.146789      0.128871
  H       4.977479     -1.276915      2.641681
  C       7.109259     -1.440388      2.698485
  H       7.760160     -1.095743      1.885491
  H       7.038957     -0.637311      3.434591
  H       7.586091     -2.298318      3.193867
  O      -0.408403      2.558292     -1.450007
  N      -2.818428      0.718478     -0.677111
  N       0.847010      0.870965     -0.495204
  N      -0.024229     -1.120376      0.467295
  N      -2.456505     -1.232679      0.374957
  N       2.267822     -0.703765      0.493020
  C      -1.451810      0.598022     -0.524176
  C      -1.248988     -0.619449      0.132170
  C      -0.376610      1.460597     -0.889341
  C       0.985420     -0.352835      0.144787
  C      -3.360079     -0.405557     -0.120816
  H      -3.303756      1.490190     -1.111505
  H       1.663208      1.447211     -0.664572
  H      -4.428756     -0.574094     -0.103471
  H       2.400642     -1.671408      0.770646
  H       3.011348     -0.406544     -0.123846
27
Coordinates from ORCA-job methylurea_guanine_opt_freq E -806.747562692264
  O       4.269765     -2.812485      0.884757
  N       6.479122     -3.370704      0.704367
  N       5.776039     -1.748133      2.229784
  C       5.434742     -2.662393      1.267058
  H       7.350836     -3.493630      1.197518
  H       6.189396     -4.135684      0.112581
  H       4.987781     -1.276958      2.649595
  C       7.115527     -1.451718      2.711039
  H       7.771925     -1.125773      1.894563
  H       7.050689     -0.635035      3.432808
  H       7.577841     -2.307321      3.222819
  O      -0.416596      2.553337     -1.463703
  N      -2.822813      0.715567     -0.679413
  N       0.842340      0.872898     -0.500094
  N      -0.026353     -1.114576      0.473880
  N      -2.459016     -1.229913      0.382688
  N       2.266396     -0.694805      0.494368
  C      -1.456056      0.596945     -0.525855
  C      -1.252168     -0.616820      0.136464
  C      -0.382023      1.459074     -0.896853
  C       0.981490     -0.347480      0.145971
  C      -3.363335     -0.406358     -0.117727
  H      -3.308968      1.483989     -1.118679
  H       1.659492      1.447151     -0.671364
  H      -4.431841     -0.575891     -0.099319
  H       2.396599     -1.662626      0.774288
  H       3.008483     -0.406448     -0.130363
27
Coordinates from ORCA-job methylurea_guanine_opt_freq E -806.747589701952
  O       4.279965     -2.792604      0.873630
  N       6.486013     -3.365753      0.699867
  N       5.786265     -1.750028      2.235115
  C       5.444193     -2.654012      1.263144
  H       7.353120     -3.498768      1.198531
  H       6.192178     -4.125268      0.103074
  H       4.998927     -1.275768      2.653244
  C       7.125975     -1.465782      2.723058
  H       7.789532     -1.149749      1.908672
  H       7.067164     -0.645330      3.441150
  H       7.574002     -2.325458      3.240659
  O      -0.426534      2.548376     -1.479621
  N      -2.829587      0.712259     -0.682208
  N       0.835580      0.875056     -0.507374
  N      -0.029780     -1.107776      0.479114
  N      -2.462456     -1.227138      0.389826
  N       2.262937     -0.685263      0.494381
  C      -1.462461      0.596234     -0.528892
  C      -1.256576     -0.613460      0.140187
  C      -0.390228      1.457542     -0.906482
  C       0.976693     -0.341351      0.145409
  C      -3.368271     -0.406431     -0.112551
  H      -3.316747      1.477036     -1.126689
  H       1.651916      1.449432     -0.682116
  H      -4.436529     -0.577302     -0.091761
  H       2.392037     -1.652575      0.776405
  H       3.001964     -0.401911     -0.136588
27
Coordinates from ORCA-job methylurea_guanine_opt_freq E -806.747651276884
  O       4.304489     -2.750260      0.835241
  N       6.505833     -3.348109      0.688877
  N       5.796775     -1.755985      2.246612
  C       5.463376     -2.634394      1.249230
  H       7.355707     -3.507909      1.209190
  H       6.206579     -4.095449      0.079367
  H       5.006906     -1.278904      2.656632
  C       7.133713     -1.495854      2.754523
  H       7.814841     -1.206003      1.945708
  H       7.086006     -0.665420      3.462004
  H       7.548328     -2.362618      3.288379
  O      -0.446722      2.534679     -1.518324
  N      -2.841533      0.706005     -0.676974
  N       0.824843      0.877014     -0.531387
  N      -0.029986     -1.092910      0.489100
  N      -2.462979     -1.218448      0.417645
  N       2.262466     -0.667576      0.481596
  C      -1.472769      0.594621     -0.531652
  C      -1.259818     -0.606022      0.151688
  C      -0.406113      1.452417     -0.929762
  C       0.973022     -0.329590      0.137080
  C      -3.373653     -0.406780     -0.090571
  H      -3.332218      1.462688     -1.131314
  H       1.637908      1.451276     -0.721265
  H      -4.441204     -0.580661     -0.059805
  H       2.389687     -1.634057      0.767357
  H       2.995813     -0.387543     -0.157997
27
Coordinates from ORCA-job methylurea_guanine_opt_freq E -806.747698082209
  O       4.323708     -2.719310      0.800548
  N       6.522416     -3.332471      0.682395
  N       5.798430     -1.761908      2.255450
  C       5.476010     -2.619622      1.237103
  H       7.357513     -3.514072      1.219447
  H       6.223864     -4.068331      0.058588
  H       5.004990     -1.284157      2.656891
  C       7.131735     -1.518752      2.781155
  H       7.827581     -1.249849      1.978276
  H       7.088355     -0.680109      3.479073
  H       7.524445     -2.387390      3.328877
  O      -0.461860      2.523585     -1.548141
  N      -2.849150      0.701512     -0.668136
  N       0.818348      0.877200     -0.554040
  N      -0.026382     -1.082182      0.493900
  N      -2.459382     -1.212055      0.441421
  N       2.265076     -0.656001      0.464772
  C      -1.478980      0.593431     -0.532345
  C      -1.259061     -0.600388      0.161059
  C      -0.416891      1.447670     -0.948397
  C       0.973509     -0.321720      0.126254
  C      -3.375139     -0.405476     -0.065840
  H      -3.343670      1.451795     -1.128894
  H       1.628395      1.450484     -0.759224
  H      -4.442111     -0.580685     -0.024299
  H       2.392603     -1.621333      0.753439
  H       2.994943     -0.375657     -0.178152
27
Coordinates from ORCA-job methylurea_guanine_opt_freq E -806.747760773238
  O       4.344374     -2.680703      0.751283
  N       6.538311     -3.316500      0.680462
  N       5.790066     -1.767841      2.263708
  C       5.485327     -2.601664      1.220493
  H       7.354190     -3.524628      1.237248
  H       6.246329     -4.035581      0.034169
  H       4.990977     -1.287481      2.650061
  C       7.115934     -1.546375      2.816510
  H       7.832715     -1.304474      2.024113
  H       7.075499     -0.698052      3.502712
  H       7.482300     -2.415703      3.381653
  O      -0.483675      2.511196     -1.582751
  N      -2.855298      0.693896     -0.646943
  N       0.813402      0.879189     -0.587995
  N      -0.011443     -1.069096      0.494574
  N      -2.444081     -1.206617      0.477111
  N       2.277079     -0.639364      0.430592
  C      -1.482940      0.591164     -0.529836
  C      -1.249567     -0.594761      0.173194
  C      -0.429004      1.442584     -0.970724
  C       0.981933     -0.310595      0.104684
  C      -3.369318     -0.408698     -0.026757
  H      -3.357994      1.436594     -1.111143
  H       1.617707      1.451874     -0.816327
  H      -4.435006     -0.586835      0.031705
  H       2.407974     -1.602730      0.722996
  H       3.003504     -0.354588     -0.213614
27
Coordinates from ORCA-job methylurea_guanine_opt_freq E -806.747823107592
  O       4.357861     -2.650337      0.712614
  N       6.544181     -3.313612      0.687340
  N       5.780149     -1.769915      2.267015
  C       5.488110     -2.589764      1.208747
  H       7.345911     -3.540978      1.256904
  H       6.260993     -4.018085      0.021347
  H       4.977791     -1.283112      2.637963
  C       7.098533     -1.567524      2.843421
  H       7.833502     -1.343381      2.062633
  H       7.058562     -0.714913      3.524228
  H       7.445925     -2.438051      3.418894
  O      -0.506810      2.505720     -1.604643
  N      -2.859035      0.684254     -0.625999
  N       0.809541      0.885797     -0.616606
  N       0.007496     -1.058466      0.489231
  N      -2.424119     -1.207121      0.504525
  N       2.291825     -0.620147      0.394981
  C      -1.484912      0.588620     -0.526722
  C      -1.236607     -0.591932      0.180556
  C      -0.439781      1.441279     -0.986309
  C       0.992790     -0.298042      0.082252
  C      -3.359731     -0.416889      0.007703
  H      -3.371441      1.421308     -1.088586
  H       1.607458      1.459892     -0.863201
  H      -4.423796     -0.599044      0.081172
  H       2.429765     -1.580911      0.691361
  H       3.015135     -0.330438     -0.249641
27
Coordinates from ORCA-job methylurea_guanine_opt_freq E -806.747897452712
  O       4.366226     -2.623970      0.677908
  N       6.540587     -3.323945      0.702566
  N       5.768302     -1.768691      2.265492
  C       5.485361     -2.582520      1.199323
  H       7.329552     -3.566221      1.283409
  H       6.267209     -4.016221      0.020028
  H       4.965148     -1.269515      2.618222
  C       7.077603     -1.585758      2.866188
  H       7.831240     -1.372978      2.099853
  H       7.036447     -0.733296      3.547093
  H       7.407025     -2.459613      3.447312
  O      -0.536166      2.506323     -1.618135
  N      -2.861099      0.670167     -0.601687
  N       0.805824      0.899358     -0.644321
  N       0.033958     -1.047491      0.478124
  N      -2.395748     -1.214031      0.528755
  N       2.312232     -0.593005      0.351845
  C      -1.485261      0.585179     -0.522231
  C      -1.217764     -0.591109      0.185263
  C      -0.451883      1.444086     -0.997776
  C       1.007894     -0.280685      0.055540
  C      -3.344407     -0.433242      0.041951
  H      -3.386356      1.402509     -1.057263
  H       1.595501      1.477882     -0.906677
  H      -4.406101     -0.622424      0.130284
  H       2.462355     -1.550080      0.653586
  H       3.031619     -0.296503     -0.293472
27
Coordinates from ORCA-job methylurea_guanine_opt_freq E -806.748003933062
  O       4.376445     -2.584542      0.635623
  N       6.526953     -3.348171      0.727837
  N       5.757248     -1.764285      2.260952
  C       5.480317     -2.573801      1.188955
  H       7.298326     -3.608138      1.324010
  H       6.263192     -4.027453      0.028936
  H       4.958503     -1.240317      2.586996
  C       7.053686     -1.614799      2.895410
  H       7.833973     -1.412063      2.152752
  H       7.012385     -0.767763      3.583114
  H       7.352891     -2.498251      3.478438
  O      -0.586233      2.509381     -1.635672
  N      -2.864620      0.643786     -0.570428
  N       0.797256      0.925837     -0.681982
  N       0.074538     -1.028187      0.461217
  N      -2.351051     -1.227790      0.560240
  N       2.342189     -0.542024      0.290265
  C      -1.486784      0.578624     -0.517242
  C      -1.188938     -0.590287      0.190184
  C      -0.473471      1.450478     -1.013795
  C       1.029134     -0.248736      0.017730
  C      -3.319910     -0.463450      0.087613
  H      -3.410096      1.368126     -1.014862
  H       1.573789      1.513543     -0.962550
  H      -4.377282     -0.665886      0.196064
  H       2.514161     -1.492524      0.601791
  H       3.052694     -0.237101     -0.360421
27
Coordinates from ORCA-job methylurea_guanine_opt_freq E -806.748168587259
  O       4.379197     -2.553365      0.592313
  N       6.499597     -3.385667      0.757808
  N       5.738475     -1.760922      2.249719
  C       5.466162     -2.572667      1.177546
  H       7.250480     -3.658464      1.373778
  H       6.243760     -4.059243      0.050738
  H       4.948930     -1.205018      2.545229
  C       7.016566     -1.640297      2.921610
  H       7.823117     -1.439834      2.206326
  H       6.968670     -0.802294      3.620034
  H       7.284769     -2.534543      3.503259
  O      -0.644961      2.515632     -1.647201
  N      -2.861670      0.607594     -0.532066
  N       0.790646      0.961984     -0.721216
  N       0.130958     -1.004952      0.439535
  N      -2.287636     -1.249878      0.592978
  N       2.383334     -0.475707      0.215528
  C      -1.482236      0.569139     -0.508667
  C      -1.146427     -0.591278      0.195356
  C      -0.496089      1.460102     -1.026935
  C       1.060029     -0.207585     -0.026091
  C      -3.281098     -0.505903      0.139783
  H      -3.431974      1.322560     -0.960146
  H       1.550305      1.562922     -1.019291
  H      -4.332187     -0.727046      0.270574
  H       2.585878     -1.416859      0.539552
  H       3.082700     -0.154200     -0.438873
27
Coordinates from ORCA-job methylurea_guanine_opt_freq E -806.748389974420
  O       4.379196     -2.521307      0.566638
  N       6.470579     -3.416082      0.776001
  N       5.733018     -1.757651      2.241156
  C       5.455384     -2.569162      1.170614
  H       7.204875     -3.697746      1.407708
  H       6.209005     -4.090504      0.071967
  H       4.959409     -1.169725      2.514370
  C       6.998458     -1.668789      2.943285
  H       7.827556     -1.461773      2.255529
  H       6.944794     -0.844200      3.657283
  H       7.233881     -2.577912      3.515460
  O      -0.698300      2.514587     -1.665650
  N      -2.860328      0.572528     -0.508394
  N       0.781167      0.993724     -0.752717
  N       0.175283     -0.980196      0.427724
  N      -2.236352     -1.266295      0.620830
  N       2.413666     -0.410980      0.161627
  C      -1.480188      0.558885     -0.505005
  C      -1.113155     -0.590315      0.201155
  C      -0.518808      1.465511     -1.042628
  C       1.081983     -0.168534     -0.056961
  C      -3.249554     -0.543155      0.178134
  H      -3.450605      1.276982     -0.926644
  H       1.527206      1.605941     -1.061815
  H      -4.294651     -0.781558      0.325721
  H       2.648760     -1.341076      0.499004
  H       3.097018     -0.076989     -0.503211
27
Coordinates from ORCA-job methylurea_guanine_opt_freq E -806.748625206762
  O       4.379851     -2.490057      0.533132
  N       6.445701     -3.435077      0.779576
  N       5.717321     -1.761255      2.233614
  C       5.443857     -2.564667      1.157807
  H       7.153835     -3.730207      1.435004
  H       6.170212     -4.113165      0.084198
  H       4.958426     -1.145444      2.486488
  C       6.965645     -1.697693      2.969821
  H       7.813026     -1.484782      2.306792
  H       6.902713     -0.885579      3.697341
  H       7.166771     -2.621423      3.530561
  O      -0.747876      2.502427     -1.696069
  N      -2.852242      0.534198     -0.480633
  N       0.775744      1.021199     -0.789186
  N       0.226772     -0.950716      0.423655
  N      -2.175964     -1.279294      0.659398
  N       2.449039     -0.343668      0.108379
  C      -1.471670      0.546439     -0.498414
  C      -1.072080     -0.587348      0.214670
  C      -0.538714      1.464718     -1.063664
  C       1.110075     -0.128449     -0.086108
  C      -3.209270     -0.579054      0.226461
  H      -3.461851      1.223954     -0.895586
  H       1.506147      1.643254     -1.115195
  H      -4.246928     -0.835771      0.394647
  H       2.716447     -1.261709      0.457550
  H       3.114307      0.013379     -0.563060
27
Coordinates from ORCA-job methylurea_guanine_opt_freq E -806.748828137557
  O       4.394112     -2.400879      0.482023
  N       6.404406     -3.443888      0.784364
  N       5.704232     -1.752783      2.233965
  C       5.432338     -2.531523      1.141322
  H       7.074062     -3.773038      1.463668
  H       6.111180     -4.109047      0.083723
  H       4.971648     -1.097920      2.456451
  C       6.931413     -1.764541      3.015989
  H       7.812533     -1.564324      2.393680
  H       6.872981     -0.974079      3.767243
  H       7.067989     -2.713938      3.551764
  O      -0.822885      2.465256     -1.764198
  N      -2.843129      0.474792     -0.446910
  N       0.761724      1.053758     -0.850177
  N       0.295605     -0.897718      0.429182
  N      -2.091320     -1.286686      0.726831
  N       2.492208     -0.239186      0.044784
  C      -1.463770      0.525099     -0.495077
  C      -1.017008     -0.576911      0.239452
  C      -0.571227      1.452566     -1.107385
  C       1.144338     -0.066093     -0.122987
  C      -3.153070     -0.627594      0.297890
  H      -3.480265      1.136120     -0.866732
  H       1.467446      1.686242     -1.208746
  H      -4.178805     -0.909207      0.496677
  H       2.794074     -1.142413      0.411219
  H       3.128486      0.132143     -0.646834
27
Coordinates from ORCA-job methylurea_guanine_opt_freq E -806.748978573728
  O       4.433438     -2.299831      0.408642
  N       6.367431     -3.457469      0.784375
  N       5.682922     -1.761814      2.238252
  C       5.428541     -2.501180      1.115926
  H       6.976353     -3.837546      1.493934
  H       6.063306     -4.096809      0.064412
  H       4.981795     -1.065423      2.429512
  C       6.872768     -1.839475      3.074012
  H       7.787054     -1.675539      2.491197
  H       6.814322     -1.054792      3.831004
  H       6.939598     -2.800154      3.602328
  O      -0.913053      2.411841     -1.846736
  N      -2.827190      0.402613     -0.403350
  N       0.743089      1.091088     -0.924419
  N       0.379898     -0.825726      0.437674
  N      -1.982936     -1.287486      0.811769
  N       2.540721     -0.107780     -0.029051
  C      -1.451803      0.499772     -0.489358
  C      -0.947228     -0.558957      0.271305
  C      -0.610019      1.433735     -1.159893
  C       1.184694      0.013486     -0.166584
  C      -3.078270     -0.681642      0.388108
  H      -3.497190      1.025214     -0.831147
  H       1.416000      1.733358     -1.325929
  H      -4.087303     -0.992428      0.625207
  H       2.876866     -0.993105      0.357842
  H       3.145491      0.280257     -0.737852
27
Coordinates from ORCA-job methylurea_guanine_opt_freq E -806.749088838046
  O       4.462843     -2.237111      0.392637
  N       6.360846     -3.451062      0.775442
  N       5.694333     -1.765114      2.250868
  C       5.441129     -2.476810      1.111517
  H       6.945390     -3.860665      1.489186
  H       6.042952     -4.072100      0.045348
  H       5.011673     -1.049320      2.438675
  C       6.873275     -1.883963      3.102680
  H       7.800042     -1.738422      2.534727
  H       6.821888     -1.106437      3.867150
  H       6.908784     -2.853484      3.617357
  O      -0.947108      2.376119     -1.900385
  N      -2.830514      0.378463     -0.398892
  N       0.728386      1.096173     -0.956575
  N       0.395545     -0.790122      0.453500
  N      -1.959383     -1.274091      0.848265
  N       2.546435     -0.056488     -0.037059
  C      -1.456730      0.490788     -0.493987
  C      -0.935357     -0.544747      0.287328
  C      -0.630281      1.418184     -1.191768
  C       1.187598      0.043694     -0.174421
  C      -3.064394     -0.691511      0.416313
  H      -3.508900      0.980834     -0.842235
  H       1.390605      1.737636     -1.376784
  H      -4.067592     -1.010706      0.666523
  H       2.897918     -0.930859      0.352672
  H       3.129912      0.325329     -0.766902
27
Coordinates from ORCA-job methylurea_guanine_opt_freq E -806.749199665926
  O       4.480862     -2.137829      0.345577
  N       6.298611     -3.453870      0.775272
  N       5.668673     -1.757290      2.253207
  C       5.419638     -2.437317      1.092988
  H       6.847333     -3.905029      1.492015
  H       5.987490     -4.040054      0.014213
  H       5.020143     -1.005916      2.426477
  C       6.814326     -1.938402      3.137599
  H       7.764386     -1.834271      2.597983
  H       6.775096     -1.169090      3.910742
  H       6.797873     -2.915658      3.639098
  O      -0.999874      2.318491     -1.959674
  N      -2.804186      0.317019     -0.365864
  N       0.724351      1.113474     -1.006695
  N       0.466951     -0.734208      0.467084
  N      -1.866364     -1.272754      0.913925
  N       2.588906      0.043265     -0.076255
  C      -1.436286      0.464779     -0.488065
  C      -0.872860     -0.531976      0.314609
  C      -0.645561      1.391983     -1.227180
  C       1.225587      0.101421     -0.198995
  C      -2.994545     -0.735315      0.483029
  H      -3.505946      0.884190     -0.819216
  H       1.358916      1.758771     -1.462576
  H      -3.984057     -1.075095      0.759119
  H       2.960667     -0.817755      0.320991
  H       3.149165      0.422642     -0.828228
27
Coordinates from ORCA-job methylurea_guanine_opt_freq E -806.749320584031
  O       4.528569     -2.078223      0.323999
  N       6.295607     -3.455062      0.775887
  N       5.682522     -1.765589      2.265466
  C       5.439500     -2.418062      1.087691
  H       6.811947     -3.941202      1.493724
  H       5.997828     -4.013068     -0.011239
  H       5.051421     -0.997840      2.440335
  C       6.813589     -1.971575      3.159175
  H       7.769384     -1.901358      2.623469
  H       6.791245     -1.195903      3.926246
  H       6.770316     -2.944817      3.667532
  O      -1.027518      2.289477     -1.997513
  N      -2.809725      0.300058     -0.364453
  N       0.710175      1.118035     -1.027599
  N       0.473182     -0.703992      0.480276
  N      -1.853874     -1.258177      0.940523
  N       2.587608      0.085654     -0.078870
  C      -1.444005      0.458590     -0.492913
  C      -0.869107     -0.518410      0.325847
  C      -0.662018      1.379769     -1.249387
  C       1.222302      0.126872     -0.202322
  C      -2.988163     -0.740329      0.501946
  H      -3.517915      0.849406     -0.829639
  H       1.336019      1.760273     -1.499849
  H      -3.974107     -1.084588      0.785151
  H       2.969794     -0.770319      0.316757
  H       3.134717      0.444588     -0.849059
27
Coordinates from ORCA-job methylurea_guanine_opt_freq E -806.749389310998
  O       4.538247     -2.004868      0.299000
  N       6.245265     -3.448344      0.771680
  N       5.664429     -1.753394      2.266157
  C       5.421104     -2.384561      1.076954
  H       6.728753     -3.960982      1.493920
  H       5.946233     -3.986698     -0.028522
  H       5.062474     -0.962588      2.433774
  C       6.773965     -2.009655      3.174906
  H       7.742089     -1.960802      2.658082
  H       6.763849     -1.248172      3.956254
  H       6.689286     -2.989757      3.664400
  O      -1.056166      2.240759     -2.038120
  N      -2.786962      0.255575     -0.346261
  N       0.711538      1.125364     -1.056180
  N       0.521191     -0.666019      0.494532
  N      -1.791212     -1.254632      0.985061
  N       2.616073      0.152348     -0.099383
  C      -1.425654      0.437140     -0.489520
  C      -0.825614     -0.509980      0.346069
  C      -0.667199      1.355494     -1.272640
  C       1.248977      0.163319     -0.213007
  C      -2.938532     -0.768542      0.544460
  H      -3.509313      0.778703     -0.819799
  H       1.320160      1.768077     -1.549852
  H      -3.915649     -1.124883      0.842936
  H       3.018234     -0.694755      0.302045
  H       3.143730      0.506062     -0.885768
27
Coordinates from ORCA-job methylurea_guanine_opt_freq E -806.749413849992
  O       4.525843     -1.959600      0.285395
  N       6.208803     -3.429923      0.759318
  N       5.642574     -1.737716      2.262059
  C       5.398305     -2.356786      1.066965
  H       6.671169     -3.956862      1.485387
  H       5.901078     -3.960970     -0.042630
  H       5.055336     -0.935324      2.434450
  C       6.736191     -2.022298      3.173889
  H       7.705402     -1.976824      2.661613
  H       6.734641     -1.276825      3.970872
  H       6.630611     -3.009379      3.644859
  O      -1.053597      2.207338     -2.057178
  N      -2.764688      0.231447     -0.334449
  N       0.725441      1.119513     -1.064544
  N       0.552857     -0.653190      0.509647
  N      -1.753607     -1.254721      1.012216
  N       2.640435      0.175305     -0.100985
  C      -1.405088      0.421707     -0.483896
  C      -0.795359     -0.509952      0.361952
  C      -0.656669      1.335379     -1.280652
  C       1.272782      0.172264     -0.211004
  C      -2.905639     -0.782531      0.569549
  H      -3.492489      0.739236     -0.816218
  H       1.325483      1.760663     -1.570560
  H      -3.879300     -1.142422      0.875048
  H       3.054885     -0.666892      0.293139
  H       3.163893      0.523573     -0.893061
27
Coordinates from ORCA-job methylurea_guanine_opt_freq E -806.749498428240
  O       4.569263     -1.902040      0.269253
  N       6.189616     -3.435002      0.762926
  N       5.648583     -1.740083      2.272285
  C       5.409620     -2.338159      1.065341
  H       6.612542     -3.984331      1.496764
  H       5.879569     -3.949849     -0.048787
  H       5.086588     -0.917463      2.432195
  C       6.725600     -2.063056      3.192932
  H       7.703772     -2.056327      2.696208
  H       6.746312     -1.313880      3.986867
  H       6.572497     -3.040286      3.671255
  O      -1.094648      2.175532     -2.089091
  N      -2.759232      0.198138     -0.325878
  N       0.710189      1.136770     -1.089193
  N       0.577909     -0.615402      0.512792
  N      -1.715318     -1.247560      1.039735
  N       2.647264      0.240032     -0.126104
  C      -1.403960      0.408772     -0.486585
  C      -0.773764     -0.497314      0.371354
  C      -0.676687      1.323662     -1.301511
  C       1.278473      0.211097     -0.225155
  C      -2.877580     -0.802999      0.595828
  H      -3.499500      0.685655     -0.809548
  H       1.297955      1.781149     -1.605249
  H      -3.843796     -1.173637      0.911987
  H       3.072287     -0.598433      0.276728
  H       3.155743      0.569222     -0.936169
27
Coordinates from ORCA-job methylurea_guanine_opt_freq E -806.749536349133
  O       4.574798     -1.898118      0.266315
  N       6.186877     -3.439065      0.763779
  N       5.647899     -1.741384      2.272614
  C       5.410900     -2.338270      1.064700
  H       6.604178     -3.988979      1.500453
  H       5.871290     -3.954841     -0.045171
  H       5.090345     -0.915526      2.429381
  C       6.720021     -2.067606      3.197809
  H       7.698837     -2.064584      2.703447
  H       6.738887     -1.316474      3.989967
  H       6.563998     -3.043372      3.678332
  O      -1.104102      2.176055     -2.088328
  N      -2.756810      0.191701     -0.321262
  N       0.706789      1.142251     -1.094541
  N       0.585371     -0.610903      0.506898
  N      -1.704025     -1.250335      1.041478
  N       2.649853      0.251375     -0.136235
  C      -1.402667      0.406934     -0.485788
  C      -0.767013     -0.497303      0.370038
  C      -0.681120      1.324830     -1.302789
  C       1.281010      0.218119     -0.232283
  C      -2.869207     -0.809093      0.601451
  H      -3.500182      0.677828     -0.801582
  H       1.292057      1.789522     -1.609821
  H      -3.833153     -1.182676      0.921066
  H       3.076876     -0.584767      0.268265
  H       3.157590      0.578890     -0.947011
27
Coordinates from ORCA-job methylurea_guanine_opt_freq E -806.749593838194
  O       4.584451     -1.862375      0.257514
  N       6.151496     -3.445423      0.767949
  N       5.640700     -1.733632      2.274058
  C       5.401208     -2.324424      1.063445
  H       6.549435     -4.001790      1.510484
  H       5.820391     -3.957573     -0.037077
  H       5.108006     -0.888922      2.420882
  C       6.695230     -2.089085      3.210720
  H       7.680305     -2.102370      2.729172
  H       6.716070     -1.342886      4.007508
  H       6.517326     -3.064456      3.684443
  O      -1.133009      2.163901     -2.092162
  N      -2.740285      0.161426     -0.303427
  N       0.701190      1.157130     -1.114030
  N       0.620371     -0.591736      0.493914
  N      -1.654530     -1.260002      1.055153
  N       2.666283      0.297901     -0.168499
  C      -1.390903      0.394371     -0.482127
  C      -0.734799     -0.497381      0.371170
  C      -0.690413      1.320487     -1.309190
  C       1.297083      0.244193     -0.253910
  C      -2.830164     -0.836362      0.624855
  H      -3.495227      0.638198     -0.775052
  H       1.275200      1.813253     -1.630831
  H      -3.785577     -1.221592      0.956018
  H       3.103940     -0.528276      0.240108
  H       3.165518      0.611632     -0.989906
27
Coordinates from ORCA-job methylurea_guanine_opt_freq E -806.749625699765
  O       4.603555     -1.796725      0.228116
  N       6.092576     -3.446044      0.762751
  N       5.612691     -1.726179      2.271041
  C       5.380780     -2.297608      1.050020
  H       6.443444     -4.023611      1.512992
  H       5.753194     -3.940504     -0.050011
  H       5.118131     -0.857389      2.408456
  C       6.633446     -2.121837      3.229267
  H       7.628066     -2.162016      2.768441
  H       6.656966     -1.382993      4.032636
  H       6.415558     -3.095238      3.689913
  O      -1.167926      2.116433     -2.116063
  N      -2.703857      0.107240     -0.272871
  N       0.701910      1.170199     -1.145228
  N       0.683543     -0.551111      0.493783
  N      -1.567387     -1.263201      1.096569
  N       2.699036      0.376004     -0.209053
  C      -1.362761      0.368954     -0.473116
  C      -0.674847     -0.491479      0.387341
  C      -0.695364      1.297207     -1.324972
  C       1.330749      0.287489     -0.276767
  C      -2.758252     -0.875157      0.674211
  H      -3.475855      0.559149     -0.741346
  H       1.254356      1.831972     -1.678067
  H      -3.699703     -1.277123      1.024859
  H       3.156381     -0.436581      0.211363
  H       3.180862      0.684358     -1.043089
27
Coordinates from ORCA-job methylurea_guanine_opt_freq E -806.749682313992
  O       4.625454     -1.744950      0.210115
  N       6.055407     -3.440261      0.761620
  N       5.595369     -1.718426      2.273295
  C       5.371147     -2.273944      1.043569
  H       6.372008     -4.034660      1.514071
  H       5.718951     -3.918198     -0.062295
  H       5.127960     -0.834632      2.406707
  C       6.593563     -2.144813      3.242146
  H       7.593613     -2.204743      2.794912
  H       6.621898     -1.412751      4.051282
  H       6.346733     -3.116611      3.691057
  O      -1.189479      2.088482     -2.126317
  N      -2.681356      0.076041     -0.251729
  N       0.701929      1.175312     -1.165266
  N       0.721259     -0.530797      0.489675
  N      -1.514691     -1.265339      1.121080
  N       2.717833      0.417933     -0.239499
  C      -1.345766      0.353033     -0.467049
  C      -0.638826     -0.489756      0.395555
  C      -0.698128      1.282318     -1.333163
  C       1.350176      0.309272     -0.294559
  C      -2.714357     -0.897015      0.705894
  H      -3.463462      0.515287     -0.715435
  H       1.241285      1.840962     -1.706589
  H      -3.647139     -1.307637      1.069398
  H       3.187519     -0.383052      0.185848
  H       3.190397      0.713152     -1.083145
27
Coordinates from ORCA-job methylurea_guanine_opt_freq E -806.749786385496
  O       4.677397     -1.631906      0.176110
  N       5.975523     -3.421420      0.754759
  N       5.554226     -1.703341      2.280081
  C       5.351398     -2.220841      1.030402
  H       6.217387     -4.051865      1.505703
  H       5.652558     -3.859949     -0.096112
  H       5.143208     -0.789518      2.407587
  C       6.506048     -2.197051      3.265551
  H       7.515759     -2.294273      2.846213
  H       6.544100     -1.486149      4.092750
  H       6.199006     -3.166555      3.680117
  O      -1.228864      2.010162     -2.161585
  N      -2.630517      0.008938     -0.208944
  N       0.704503      1.178991     -1.208433
  N       0.799736     -0.478889      0.492770
  N      -1.403829     -1.258921      1.181201
  N       2.756111      0.507517     -0.295654
  C      -1.307260      0.317859     -0.454171
  C      -0.562416     -0.479305      0.420038
  C      -0.700357      1.240927     -1.355535
  C       1.391167      0.356915     -0.325054
  C      -2.620098     -0.936777      0.776145
  H      -3.432049      0.414597     -0.670122
  H       1.215519      1.845932     -1.775105
  H      -3.534381     -1.363921      1.166586
  H       3.252369     -0.269100      0.145451
  H       3.203052      0.782152     -1.159570
27
Coordinates from ORCA-job methylurea_guanine_opt_freq E -806.749868967433
  O       4.740479     -1.545402      0.150304
  N       5.953425     -3.388659      0.744758
  N       5.513831     -1.698227      2.291440
  C       5.354884     -2.175894      1.019955
  H       6.132867     -4.052555      1.484142
  H       5.674456     -3.787586     -0.140440
  H       5.127615     -0.774420      2.425490
  C       6.429699     -2.230113      3.286125
  H       7.444429     -2.335543      2.883837
  H       6.464085     -1.537734      4.129001
  H       6.089874     -3.202519      3.665495
  O      -1.248146      1.963421     -2.175104
  N      -2.601522     -0.016286     -0.169694
  N       0.708328      1.166757     -1.237602
  N       0.843359     -0.461884      0.490385
  N      -1.343043     -1.250505      1.222054
  N       2.778228      0.525574     -0.348524
  C      -1.284981      0.300966     -0.439182
  C      -0.519791     -0.474667      0.437214
  C      -0.699447      1.213565     -1.363993
  C       1.414642      0.365222     -0.351653
  C      -2.567840     -0.946235      0.829657
  H      -3.412536      0.378834     -0.623493
  H       1.203413      1.827836     -1.824992
  H      -3.471573     -1.376958      1.240183
  H       3.293300     -0.223428      0.103879
  H       3.221261      0.790646     -1.218064
27
Coordinates from ORCA-job methylurea_guanine_opt_freq E -806.749946992799
  O       4.796936     -1.451397      0.133856
  N       5.902154     -3.362873      0.724341
  N       5.469745     -1.696823      2.300000
  C       5.346282     -2.131951      1.009441
  H       6.015751     -4.054074      1.451786
  H       5.640896     -3.724183     -0.182214
  H       5.131438     -0.752872      2.435467
  C       6.343751     -2.279289      3.308635
  H       7.364914     -2.419411      2.933745
  H       6.382329     -1.599406      4.161547
  H       5.955438     -3.242149      3.664770
  O      -1.278904      1.881048     -2.212298
  N      -2.555091     -0.071029     -0.130547
  N       0.709340      1.161667     -1.279033
  N       0.908361     -0.410836      0.494368
  N      -1.247608     -1.230149      1.280453
  N       2.806119      0.597432     -0.400650
  C      -1.250558      0.271260     -0.427069
  C      -0.454498     -0.458711      0.460904
  C      -0.700898      1.169469     -1.387241
  C       1.447416      0.404646     -0.379786
  C      -2.484841     -0.968305      0.896223
  H      -3.381375      0.291898     -0.583663
  H       1.180103      1.817603     -1.891615
  H      -3.371576     -1.408789      1.332638
  H       3.340685     -0.129516      0.080399
  H       3.222986      0.850948     -1.283276
27
Coordinates from ORCA-job methylurea_guanine_opt_freq E -806.750015609759
  O       4.783614     -1.483311      0.149913
  N       5.951994     -3.363159      0.720356
  N       5.491275     -1.710554      2.305943
  C       5.364665     -2.149035      1.016178
  H       6.106058     -4.044327      1.449775
  H       5.678415     -3.736316     -0.177575
  H       5.132267     -0.779491      2.441240
  C       6.379831     -2.273525      3.313731
  H       7.401249     -2.397998      2.934341
  H       6.412561     -1.587086      4.161988
  H       6.012986     -3.240105      3.683104
  O      -1.274755      1.911727     -2.207490
  N      -2.582494     -0.041508     -0.144267
  N       0.699977      1.161083     -1.271991
  N       0.874289     -0.429077      0.487694
  N      -1.293862     -1.227053      1.262265
  N       2.786656      0.562640     -0.390780
  C      -1.272678      0.287947     -0.432871
  C      -0.488797     -0.459844      0.450511
  C      -0.709880      1.186309     -1.385825
  C       1.426266      0.387148     -0.376811
  C      -2.526715     -0.946697      0.876384
  H      -3.402871      0.333303     -0.598342
  H       1.181742      1.816151     -1.876777
  H      -3.420491     -1.378547      1.307075
  H       3.316753     -0.168041      0.083771
  H       3.211239      0.823577     -1.270361
27
Coordinates from ORCA-job methylurea_guanine_opt_freq E -806.750101696539
  O       4.812141     -1.449581      0.155157
  N       5.961791     -3.344635      0.712194
  N       5.480434     -1.716989      2.319102
  C       5.375155     -2.133314      1.019096
  H       6.111611     -4.034408      1.434176
  H       5.699844     -3.704748     -0.194342
  H       5.130918     -0.778816      2.457965
  C       6.353895     -2.295011      3.330604
  H       7.382226     -2.405797      2.964746
  H       6.369510     -1.630740      4.197052
  H       5.987948     -3.272302      3.671221
  O      -1.290021      1.895739     -2.215808
  N      -2.577705     -0.043045     -0.125800
  N       0.693150      1.155480     -1.290903
  N       0.884945     -0.422971      0.477498
  N      -1.275423     -1.218140      1.276898
  N       2.787725      0.563315     -0.425592
  C      -1.270752      0.286147     -0.427721
  C      -0.478516     -0.454576      0.453661
  C      -0.717784      1.177791     -1.392943
  C       1.428501      0.387794     -0.397437
  C      -2.512010     -0.941353      0.900360
  H      -3.402564      0.328824     -0.574140
  H       1.169027      1.807234     -1.903890
  H      -3.401778     -1.370936      1.341508
  H       3.328912     -0.150762      0.058805
  H       3.208113      0.820009     -1.310290
27
Coordinates from ORCA-job methylurea_guanine_opt_freq E -806.750185953857
  O       4.866722     -1.361055      0.165877
  N       5.970620     -3.291544      0.691389
  N       5.439636     -1.724930      2.343251
  C       5.386111     -2.086678      1.022760
  H       6.094186     -4.008063      1.391677
  H       5.744164     -3.615163     -0.238046
  H       5.108098     -0.779853      2.493888
  C       6.284539     -2.346974      3.353726
  H       7.324307     -2.441199      3.018902
  H       6.266893     -1.727076      4.252198
  H       5.912332     -3.339762      3.638020
  O      -1.313783      1.832988     -2.248290
  N      -2.555664     -0.055642     -0.084375
  N       0.688188      1.132489     -1.334212
  N       0.918939     -0.398471      0.471031
  N      -1.222541     -1.187675      1.324804
  N       2.798847      0.572462     -0.490863
  C      -1.255905      0.274411     -0.415812
  C      -0.444343     -0.438220      0.471038
  C      -0.724706      1.142588     -1.413869
  C       1.443499      0.392544     -0.434033
  C      -2.466949     -0.928723      0.961651
  H      -3.390311      0.300568     -0.527314
  H       1.147326      1.769500     -1.974917
  H      -3.346904     -1.352905      1.427045
  H       3.357338     -0.108554      0.022661
  H       3.208656      0.829146     -1.377009
27
Coordinates from ORCA-job methylurea_guanine_opt_freq E -806.750244640333
  O       4.895499     -1.333953      0.174285
  N       6.006630     -3.265283      0.680721
  N       5.431721     -1.739087      2.354367
  C       5.406204     -2.072480      1.025322
  H       6.123145     -3.994661      1.368761
  H       5.804051     -3.572351     -0.259715
  H       5.094189     -0.800510      2.518209
  C       6.269424     -2.365283      3.365312
  H       7.315019     -2.441335      3.043239
  H       6.229971     -1.765563      4.276478
  H       5.905962     -3.368329      3.624417
  O      -1.320234      1.816740     -2.262406
  N      -2.561710     -0.043153     -0.072636
  N       0.682384      1.117703     -1.348763
  N       0.913995     -0.396296      0.470680
  N      -1.226904     -1.167675      1.341006
  N       2.793509      0.555602     -0.510850
  C      -1.262038      0.278000     -0.413381
  C      -0.449229     -0.430015      0.476383
  C      -0.731164      1.132808     -1.422501
  C       1.438548      0.383828     -0.444717
  C      -2.471680     -0.907385      0.980678
  H      -3.397090      0.309927     -0.516693
  H       1.138331      1.744531     -2.001726
  H      -3.351756     -1.322889      1.453620
  H       3.356460     -0.115986      0.006724
  H       3.206061      0.817304     -1.395635
27
Coordinates from ORCA-job methylurea_guanine_opt_freq E -806.750293965863
  O       4.916902     -1.291698      0.188815
  N       6.028606     -3.229584      0.667885
  N       5.415153     -1.749645      2.368205
  C       5.416034     -2.048558      1.030690
  H       6.139457     -3.973478      1.341246
  H       5.845810     -3.516087     -0.282951
  H       5.080924     -0.813506      2.549872
  C       6.244278     -2.394130      3.375467
  H       7.298159     -2.443457      3.074553
  H       6.173307     -1.827703      4.305747
  H       5.891628     -3.411256      3.591185
  O      -1.329413      1.783132     -2.284350
  N      -2.558394     -0.039524     -0.056641
  N       0.678551      1.098042     -1.371460
  N       0.920404     -0.385727      0.471685
  N      -1.215381     -1.140725      1.367570
  N       2.793892      0.547847     -0.537472
  C      -1.260735      0.275607     -0.410504
  C      -0.442559     -0.419006      0.485262
  C      -0.735375      1.112596     -1.436975
  C       1.439991      0.379471     -0.459383
  C      -2.462154     -0.885765      1.010648
  H      -3.396650      0.303619     -0.502979
  H       1.129930      1.712214     -2.039394
  H      -3.339688     -1.292208      1.496050
  H       3.364345     -0.109267     -0.008666
  H       3.202271      0.813004     -1.422927
27
Coordinates from ORCA-job methylurea_guanine_opt_freq E -806.750220365239
  O       4.939352     -1.211630      0.251179
  N       6.111979     -3.131514      0.648088
  N       5.395818     -1.783621      2.416530
  C       5.442353     -1.998257      1.063312
  H       6.246971     -3.906426      1.281938
  H       5.966209     -3.373635     -0.321779
  H       5.046769     -0.873938      2.656326
  C       6.224293     -2.470486      3.397910
  H       7.297931     -2.379217      3.170667
  H       6.026082     -2.035031      4.382763
  H       5.963582     -3.538805      3.458195
  O      -1.355415      1.717533     -2.339653
  N      -2.571584     -0.000314     -0.025378
  N       0.658934      1.041377     -1.432090
  N       0.909844     -0.364718      0.471679
  N      -1.221335     -1.063345      1.421075
  N       2.778287      0.500548     -0.601740
  C      -1.276093      0.282431     -0.411976
  C      -0.452705     -0.384438      0.501619
  C      -0.753581      1.073722     -1.476083
  C       1.425037      0.355220     -0.497318
  C      -2.469892     -0.808045      1.071272
  H      -3.414579      0.320917     -0.478893
  H       1.112091      1.615792     -2.133531
  H      -3.345755     -1.185174      1.583094
  H       3.365113     -0.126913     -0.064108
  H       3.189588      0.782172     -1.481919
27
Coordinates from ORCA-job methylurea_guanine_opt_freq E -806.750317151587
  O       4.982988     -1.175910      0.254950
  N       6.109131     -3.124920      0.641508
  N       5.376715     -1.795735      2.418676
  C       5.452598     -1.986575      1.063171
  H       6.207892     -3.916367      1.260961
  H       5.978645     -3.342878     -0.336039
  H       5.045526     -0.870664      2.663700
  C       6.188123     -2.491435      3.409656
  H       7.262886     -2.435126      3.189505
  H       6.004272     -2.041786      4.389085
  H       5.896473     -3.549027      3.478840
  O      -1.374491      1.681358     -2.353348
  N      -2.555554     -0.021932     -0.010194
  N       0.653320      1.041474     -1.450042
  N       0.933124     -0.338365      0.468747
  N      -1.183620     -1.048901      1.441819
  N       2.784045      0.535988     -0.626658
  C      -1.265828      0.271442     -0.408271
  C      -0.428939     -0.373773      0.508119
  C      -0.760249      1.055509     -1.485670
  C       1.433277      0.375741     -0.512448
  C      -2.437358     -0.813368      1.096398
  H      -3.404665      0.285012     -0.462236
  H       1.095293      1.613885     -2.159992
  H      -3.305030     -1.194196      1.619106
  H       3.370582     -0.089168     -0.073691
  H       3.180141      0.803925     -1.514472
27
Coordinates from ORCA-job methylurea_guanine_opt_freq E -806.742775275411
  O       4.953752     -1.211414      0.100880
  N       5.954777     -3.192724      0.677917
  N       5.352660     -1.731577      2.364180
  C       5.384486     -1.997499      1.000183
  H       5.989051     -3.953716      1.362092
  H       5.810123     -3.431756     -0.305620
  H       5.040171     -0.800663      2.527315
  C       6.117384     -2.432537      3.423370
  H       7.206355     -2.462742      3.198279
  H       5.994852     -1.951710      4.347205
  H       5.725625     -3.417336      3.568811
  O      -1.375467      1.728244     -2.246647
  N      -2.507147     -0.097196      0.031272
  N       0.694903      1.095437     -1.417254
  N       1.023999     -0.350686      0.434398
  N      -1.089088     -1.151671      1.403200
  N       2.866017      0.617031     -0.641507
  C      -1.216136      0.239505     -0.375989
  C      -0.349834     -0.420526      0.493051
  C      -0.730589      1.081673     -1.422426
  C       1.503159      0.413037     -0.520792
  C      -2.362055     -0.932707      1.092360
  H      -3.372933      0.213227     -0.390265
  H       1.127478      1.705346     -2.110556
  H      -3.222955     -1.359136      1.611046
  H       3.476947     -0.036038     -0.162800
  H       3.243761      0.892342     -1.530525
27
Coordinates from ORCA-job methylurea_guanine_opt_freq E -806.745615083922
  O       4.910229     -1.259423      0.197214
  N       5.902452     -3.211785      0.682988
  N       5.366594     -1.694883      2.348993
  C       5.356312     -2.008562      1.031411
  H       5.973557     -3.934785      1.331428
  H       5.734422     -3.486492     -0.258889
  H       5.065284     -0.764445      2.513334
  C       6.157368     -2.396926      3.362909
  H       7.215008     -2.437853      3.106026
  H       6.067965     -1.891977      4.301083
  H       5.776447     -3.384442      3.521566
  O      -1.332607      1.741008     -2.250642
  N      -2.496023     -0.090067     -0.013561
  N       0.707870      1.088509     -1.376521
  N       1.002569     -0.373234      0.468547
  N      -1.113204     -1.162959      1.392726
  N       2.851599      0.596584     -0.576299
  C      -1.207080      0.239196     -0.384067
  C      -0.362878     -0.433113      0.501027
  C      -0.707087      1.085156     -1.415366
  C       1.493980      0.394999     -0.471765
  C      -2.371047     -0.933934      1.047994
  H      -3.347070      0.232773     -0.454717
  H       1.149578      1.698026     -2.051329
  H      -3.235059     -1.357387      1.542112
  H       3.461282     -0.064099     -0.100007
  H       3.218833      0.864324     -1.485017
27
Coordinates from ORCA-job methylurea_guanine_opt_freq E -806.743487309131
  O       4.879314     -1.240168      0.221651
  N       5.970346     -3.256141      0.663179
  N       5.415606     -1.710970      2.380425
  C       5.385839     -2.025822      1.053091
  H       6.084829     -4.037832      1.346159
  H       5.784751     -3.550913     -0.291088
  H       5.097496     -0.762621      2.578243
  C       6.250394     -2.389419      3.345770
  H       7.283398     -2.400157      3.033075
  H       6.170231     -1.845847      4.353397
  H       5.925107     -3.457314      3.513151
  O      -1.322790      1.747831     -2.320416
  N      -2.529601     -0.051349     -0.075158
  N       0.680415      1.087756     -1.372930
  N       0.931554     -0.370331      0.509818
  N      -1.190765     -1.133250      1.397745
  N       2.788285      0.581878     -0.512409
  C      -1.241791      0.262703     -0.419012
  C      -0.425299     -0.414223      0.506217
  C      -0.724552      1.092991     -1.452837
  C       1.441656      0.387880     -0.432978
  C      -2.429753     -0.891253      1.013629
  H      -3.365209      0.275720     -0.542164
  H       1.126316      1.686561     -2.047649
  H      -3.301880     -1.297193      1.491259
  H       3.394106     -0.075202     -0.005960
  H       3.161294      0.840894     -1.423027
27
Coordinates from ORCA-job methylurea_guanine_opt_freq E -806.748319722429
  O       4.892011     -1.225596      0.176903
  N       5.945353     -3.206010      0.655921
  N       5.383021     -1.732342      2.389952
  C       5.370040     -2.015165      1.034205
  H       6.036064     -3.967255      1.323155
  H       5.770489     -3.471125     -0.307980
  H       5.071266     -0.782276      2.589293
  C       6.181237     -2.415904      3.387482
  H       7.264345     -2.432200      3.115669
  H       6.057902     -1.889598      4.347680
  H       5.826321     -3.465085      3.543604
  O      -1.335706      1.720306     -2.283694
  N      -2.503340     -0.079460     -0.013102
  N       0.691080      1.085238     -1.404271
  N       0.980856     -0.353000      0.461561
  N      -1.130412     -1.134107      1.394203
  N       2.819820      0.601403     -0.581176
  C      -1.216886      0.248166     -0.399100
  C      -0.380050     -0.411769      0.491909
  C      -0.720287      1.078884     -1.444164
  C       1.473726      0.402710     -0.485730
  C      -2.382394     -0.908366      1.059133
  H      -3.349168      0.234069     -0.449676
  H       1.130702      1.690793     -2.094322
  H      -3.247110     -1.324910      1.564211
  H       3.418563     -0.051506     -0.082690
  H       3.191852      0.858311     -1.477796
27
Coordinates from ORCA-job methylurea_guanine_opt_freq E -806.749423655236
  O       4.905690     -1.237418      0.190818
  N       5.915123     -3.197052      0.663056
  N       5.360216     -1.717588      2.364917
  C       5.355644     -2.005874      1.027184
  H       5.987940     -3.953903      1.327833
  H       5.740828     -3.459387     -0.296235
  H       5.058490     -0.774951      2.557331
  C       6.146813     -2.413818      3.378122
  H       7.218758     -2.450747      3.125784
  H       6.032773     -1.895413      4.319078
  H       5.785648     -3.432030      3.531107
  O      -1.348045      1.723752     -2.295499
  N      -2.493523     -0.099489     -0.002281
  N       0.701998      1.091127     -1.401806
  N       1.013929     -0.352442      0.470266
  N      -1.093161     -1.147355      1.414785
  N       2.849903      0.612659     -0.591178
  C      -1.205286      0.238255     -0.388532
  C      -0.351475     -0.420773      0.507743
  C      -0.716237      1.077056     -1.440200
  C       1.499399      0.410283     -0.486054
  C      -2.357793     -0.929526      1.075033
  H      -3.351301      0.212537     -0.445165
  H       1.133290      1.700963     -2.094293
  H      -3.218409     -1.352779      1.581882
  H       3.444457     -0.046394     -0.089709
  H       3.223628      0.874514     -1.492810
27
Coordinates from ORCA-job methylurea_guanine_opt_freq E -806.748372184766
  O       4.910815     -1.233586      0.187636
  N       5.948890     -3.237094      0.688713
  N       5.372087     -1.713590      2.356934
  C       5.376082     -2.014179      1.036525
  H       6.026527     -3.974446      1.340877
  H       5.775637     -3.508546     -0.256328
  H       5.065454     -0.778311      2.545065
  C       6.161603     -2.406874      3.368266
  H       7.214087     -2.438474      3.114162
  H       6.048865     -1.889837      4.318257
  H       5.815943     -3.418437      3.521303
  O      -1.351375      1.733034     -2.246377
  N      -2.503197     -0.085309     -0.018190
  N       0.687852      1.091267     -1.388081
  N       0.995081     -0.357341      0.458868
  N      -1.111322     -1.143460      1.392152
  N       2.833771      0.611433     -0.592234
  C      -1.217794      0.244794     -0.393793
  C      -0.368441     -0.420630      0.493514
  C      -0.725226      1.081272     -1.422615
  C       1.482254      0.405283     -0.485931
  C      -2.370850     -0.917952      1.050295
  H      -3.359218      0.230701     -0.457158
  H       1.119152      1.695388     -2.057528
  H      -3.231526     -1.333888      1.549158
  H       3.438068     -0.049054     -0.091526
  H       3.206079      0.882046     -1.500784
27
Coordinates from ORCA-job methylurea_guanine_opt_freq E -806.750165736871
  O       4.909566     -1.227682      0.176220
  N       5.945984     -3.222347      0.662369
  N       5.369351     -1.718144      2.372080
  C       5.373185     -2.012163      1.029106
  H       6.023178     -3.978622      1.328205
  H       5.771099     -3.490351     -0.298730
  H       5.060666     -0.778472      2.566248
  C       6.153998     -2.409943      3.385220
  H       7.219591     -2.435210      3.131267
  H       6.035871     -1.890466      4.339911
  H       5.799741     -3.437363      3.535513
  O      -1.346263      1.727975     -2.270393
  N      -2.492382     -0.087526     -0.011170
  N       0.688318      1.090224     -1.398535
  N       0.996064     -0.356144      0.462809
  N      -1.106155     -1.144181      1.405151
  N       2.828160      0.611555     -0.596054
  C      -1.210723      0.243267     -0.392707
  C      -0.364338     -0.419725      0.498781
  C      -0.722532      1.079973     -1.434208
  C       1.481005      0.406021     -0.487874
  C      -2.360670     -0.919129      1.065333
  H      -3.343490      0.227131     -0.449036
  H       1.120680      1.698696     -2.082356
  H      -3.220481     -1.335886      1.569552
  H       3.432210     -0.045490     -0.097741
  H       3.197662      0.878208     -1.497781
