27
Coordinates from ORCA-job methylurea_guanine_opt_freq E -806.750165736871
  O           4.90956569686485     -1.22768160645918      0.17621970865440
  N           5.94598382115843     -3.22234721531667      0.66236853843584
  N           5.36935144748665     -1.71814415926431      2.37207957282921
  C           5.37318452748564     -2.01216281784786      1.02910602479010
  H           6.02317830706529     -3.97862157208250      1.32820477031318
  H           5.77109903291226     -3.49035120959975     -0.29872972026827
  H           5.06066625057524     -0.77847214574057      2.56624753156548
  C           6.15399835842197     -2.40994318205205      3.38521985242455
  H           7.21959120950774     -2.43520958229087      3.13126735965735
  H           6.03587060731217     -1.89046563332566      4.33991073544142
  H           5.79974056884936     -3.43736316533261      3.53551309222433
  O          -1.34626264822296      1.72797548651503     -2.27039325885398
  N          -2.49238192321629     -0.08752649595873     -0.01116978409740
  N           0.68831811782816      1.09022447247218     -1.39853505234383
  N           0.99606401751621     -0.35614439110142      0.46280928487938
  N          -1.10615450650074     -1.14418073872428      1.40515099241797
  N           2.82816018117753      0.61155513261460     -0.59605415139413
  C          -1.21072311553773      0.24326734951492     -0.39270663809840
  C          -0.36433806037653     -0.41972534757729      0.49878065523704
  C          -0.72253210381139      1.07997346532725     -1.43420796826428
  C           1.48100467685929      0.40602074685683     -0.48787400799360
  C          -2.36066963351276     -0.91912924102158      1.06533326633859
  H          -3.34349015881463      0.22713117496147     -0.44903628932454
  H           1.12067977462201      1.69869610307546     -2.08235558473778
  H          -3.22048128825467     -1.33588550449956      1.56955205552332
  H           3.43221030311925     -0.04548981174013     -0.09774078577536
  H           3.19766153948539      0.87820788859738     -1.49778119958068
