34
Coordinates from ORCA-job phenylurea_guanine_opt_freq E -998.391742895125
  N           6.17259187823818     -2.67808747875996     -0.08605685072550
  C           5.05096036439757     -2.02304377345133     -0.51300856725537
  O           4.40664049294346     -2.44408906492660     -1.48886628890045
  N           4.68111371377620     -0.87759228292509      0.14469924099518
  C           5.24728795441262     -0.33244418028488      1.32559509371046
  C           4.40783260426756     -0.05090928109568      2.41520520500931
  C           4.94481180713089      0.51719748675860      3.57216881267419
  C           6.31130377837398      0.80329565530935      3.66076396164667
  C           7.14350216068518      0.53448236304696      2.56959449323584
  C           6.61589313360416     -0.01967225280349      1.40040332471832
  H           6.29328558517604     -3.59699349185892     -0.48689964077496
  H           6.53571418376028     -2.52057064257407      0.84609731277250
  H           3.72875521421430     -0.58373184839094     -0.07523606146213
  H           3.34186617804081     -0.26229800375315      2.34875562405655
  H           4.28445704056645      0.73309364035260      4.40644376191246
  H           6.72111970108306      1.24180340201386      4.56448570653496
  H           8.20108727421351      0.77305201055746      2.61826851059010
  H           7.25661850743698     -0.18987396756058      0.53968262745543
  O          -2.28370144389190      0.41475893372003     -1.48673752852565
  N          -1.19557933763912      0.97178559387201      1.39812488702615
  N          -0.17927379262408     -0.46633415347049     -1.82426631390078
  N           1.57311096507513     -0.50917193952908     -0.22101552109957
  N           0.91377304370547      0.42055759589415      1.92128303146726
  N           1.93989106079073     -1.32370333953724     -2.35216724675931
  C          -0.64323151251404      0.39811722637556      0.26928873151721
  C           0.66906534788536      0.06934494029776      0.61614442834195
  C          -1.16901847422076      0.16292365708562     -1.03283508299524
  C           1.11423129592181     -0.77286736424401     -1.42637936301085
  C          -0.21884664952057      0.95385128307243      2.34886043732035
  H          -2.13942731492108      1.32908859990261      1.48322575395733
  H          -0.46877295036383     -0.64872571745801     -2.77357176497817
  H          -0.38179584121501      1.34533824049518      3.34905144373672
  H           2.82422100492063     -1.73725928213609     -2.00894070153420
  H           1.55796302628959     -1.71826456399445     -3.19770745675683
