34
Coordinates from ORCA-job phenylurea_guanine_opt_freq E -998.281686002396
  N       5.964101     -3.422817      1.506074
  C       4.665919     -3.062014      1.483271
  O       3.787757     -3.919035      1.507371
  N       4.358417     -1.742736      1.506072
  C       5.127873     -0.585400      1.286098
  C       4.548242      0.638879      1.644084
  C       5.238402      1.839117      1.455773
  C       6.509978      1.828666      0.890136
  C       7.083894      0.620045      0.503820
  C       6.393618     -0.581601      0.695562
  H       6.092395     -4.419340      1.627182
  H       6.561471     -2.853906      2.089395
  H       3.372413     -1.600759      1.688512
  H       3.556954      0.673879      2.089484
  H       4.780948      2.780558      1.748908
  H       7.047318      2.761105      0.737586
  H       8.065515      0.610702      0.036410
  H       6.853735     -1.491585      0.325016
  O       0.192100      2.665900     -0.000400
  N      -2.071500      0.658800      0.000600
  N       1.574000      0.803100      0.000100
  N       0.756600     -1.453600     -0.000300
  N      -1.719400     -1.543200     -0.000600
  N       3.054900     -1.010000      0.000500
  C      -0.718000      0.488500     -0.000100
  C      -0.524500     -0.873100     -0.000400
  C       0.338300      1.448600     -0.000100
  C       1.748300     -0.592400      0.000000
  C      -2.630800     -0.592600      0.000500
  H      -2.570600      1.538600      0.001200
  H       2.407800      1.383500      0.000300
  H      -3.701500     -0.739200      0.001000
  H       3.290500     -1.996500      0.000600
  H       3.822300     -0.347100      0.000800
34
Coordinates from ORCA-job phenylurea_guanine_opt_freq E -998.306780510780
  N       6.049739     -3.444895      1.496594
  C       4.726429     -3.086025      1.517585
  O       3.832719     -3.934173      1.549789
  N       4.405251     -1.753359      1.551488
  C       5.169253     -0.594296      1.314589
  C       4.606504      0.635794      1.692300
  C       5.296037      1.832678      1.482816
  C       6.552872      1.820290      0.876546
  C       7.108000      0.605838      0.473169
  C       6.421173     -0.595348      0.684392
  H       6.183084     -4.441866      1.603805
  H       6.675490     -2.880546      2.057730
  H       3.428045     -1.612469      1.747803
  H       3.631398      0.671103      2.170746
  H       4.849980      2.773780      1.792419
  H       7.089043      2.750216      0.708664
  H       8.074171      0.590060     -0.023265
  H       6.862084     -1.509208      0.303022
  O       0.143013      2.698263     -0.021808
  N      -2.142108      0.667578     -0.049982
  N       1.510933      0.824034      0.005374
  N       0.699590     -1.432014     -0.000801
  N      -1.757406     -1.539127     -0.038021
  N       2.985548     -0.988579      0.039047
  C      -0.779820      0.506927     -0.029056
  C      -0.567030     -0.861428     -0.021687
  C       0.272664      1.473907     -0.015929
  C       1.683619     -0.569773      0.011753
  C      -2.679522     -0.592313     -0.054408
  H      -2.648793      1.542058     -0.060195
  H       2.339133      1.409248      0.015565
  H      -3.748490     -0.753658     -0.070079
  H       3.219352     -1.962663      0.050267
  H       3.765496     -0.336976      0.064222
34
Coordinates from ORCA-job phenylurea_guanine_opt_freq E -998.323746005055
  N       6.128694     -3.460806      1.486403
  C       4.793973     -3.111416      1.551371
  O       3.896663     -3.952170      1.593631
  N       4.462849     -1.769878      1.595212
  C       5.216440     -0.607408      1.340662
  C       4.664859      0.623375      1.742692
  C       5.344143      1.821508      1.511222
  C       6.580966      1.816838      0.860446
  C       7.122338      0.601492      0.436228
  C       6.449405     -0.603595      0.665986
  H       6.265090     -4.458528      1.585740
  H       6.777185     -2.898039      2.022943
  H       3.487124     -1.629574      1.808970
  H       3.708404      0.649786      2.258471
  H       4.904903      2.758703      1.841146
  H       7.108684      2.748060      0.677169
  H       8.070658      0.586289     -0.093138
  H       6.873808     -1.518511      0.270987
  O       0.112693      2.724603     -0.046131
  N      -2.205581      0.683125     -0.105716
  N       1.454251      0.836138      0.014213
  N       0.637592     -1.411638      0.005747
  N      -1.803198     -1.525428     -0.074125
  N       2.919102     -0.975772      0.088367
  C      -0.837541      0.529319     -0.059250
  C      -0.613047     -0.844751     -0.040236
  C       0.214654      1.495508     -0.032534
  C       1.621624     -0.552994      0.030876
  C      -2.728817     -0.580567     -0.112495
  H      -2.714568      1.555262     -0.130017
  H       2.278043      1.426599      0.034508
  H      -3.796162     -0.752199     -0.146462
  H       3.152284     -1.951868      0.109411
  H       3.709937     -0.338406      0.132155
34
Coordinates from ORCA-job phenylurea_guanine_opt_freq E -998.340345935330
  N       6.225900     -3.475850      1.478817
  C       4.889849     -3.142875      1.596063
  O       3.997975     -3.982441      1.650029
  N       4.553569     -1.796152      1.649891
  C       5.289684     -0.628591      1.372700
  C       4.751272      0.596360      1.814140
  C       5.407844      1.800673      1.554355
  C       6.609702      1.813167      0.840565
  C       7.136274      0.602883      0.382888
  C       6.488604     -0.609946      0.635276
  H       6.369050     -4.473493      1.574947
  H       6.896589     -2.908015      1.981110
  H       3.580522     -1.657014      1.886215
  H       3.825961      0.604038      2.384886
  H       4.977196      2.730090      1.916604
  H       7.120253      2.749469      0.638043
  H       8.057139      0.595784     -0.193782
  H       6.894068     -1.523251      0.217806
  O       0.071289      2.748838     -0.084998
  N      -2.284626      0.708278     -0.183559
  N       1.379337      0.846647      0.024608
  N       0.552357     -1.388694      0.019064
  N      -1.879483     -1.499462     -0.119606
  N       2.834591     -0.965528      0.157873
  C      -0.914924      0.558961     -0.101628
  C      -0.686409     -0.819060     -0.063135
  C       0.139279      1.518151     -0.058644
  C       1.542297     -0.535427      0.059866
  C      -2.802101     -0.555524     -0.190305
  H      -2.790653      1.581070     -0.229330
  H       2.197053      1.445215      0.055248
  H      -3.867696     -0.733426     -0.248820
  H       3.060395     -1.946555      0.188057
  H       3.635292     -0.345263      0.219212
34
Coordinates from ORCA-job phenylurea_guanine_opt_freq E -998.353335694389
  N       6.329674     -3.492498      1.472654
  C       4.997304     -3.174607      1.640947
  O       4.112672     -4.018266      1.710743
  N       4.662992     -1.824724      1.709744
  C       5.379610     -0.651629      1.408035
  C       4.871682      0.562030      1.913911
  C       5.498204      1.774688      1.621615
  C       6.642028      1.807926      0.819208
  C       7.140319      0.607355      0.306857
  C       6.521243     -0.613693      0.584128
  H       6.485639     -4.488039      1.572763
  H       7.021230     -2.910664      1.928591
  H       3.695619     -1.686384      1.978008
  H       4.000142      0.546202      2.563727
  H       5.090785      2.693699      2.034306
  H       7.131056      2.750499      0.594746
  H       8.016987      0.613301     -0.335489
  H       6.896267     -1.522656      0.129596
  O       0.013183      2.771648     -0.145941
  N      -2.369321      0.733484     -0.287536
  N       1.290736      0.860489      0.040754
  N       0.455996     -1.364710      0.050126
  N      -1.967317     -1.472008     -0.169645
  N       2.733404     -0.954390      0.257324
  C      -1.002112      0.588244     -0.156411
  C      -0.773736     -0.791071     -0.085039
  C       0.052936      1.541555     -0.095933
  C       1.449501     -0.514395      0.109503
  C      -2.884781     -0.530122     -0.288668
  H      -2.869907      1.607031     -0.366684
  H       2.100608      1.469133      0.078349
  H      -3.947380     -0.713267     -0.379951
  H       2.939881     -1.942514      0.286474
  H       3.542309     -0.348590      0.323641
34
Coordinates from ORCA-job phenylurea_guanine_opt_freq E -998.360791268725
  N       6.419435     -3.500544      1.467133
  C       5.089916     -3.196566      1.672722
  O       4.213930     -4.048840      1.755701
  N       4.755582     -1.848037      1.758817
  C       5.456071     -0.669807      1.437872
  C       4.983790      0.533652      1.999141
  C       5.585840      1.752034      1.679535
  C       6.672375      1.798212      0.801619
  C       7.138412      0.606054      0.240844
  C       6.538958     -0.619478      0.539606
  H       6.596311     -4.491864      1.571377
  H       7.122452     -2.898589      1.876708
  H       3.795736     -1.714015      2.056993
  H       4.161336      0.502068      2.709882
  H       5.205869      2.664126      2.131862
  H       7.143858      2.744836      0.557304
  H       7.971431      0.622407     -0.457037
  H       6.883629     -1.525337      0.054421
  O      -0.045487      2.788789     -0.193404
  N      -2.435694      0.753014     -0.383164
  N       1.213259      0.874598      0.064781
  N       0.371816     -1.346159      0.083964
  N      -2.041412     -1.450641     -0.217054
  N       2.640095     -0.944808      0.359396
  C      -1.073858      0.608686     -0.203697
  C      -0.850151     -0.769828     -0.102595
  C      -0.018843      1.559800     -0.123675
  C       1.365726     -0.496390      0.161835
  C      -2.952808     -0.510081     -0.382233
  H      -2.929835      1.626877     -0.493332
  H       2.017953      1.489624      0.114463
  H      -4.011737     -0.695008     -0.506694
  H       2.820496     -1.938867      0.375319
  H       3.453000     -0.346863      0.416046
34
Coordinates from ORCA-job phenylurea_guanine_opt_freq E -998.365334270064
  N       6.499639     -3.507044      1.461172
  C       5.172840     -3.211757      1.696809
  O       4.304615     -4.071905      1.793211
  N       4.836762     -1.866136      1.801611
  C       5.523655     -0.682921      1.462746
  C       5.093680      0.511393      2.074012
  C       5.679231      1.732715      1.734511
  C       6.708418      1.787143      0.790119
  C       7.134389      0.603095      0.181979
  C       6.546938     -0.624230      0.498540
  H       6.697905     -4.493585      1.566496
  H       7.210109     -2.885186      1.824840
  H       3.885631     -1.739036      2.129813
  H       4.318076      0.469712      2.835068
  H       5.333516      2.639693      2.222936
  H       7.167799      2.735800      0.530519
  H       7.922596      0.628455     -0.565681
  H       6.856826     -1.525546     -0.017812
  O      -0.107138      2.800865     -0.239042
  N      -2.492279      0.766547     -0.474840
  N       1.140194      0.888938      0.091196
  N       0.293115     -1.330609      0.118466
  N      -2.108353     -1.435174     -0.261483
  N       2.549160     -0.934714      0.466464
  C      -1.137726      0.621807     -0.247567
  C      -0.921101     -0.754717     -0.118131
  C      -0.083718      1.573235     -0.148083
  C       1.285108     -0.480369      0.215190
  C      -3.012585     -0.495686     -0.471436
  H      -2.979806      1.639793     -0.615291
  H       1.941654      1.506552      0.156432
  H      -4.067180     -0.680390     -0.628132
  H       2.700894     -1.933513      0.460875
  H       3.364587     -0.340165      0.498950
34
Coordinates from ORCA-job phenylurea_guanine_opt_freq E -998.368000090422
  N       6.567042     -3.507851      1.449575
  C       5.244214     -3.220570      1.716616
  O       4.383631     -4.087668      1.827766
  N       4.904738     -1.878098      1.839897
  C       5.580265     -0.691460      1.483897
  C       5.195035      0.496203      2.135304
  C       5.772619      1.717146      1.780722
  C       6.750477      1.774584      0.782992
  C       7.132529      0.596608      0.134985
  C       6.549283     -0.629438      0.466071
  H       6.785320     -4.489963      1.549933
  H       7.282997     -2.868216      1.768014
  H       3.963389     -1.759463      2.197383
  H       4.458787      0.450508      2.934147
  H       5.463320      2.621229      2.297900
  H       7.204398      2.722842      0.512011
  H       7.879681      0.627427     -0.653310
  H       6.823517     -1.526732     -0.077219
  O      -0.166607      2.807923     -0.276507
  N      -2.539849      0.774524     -0.557997
  N       1.072391      0.901393      0.120214
  N       0.221267     -1.318032      0.150559
  N      -2.167713     -1.425396     -0.304224
  N       2.463154     -0.923595      0.573388
  C      -1.193737      0.629061     -0.286312
  C      -0.985306     -0.745205     -0.131949
  C      -0.141525      1.581642     -0.167274
  C       1.209683     -0.467259      0.267301
  C      -3.063328     -0.486751     -0.555455
  H      -3.021136      1.646523     -0.725158
  H       1.872083      1.518601      0.206569
  H      -4.112950     -0.670225     -0.743367
  H       2.589917     -1.925316      0.541848
  H       3.279864     -0.331919      0.566133
34
Coordinates from ORCA-job phenylurea_guanine_opt_freq E -998.369560485299
  N       6.620958     -3.508550      1.435318
  C       5.304105     -3.226698      1.734629
  O       4.450286     -4.098369      1.865588
  N       4.962567     -1.885848      1.874546
  C       5.628128     -0.697233      1.502213
  C       5.288399      0.484832      2.187465
  C       5.861403      1.704171      1.820570
  C       6.790918      1.764064      0.777429
  C       7.127624      0.591609      0.095084
  C       6.546188     -0.632296      0.438559
  H       6.853662     -4.487672      1.527097
  H       7.342313     -2.855885      1.711242
  H       4.032060     -1.775173      2.260999
  H       4.588681      0.436999      3.018258
  H       5.588865      2.605391      2.362721
  H       7.242255      2.711050      0.497554
  H       7.835419      0.626700     -0.728469
  H       6.783413     -1.524396     -0.130108
  O      -0.218917      2.812266     -0.307190
  N      -2.577809      0.778129     -0.634752
  N       1.011409      0.912256      0.150219
  N       0.158390     -1.307229      0.179404
  N      -2.217475     -1.419670     -0.344062
  N       2.385115     -0.910819      0.675526
  C      -1.241250      0.633224     -0.319967
  C      -1.040433     -0.738998     -0.144279
  C      -0.191984      1.587446     -0.180304
  C       1.142056     -0.455970      0.316453
  C      -3.103817     -0.482288     -0.632579
  H      -3.053275      1.648236     -0.826641
  H       1.809222      1.527640      0.261868
  H      -4.147887     -0.665078     -0.849670
  H       2.493661     -1.913873      0.617981
  H       3.203199     -0.324907      0.611751
34
Coordinates from ORCA-job phenylurea_guanine_opt_freq E -998.370587631091
  N       6.661441     -3.507096      1.420310
  C       5.352878     -3.230073      1.754293
  O       4.505799     -4.104868      1.907843
  N       5.010559     -1.889810      1.906566
  C       5.668159     -0.701200      1.519287
  C       5.370587      0.477155      2.229633
  C       5.941845      1.693594      1.851528
  C       6.829662      1.753985      0.772409
  C       7.124492      0.585242      0.064804
  C       6.542437     -0.635375      0.419493
  H       6.903947     -4.484506      1.500176
  H       7.388142     -2.845502      1.657037
  H       4.091215     -1.785442      2.319708
  H       4.701838      0.429613      3.085466
  H       5.702340      2.592810      2.412297
  H       7.280704      2.698752      0.484592
  H       7.798569      0.621749     -0.786520
  H       6.746188     -1.523465     -0.168356
  O      -0.267055      2.816361     -0.323065
  N      -2.610073      0.778644     -0.696925
  N       0.956810      0.922337      0.178350
  N       0.106394     -1.298279      0.197064
  N      -2.257215     -1.417510     -0.383738
  N       2.317813     -0.896080      0.762950
  C      -1.281889      0.635618     -0.348953
  C      -1.086195     -0.735004     -0.158596
  C      -0.236625      1.592124     -0.189838
  C       1.083864     -0.445729      0.355733
  C      -3.135818     -0.482021     -0.701168
  H      -3.081909      1.646925     -0.905428
  H       1.750285      1.536534      0.322384
  H      -4.174225     -0.665459     -0.943416
  H       2.416614     -1.899410      0.681428
  H       3.135872     -0.321555      0.627106
34
Coordinates from ORCA-job phenylurea_guanine_opt_freq E -998.367169294679
  N       6.864696     -3.513168      1.502322
  C       5.579513     -3.244931      1.905890
  O       4.763328     -4.124941      2.166920
  N       5.217202     -1.899990      2.026290
  C       5.856708     -0.722375      1.590891
  C       5.690977      0.452822      2.348700
  C       6.275804      1.649161      1.935456
  C       7.054373      1.697431      0.770439
  C       7.214276      0.533473      0.010934
  C       6.612310     -0.666881      0.402310
  H       7.130529     -4.484585      1.568231
  H       7.594968     -2.817612      1.578934
  H       4.326846     -1.808434      2.497584
  H       5.094977      0.423446      3.258758
  H       6.135355      2.547346      2.533174
  H       7.519828      2.627603      0.458850
  H       7.796682      0.559050     -0.908379
  H       6.709872     -1.544963     -0.229350
  O      -0.588829      2.869944     -0.198942
  N      -2.826673      0.794466     -0.823517
  N       0.680700      0.989123      0.252739
  N      -0.091112     -1.250899      0.075833
  N      -2.433983     -1.407450     -0.605832
  N       2.086116     -0.814581      0.836093
  C      -1.519714      0.665793     -0.401964
  C      -1.295489     -0.707997     -0.285411
  C      -0.516075      1.642886     -0.113631
  C       0.844725     -0.386931      0.336089
  C      -3.322773     -0.476594     -0.909110
  H      -3.316504      1.659008     -1.008484
  H       1.432583      1.589719      0.579683
  H      -4.345199     -0.668860     -1.209305
  H       2.170010     -1.810145      0.630920
  H       2.861421     -0.436876      0.251339
34
Coordinates from ORCA-job phenylurea_guanine_opt_freq E -998.370076781197
  N       6.825234     -3.506909      1.455969
  C       5.549019     -3.236342      1.886079
  O       4.733736     -4.115258      2.149907
  N       5.198469     -1.893048      2.018269
  C       5.845307     -0.717042      1.583777
  C       5.687357      0.454657      2.347177
  C       6.272840      1.651629      1.934839
  C       7.042953      1.701507      0.766482
  C       7.198729      0.539771      0.004646
  C       6.597105     -0.660563      0.395219
  H       7.088565     -4.479493      1.516327
  H       7.559378     -2.818322      1.538735
  H       4.315257     -1.792821      2.502734
  H       5.103228      0.419748      3.263624
  H       6.138383      2.546467      2.537014
  H       7.508151      2.631562      0.454384
  H       7.777644      0.565913     -0.915172
  H       6.692206     -1.539632     -0.234016
  O      -0.555759      2.860123     -0.219325
  N      -2.802761      0.784011     -0.835286
  N       0.696967      0.977164      0.262748
  N      -0.082646     -1.260994      0.112652
  N      -2.413455     -1.415652     -0.599894
  N       2.089964     -0.814096      0.881688
  C      -1.493752      0.656854     -0.422199
  C      -1.276273     -0.715242     -0.278717
  C      -0.485608      1.632804     -0.151968
  C       0.851923     -0.394021      0.376252
  C      -3.296324     -0.487567     -0.925058
  H      -3.289102      1.648734     -1.026182
  H       1.445072      1.585648      0.577641
  H      -4.315517     -0.682602     -1.231866
  H       2.178613     -1.819902      0.728943
  H       2.872547     -0.394029      0.369030
34
Coordinates from ORCA-job phenylurea_guanine_opt_freq E -998.371293786817
  N       6.784757     -3.510845      1.403156
  C       5.517291     -3.232013      1.861279
  O       4.699979     -4.106688      2.132374
  N       5.181185     -1.888025      2.005609
  C       5.835306     -0.711854      1.575968
  C       5.688520      0.453573      2.351230
  C       6.271616      1.653321      1.941935
  C       7.026687      1.710712      0.765702
  C       7.173089      0.555011     -0.005852
  C       6.574520     -0.647713      0.381393
  H       7.041582     -4.485346      1.462305
  H       7.527136     -2.832468      1.492024
  H       4.307867     -1.776963      2.506875
  H       5.120916      0.408350      3.276964
  H       6.145907      2.542131      2.553764
  H       7.488869      2.642495      0.454337
  H       7.741748      0.586835     -0.930897
  H       6.660303     -1.524041     -0.251833
  O      -0.512474      2.850487     -0.266739
  N      -2.767912      0.768998     -0.876393
  N       0.713368      0.969006      0.278137
  N      -0.077142     -1.267277      0.173144
  N      -2.392584     -1.424509     -0.573391
  N       2.094040     -0.810079      0.928206
  C      -1.469521      0.648176     -0.428180
  C      -1.257676     -0.721522     -0.251051
  C      -0.465406      1.625846     -0.154827
  C       0.860030     -0.397293      0.423123
  C      -3.266606     -0.501955     -0.935850
  H      -3.243300      1.631483     -1.100731
  H       1.464907      1.586989      0.561747
  H      -4.280332     -0.702766     -1.255703
  H       2.182709     -1.819707      0.839134
  H       2.888072     -0.359291      0.487494
34
Coordinates from ORCA-job phenylurea_guanine_opt_freq E -998.371644454466
  N       6.755337     -3.515685      1.371976
  C       5.492571     -3.229273      1.842864
  O       4.671708     -4.099894      2.116604
  N       5.165774     -1.884154      1.992980
  C       5.827501     -0.707603      1.574057
  C       5.684654      0.451902      2.359216
  C       6.270658      1.653382      1.958923
  C       7.023889      1.717755      0.781966
  C       7.166227      0.568080      0.000741
  C       6.564773     -0.636147      0.378790
  H       7.005263     -4.492039      1.433372
  H       7.504735     -2.845613      1.471312
  H       4.297880     -1.766194      2.501982
  H       5.119707      0.399539      3.286437
  H       6.147847      2.537379      2.578570
  H       7.487577      2.650835      0.476633
  H       7.733640      0.605750     -0.925138
  H       6.645680     -1.508465     -0.260780
  O      -0.487096      2.842874     -0.322027
  N      -2.758517      0.756724     -0.875970
  N       0.732483      0.966441      0.250874
  N      -0.065220     -1.269483      0.190735
  N      -2.386533     -1.431075     -0.531686
  N       2.103518     -0.806586      0.931508
  C      -1.453488      0.640172     -0.443974
  C      -1.245905     -0.726058     -0.233863
  C      -0.441990      1.618562     -0.205368
  C       0.876227     -0.397544      0.421805
  C      -3.260493     -0.513637     -0.907575
  H      -3.231855      1.616863     -1.113525
  H       1.483163      1.593003      0.518759
  H      -4.277264     -0.718587     -1.215427
  H       2.192220     -1.816033      0.885983
  H       2.912780     -0.342132      0.533699
34
Coordinates from ORCA-job phenylurea_guanine_opt_freq E -998.371753017074
  N       6.728132     -3.514731      1.344016
  C       5.471682     -3.224338      1.828328
  O       4.648958     -4.092276      2.104410
  N       5.151849     -1.879045      1.984535
  C       5.819242     -0.703246      1.573283
  C       5.681086      0.452017      2.365023
  C       6.273257      1.652855      1.972125
  C       7.027786      1.720020      0.795941
  C       7.165321      0.574294      0.007903
  C       6.557420     -0.628964      0.378700
  H       6.973111     -4.492609      1.404353
  H       7.482217     -2.850799      1.451222
  H       4.289553     -1.757848      2.501159
  H       5.114714      0.397671      3.291427
  H       6.154095      2.534084      2.596577
  H       7.496337      2.652521      0.496242
  H       7.733954      0.614734     -0.917293
  H       6.634841     -1.498289     -0.265718
  O      -0.473480      2.834725     -0.369831
  N      -2.750349      0.744215     -0.878525
  N       0.745310      0.967338      0.233089
  N      -0.056176     -1.268765      0.211055
  N      -2.381696     -1.437993     -0.498734
  N       2.113334     -0.801556      0.934051
  C      -1.444141      0.632539     -0.448394
  C      -1.238272     -0.730332     -0.217197
  C      -0.431188      1.613023     -0.226868
  C       0.889043     -0.395083      0.424831
  C      -3.254682     -0.525461     -0.888326
  H      -3.222648      1.601324     -1.128828
  H       1.497964      1.598682      0.484065
  H      -4.272907     -0.733367     -1.189426
  H       2.202726     -1.811924      0.909904
  H       2.931058     -0.330358      0.561357
34
Coordinates from ORCA-job phenylurea_guanine_opt_freq E -998.371815193556
  N       6.704449     -3.512945      1.316224
  C       5.455132     -3.219606      1.817527
  O       4.632824     -4.085297      2.101986
  N       5.139991     -1.873865      1.978972
  C       5.811197     -0.698062      1.574044
  C       5.679543      0.452572      2.373216
  C       6.276233      1.653228      1.986729
  C       7.028532      1.724605      0.809250
  C       7.158831      0.583548      0.013112
  C       6.546483     -0.619363      0.377752
  H       6.945798     -4.491889      1.377145
  H       7.462624     -2.854141      1.427270
  H       4.285342     -1.751530      2.507706
  H       5.114301      0.395871      3.300146
  H       6.162432      2.531063      2.616799
  H       7.500751      2.656874      0.514683
  H       7.725155      0.627887     -0.913193
  H       6.618235     -1.484282     -0.273034
  O      -0.453890      2.824215     -0.416177
  N      -2.740354      0.736629     -0.882597
  N       0.759997      0.962617      0.213816
  N      -0.051451     -1.270251      0.229326
  N      -2.380183     -1.441206     -0.469921
  N       2.119676     -0.804019      0.937945
  C      -1.432977      0.625588     -0.455614
  C      -1.232496     -0.734320     -0.203861
  C      -0.415185      1.604758     -0.252602
  C       0.898746     -0.397673      0.427717
  C      -3.251153     -0.530343     -0.867968
  H      -3.209598      1.591598     -1.145472
  H       1.515946      1.595017      0.451191
  H      -4.271907     -0.737774     -1.160586
  H       2.212317     -1.814442      0.932374
  H       2.942111     -0.332007      0.580550
34
Coordinates from ORCA-job phenylurea_guanine_opt_freq E -998.371876873496
  N       6.675350     -3.508812      1.281627
  C       5.436253     -3.212511      1.807060
  O       4.615802     -4.075587      2.104665
  N       5.125829     -1.866145      1.974632
  C       5.801143     -0.690379      1.576706
  C       5.680018      0.454088      2.385938
  C       6.282103      1.654393      2.006782
  C       7.028965      1.731569      0.826182
  C       7.147810      0.596796      0.019209
  C       6.530223     -0.605559      0.376836
  H       6.913121     -4.488828      1.343439
  H       7.438378     -2.855469      1.393767
  H       4.282598     -1.744118      2.521832
  H       5.118157      0.394453      3.314723
  H       6.176914      2.527700      2.644484
  H       7.505557      2.663469      0.537614
  H       7.709151      0.646356     -0.909756
  H       6.593201     -1.464258     -0.282861
  O      -0.425455      2.807829     -0.474302
  N      -2.727798      0.730224     -0.886095
  N       0.779833      0.951419      0.187336
  N      -0.049600     -1.274163      0.253627
  N      -2.383161     -1.442089     -0.431310
  N       2.126854     -0.811992      0.941728
  C      -1.419112      0.616779     -0.463714
  C      -1.228338     -0.739296     -0.185813
  C      -0.393011      1.591669     -0.284328
  C       0.908834     -0.405530      0.429911
  C      -3.247930     -0.532371     -0.845484
  H      -3.192039      1.583097     -1.164101
  H       1.542580      1.581825      0.407450
  H      -4.271764     -0.736841     -1.129280
  H       2.223218     -1.821716      0.953524
  H       2.953768     -0.342945      0.592429
34
Coordinates from ORCA-job phenylurea_guanine_opt_freq E -998.371942252353
  N       6.641602     -3.501449      1.242254
  C       5.415794     -3.202583      1.797780
  O       4.599044     -4.063160      2.112030
  N       5.110360     -1.855676      1.972585
  C       5.790511     -0.680355      1.582197
  C       5.685034      0.456074      2.404479
  C       6.293229      1.655772      2.033187
  C       7.030339      1.740411      0.847057
  C       7.132779      0.613776      0.026490
  C       6.509118     -0.587666      0.376565
  H       6.876572     -4.482397      1.304210
  H       7.409769     -2.853189      1.351078
  H       4.282802     -1.735202      2.543907
  H       5.130008      0.392284      3.337087
  H       6.200520      2.523162      2.680785
  H       7.511759      2.671766      0.564868
  H       7.685950      0.669751     -0.906969
  H       6.559687     -1.438566     -0.294182
  O      -0.390218      2.785619     -0.542231
  N      -2.713600      0.724611     -0.891258
  N       0.802944      0.933448      0.153591
  N      -0.050699     -1.280703      0.280739
  N      -2.390053     -1.440570     -0.388224
  N       2.134292     -0.824886      0.944650
  C      -1.403837      0.606217     -0.473992
  C      -1.226381     -0.744851     -0.165293
  C      -0.366069      1.573675     -0.324049
  C       0.918166     -0.418767      0.429861
  C      -3.247942     -0.530506     -0.815918
  H      -3.170581      1.575009     -1.188157
  H       1.575128      1.558873      0.354030
  H      -4.275945     -0.729457     -1.088366
  H       2.232715     -1.834012      0.970159
  H       2.964653     -0.363398      0.593502
34
Coordinates from ORCA-job phenylurea_guanine_opt_freq E -998.372013935820
  N       6.605948     -3.491670      1.202320
  C       5.395993     -3.190388      1.792012
  O       4.585105     -4.048869      2.126102
  N       5.096272     -1.842899      1.974725
  C       5.781788     -0.668748      1.590483
  C       5.699272      0.457848      2.428643
  C       6.313063      1.656640      2.063665
  C       7.032704      1.750299      0.867649
  C       7.111786      0.633654      0.031078
  C       6.482430     -0.566557      0.375166
  H       6.839361     -4.473293      1.262752
  H       7.379135     -2.847431      1.300773
  H       4.288789     -1.724082      2.574636
  H       5.157418      0.387978      3.368496
  H       6.238198      2.516521      2.723429
  H       7.518284      2.680948      0.590344
  H       7.650997      0.696933     -0.910030
  H       6.514868     -1.408486     -0.307911
  O      -0.351143      2.760056     -0.611432
  N      -2.699365      0.720252     -0.898849
  N       0.825161      0.910498      0.120215
  N      -0.055737     -1.288915      0.309512
  N      -2.400222     -1.436108     -0.344965
  N       2.139139     -0.841722      0.950326
  C      -1.389110      0.595316     -0.485662
  C      -1.226738     -0.749989     -0.145290
  C      -0.338597      1.553257     -0.364749
  C       0.924071     -0.435827      0.430923
  C      -3.248259     -0.526454     -0.792743
  H      -3.147890      1.568300     -1.214703
  H       1.607635      1.528903      0.301123
  H      -4.279790     -0.718954     -1.056314
  H       2.236166     -1.850717      0.986991
  H       2.970718     -0.393237      0.585738
34
Coordinates from ORCA-job phenylurea_guanine_opt_freq E -998.372090723552
  N       6.567884     -3.479262      1.163510
  C       5.375480     -3.175711      1.788338
  O       4.571159     -4.032549      2.141452
  N       5.083427     -1.827658      1.980558
  C       5.775957     -0.655847      1.601503
  C       5.724271      0.458665      2.458241
  C       6.344219      1.655815      2.098507
  C       7.039393      1.759838      0.889025
  C       7.087921      0.655402      0.034295
  C       6.451921     -0.542771      0.373382
  H       6.800209     -4.461569      1.218319
  H       7.345812     -2.838214      1.245545
  H       4.299027     -1.709606      2.610516
  H       5.201279      0.380423      3.408058
  H       6.292873      2.506255      2.772617
  H       7.529401      2.689267      0.615457
  H       7.608110      0.726689     -0.916935
  H       6.460288     -1.374763     -0.322629
  O      -0.312415      2.731978     -0.682678
  N      -2.686974      0.714151     -0.910407
  N       0.844278      0.885468      0.087296
  N      -0.062967     -1.297405      0.337530
  N      -2.411185     -1.431422     -0.305607
  N       2.141644     -0.858768      0.957710
  C      -1.376670      0.583568     -0.499557
  C      -1.229003     -0.754779     -0.126455
  C      -0.313729      1.531358     -0.407749
  C       0.927285     -0.453764      0.431805
  C      -3.250603     -0.522783     -0.771192
  H      -3.126552      1.559201     -1.246265
  H       1.636151      1.497267      0.248779
  H      -4.285324     -0.709458     -1.026315
  H       2.231303     -1.868023      1.005937
  H       2.973583     -0.427933      0.571862
34
Coordinates from ORCA-job phenylurea_guanine_opt_freq E -998.372174590351
  N       6.529884     -3.464134      1.127488
  C       5.356013     -3.159075      1.786562
  O       4.558988     -4.015142      2.157219
  N       5.073031     -1.810722      1.989496
  C       5.773373     -0.642050      1.613858
  C       5.759269      0.458279      2.490388
  C       6.385462      1.653152      2.134304
  C       7.049654      1.768651      0.908600
  C       7.061332      0.678470      0.034748
  C       6.418324     -0.516968      0.370492
  H       6.761370     -4.447107      1.172526
  H       7.311643     -2.825423      1.188603
  H       4.313197     -1.692068      2.648631
  H       5.260336      0.369468      3.452129
  H       6.362645      2.492355      2.823893
  H       7.544109      2.696373      0.637222
  H       7.557607      0.758471     -0.928522
  H       6.397331     -1.338356     -0.337949
  O      -0.274241      2.702571     -0.750630
  N      -2.676385      0.707466     -0.926317
  N       0.859250      0.859181      0.059407
  N      -0.072923     -1.306317      0.362585
  N      -2.423564     -1.425935     -0.271925
  N       2.139546     -0.877989      0.968101
  C      -1.366531      0.571713     -0.515650
  C      -1.233054     -0.759277     -0.111736
  C      -0.292139      1.508852     -0.449211
  C       0.927272     -0.472359      0.434293
  C      -3.253632     -0.519504     -0.757851
  H      -3.106446      1.549770     -1.280907
  H       1.658403      1.465833      0.203544
  H      -4.290841     -0.700944     -1.006503
  H       2.217850     -1.887219      1.036769
  H       2.971318     -0.466958      0.560796
34
Coordinates from ORCA-job phenylurea_guanine_opt_freq E -998.372275666865
  N       6.486959     -3.445949      1.092414
  C       5.332342     -3.138337      1.783391
  O       4.539846     -3.992797      2.167273
  N       5.063245     -1.789422      2.001105
  C       5.774971     -0.625819      1.628670
  C       5.809159      0.456306      2.527279
  C       6.445095      1.646919      2.174751
  C       7.071355      1.775445      0.930430
  C       7.035724      0.703489      0.035137
  C       6.381865     -0.487029      0.367748
  H       6.714439     -4.430311      1.120966
  H       7.272902     -2.810688      1.129752
  H       4.328755     -1.668665      2.687635
  H       5.339293      0.354753      3.502333
  H       6.459038      2.471807      2.881673
  H       7.573099      2.699838      0.661021
  H       7.502481      0.793671     -0.941953
  H       6.322981     -1.295229     -0.353870
  O      -0.241880      2.669906     -0.823076
  N      -2.670030      0.694851     -0.947325
  N       0.868589      0.833903      0.032518
  N      -0.084390     -1.314179      0.386303
  N      -2.436090     -1.424044     -0.242009
  N       2.133672     -0.894356      0.979704
  C      -1.360655      0.557101     -0.534767
  C      -1.239021     -0.765134     -0.098776
  C      -0.276883      1.484679     -0.492824
  C       0.924709     -0.488674      0.437220
  C      -3.258606     -0.521965     -0.748270
  H      -3.091294      1.533226     -1.321317
  H       1.672362      1.438556      0.159131
  H      -4.297761     -0.700438     -0.990932
  H       2.193561     -1.902121      1.078879
  H       2.967620     -0.506234      0.554240
34
Coordinates from ORCA-job phenylurea_guanine_opt_freq E -998.372387173465
  N       6.438314     -3.421924      1.055534
  C       5.305085     -3.111885      1.778318
  O       4.515179     -3.963884      2.173003
  N       5.053128     -1.762877      2.014455
  C       5.778495     -0.605647      1.645696
  C       5.869463      0.453904      2.566981
  C       6.519247      1.638075      2.218401
  C       7.103202      1.781307      0.955209
  C       7.011762      0.731825      0.037634
  C       6.342952     -0.451331      0.367014
  H       6.658283     -4.408177      1.062471
  H       7.228637     -2.791529      1.068972
  H       4.344363     -1.639909      2.726837
  H       5.431769      0.338496      3.555382
  H       6.576818      2.445597      2.942925
  H       7.615733      2.700491      0.688213
  H       7.445457      0.834097     -0.953401
  H       6.240082     -1.243015     -0.368108
  O      -0.210840      2.630182     -0.901056
  N      -2.665828      0.679707     -0.971010
  N       0.875875      0.804181      0.003208
  N      -0.099401     -1.323807      0.408163
  N      -2.453068     -1.422485     -0.211782
  N       2.123609     -0.916030      0.988574
  C      -1.356875      0.538925     -0.556895
  C      -1.248331     -0.773260     -0.087680
  C      -0.263100      1.454830     -0.540227
  C       0.919753     -0.508077      0.438849
  C      -3.266838     -0.525023     -0.739708
  H      -3.077521      1.513820     -1.364677
  H       1.683810      1.406839      0.112232
  H      -4.308372     -0.699045     -0.975294
  H       2.164106     -1.919282      1.133059
  H       2.962502     -0.552031      0.553162
34
Coordinates from ORCA-job phenylurea_guanine_opt_freq E -998.372504016380
  N       6.384961     -3.394021      1.021181
  C       5.272068     -3.079188      1.769992
  O       4.477679     -3.925713      2.168482
  N       5.044268     -1.729921      2.030507
  C       5.787164     -0.581524      1.665865
  C       5.944408      0.450224      2.609207
  C       6.614303      1.624356      2.264722
  C       7.152933      1.783478      0.983308
  C       6.995897      0.761563      0.043640
  C       6.306042     -0.410314      0.369979
  H       6.590025     -4.383007      0.999564
  H       7.181225     -2.771503      1.013068
  H       4.357335     -1.605849      2.763491
  H       5.540943      0.321029      3.610408
  H       6.723208      2.411111      3.005987
  H       7.681393      2.694448      0.719157
  H       7.393734      0.877746     -0.960818
  H       6.152397     -1.180793     -0.378897
  O      -0.193772      2.586434     -0.980936
  N      -2.668366      0.657585     -0.997081
  N       0.875854      0.775665     -0.027906
  N      -0.117043     -1.332997      0.427424
  N      -2.472844     -1.426432     -0.184479
  N       2.108881     -0.933835      0.994600
  C      -1.359821      0.516169     -0.580515
  C      -1.261910     -0.784870     -0.078397
  C      -0.258226      1.421840     -0.588123
  C       0.910563     -0.525601      0.438570
  C      -3.279416     -0.535141     -0.733502
  H      -3.072615      1.485945     -1.410108
  H       1.686641      1.377298      0.065432
  H      -4.323023     -0.705857     -0.962393
  H       2.126343     -1.929200      1.187470
  H       2.956219     -0.596069      0.555553
34
Coordinates from ORCA-job phenylurea_guanine_opt_freq E -998.372625342919
  N       6.329888     -3.361891      0.987627
  C       5.237318     -3.042191      1.760508
  O       4.436180     -3.881762      2.161007
  N       5.034815     -1.693708      2.046045
  C       5.794805     -0.554372      1.686251
  C       6.014211      0.448679      2.647520
  C       6.705276      1.611827      2.307016
  C       7.203864      1.786713      1.011585
  C       6.985565      0.792911      0.053956
  C       6.273905     -0.366562      0.377395
  H       6.516958     -4.353230      0.937852
  H       7.132619     -2.748653      0.962726
  H       4.366171     -1.570153      2.795640
  H       5.641615      0.307247      3.658953
  H       6.862635      2.377545      3.061431
  H       7.749255      2.688587      0.750615
  H       7.352243      0.923032     -0.960553
  H       6.074549     -1.114877     -0.383276
  O      -0.174254      2.537058     -1.056993
  N      -2.669931      0.639815     -1.017296
  N       0.879008      0.738444     -0.063262
  N      -0.137287     -1.347024      0.443641
  N      -2.497594     -1.426630     -0.155336
  N       2.093978     -0.963684      0.992175
  C      -1.361580      0.491814     -0.602165
  C      -1.277989     -0.797981     -0.069366
  C      -0.249216      1.382863     -0.635079
  C       0.900885     -0.551994      0.433580
  C      -3.294786     -0.538210     -0.722347
  H      -3.065769      1.463495     -1.447418
  H       1.696010      1.333683      0.015588
  H      -4.341557     -0.700510     -0.942822
  H       2.095102     -1.948835      1.232505
  H       2.950556     -0.648388      0.556750
34
Coordinates from ORCA-job phenylurea_guanine_opt_freq E -998.372805079268
  N       6.267429     -3.324749      0.956570
  C       5.191206     -2.993774      1.742592
  O       4.366912     -3.819181      2.128505
  N       5.031320     -1.646943      2.066824
  C       5.812648     -0.520811      1.709642
  C       6.099618      0.447717      2.685164
  C       6.818211      1.595600      2.348141
  C       7.277755      1.786191      1.040625
  C       6.992078      0.824756      0.067292
  C       6.252368     -0.317128      0.389259
  H       6.420608     -4.318531      0.864249
  H       7.082257     -2.728743      0.922433
  H       4.367481     -1.527329      2.821850
  H       5.758386      0.295773      3.706090
  H       7.029386      2.337341      3.113303
  H       7.845306      2.675234      0.782887
  H       7.328115      0.969462     -0.955806
  H       6.003886     -1.038620     -0.382935
  O      -0.171343      2.483092     -1.128231
  N      -2.676663      0.612927     -1.042855
  N       0.873012      0.701123     -0.093931
  N      -0.162608     -1.363767      0.460015
  N      -2.526667     -1.435092     -0.132264
  N       2.069297     -0.990838      0.997215
  C      -1.370100      0.460257     -0.624260
  C      -1.299927     -0.817763     -0.062327
  C      -0.249198      1.338988     -0.677241
  C       0.883542     -0.579126      0.432970
  C      -3.314105     -0.550767     -0.719180
  H      -3.066009      1.430513     -1.490122
  H       1.695972      1.288996     -0.022627
  H      -4.363050     -0.705129     -0.935266
  H       2.052543     -1.964513      1.278894
  H       2.937784     -0.692106      0.576978
34
Coordinates from ORCA-job phenylurea_guanine_opt_freq E -998.372979216019
  N       6.160194     -3.271328      0.894713
  C       5.115940     -2.925500      1.714435
  O       4.269486     -3.729562      2.097728
  N       5.009801     -1.584888      2.082772
  C       5.819225     -0.474592      1.737243
  C       6.184218      0.449289      2.732751
  C       6.935314      1.578958      2.403863
  C       7.351213      1.795189      1.085986
  C       6.989325      0.878921      0.093893
  C       6.216690     -0.243064      0.408010
  H       6.271626     -4.265876      0.761253
  H       6.991841     -2.700196      0.847662
  H       4.368398     -1.465556      2.856114
  H       5.878217      0.279051      3.761868
  H       7.207149      2.286577      3.182073
  H       7.944297      2.669363      0.835055
  H       7.292166      1.046128     -0.936090
  H       5.912529     -0.926540     -0.378827
  O      -0.124707      2.386776     -1.249747
  N      -2.666405      0.585823     -1.062192
  N       0.893728      0.625007     -0.154819
  N      -0.186864     -1.389435      0.496987
  N      -2.559417     -1.426749     -0.068968
  N       2.057122     -1.050337      0.994484
  C      -1.360129      0.416099     -0.650120
  C      -1.316642     -0.838789     -0.036190
  C      -0.218298      1.263397     -0.749794
  C       0.877920     -0.633360      0.427202
  C      -3.329953     -0.546697     -0.684309
  H      -3.041780      1.393535     -1.538315
  H       1.733646      1.191005     -0.111803
  H      -4.384769     -0.681401     -0.884547
  H       2.027228     -2.007823      1.325486
  H       2.939144     -0.770365      0.590596
34
Coordinates from ORCA-job phenylurea_guanine_opt_freq E -998.373332662936
  N       5.981122     -3.194229      0.793727
  C       4.980938     -2.808946      1.647695
  O       4.069872     -3.557397      1.999080
  N       4.996823     -1.490095      2.102893
  C       5.843209     -0.407532      1.762949
  C       6.288401      0.458093      2.773170
  C       7.082161      1.562948      2.456284
  C       7.461879      1.808038      1.133163
  C       7.019933      0.945618      0.124222
  C       6.204643     -0.147790      0.428839
  H       5.997316     -4.181465      0.583594
  H       6.852584     -2.686066      0.749495
  H       4.358104     -1.374378      2.880177
  H       6.016218      0.270515      3.808558
  H       7.418133      2.229356      3.245780
  H       8.088235      2.661559      0.892486
  H       7.295478      1.137317     -0.909101
  H       5.844126     -0.782133     -0.375060
  O      -0.059679      2.248552     -1.368260
  N      -2.632060      0.534493     -1.104340
  N       0.921472      0.517722     -0.187761
  N      -0.223092     -1.427831      0.574005
  N      -2.595071     -1.427937     -0.008860
  N       2.025486     -1.125841      1.060066
  C      -1.335325      0.343456     -0.675800
  C      -1.335227     -0.877335      0.003008
  C      -0.167322      1.151569     -0.811012
  C       0.861872     -0.709553      0.468155
  C      -3.333806     -0.556442     -0.674067
  H      -2.986320      1.325612     -1.622460
  H       1.786395      1.044782     -0.159850
  H      -4.390941     -0.665682     -0.877643
  H       2.003735     -2.076207      1.412097
  H       2.918155     -0.829713      0.699226
34
Coordinates from ORCA-job phenylurea_guanine_opt_freq E -998.373672261887
  N       5.970463     -3.187836      0.794717
  C       4.969068     -2.791879      1.644225
  O       4.046161     -3.530640      1.985772
  N       5.001111     -1.474917      2.101482
  C       5.854682     -0.398771      1.759935
  C       6.294469      0.469173      2.770233
  C       7.091572      1.571787      2.455299
  C       7.480282      1.812194      1.133859
  C       7.044918      0.946421      0.125528
  C       6.226301     -0.145215      0.427762
  H       5.977972     -4.174416      0.581792
  H       6.846113     -2.687351      0.750687
  H       4.359473     -1.349956      2.874092
  H       6.014764      0.282430      3.803701
  H       7.421500      2.239505      3.246100
  H       8.108193      2.664774      0.893955
  H       7.327542      1.132389     -0.906817
  H       5.869790     -0.783960     -0.374382
  O      -0.048720      2.247391     -1.345018
  N      -2.636107      0.539286     -1.102075
  N       0.915267      0.500482     -0.175067
  N      -0.239510     -1.444327      0.571951
  N      -2.606893     -1.430384     -0.020513
  N       2.013826     -1.153116      1.062566
  C      -1.340606      0.341574     -0.672235
  C      -1.345487     -0.884186     -0.001932
  C      -0.169043      1.146799     -0.799388
  C       0.848254     -0.729941      0.471999
  C      -3.341895     -0.553070     -0.682128
  H      -2.985661      1.335427     -1.615594
  H       1.782766      1.022867     -0.145816
  H      -4.398623     -0.659331     -0.888887
  H       2.001509     -2.108776      1.401488
  H       2.903997     -0.851368      0.697165
34
Coordinates from ORCA-job phenylurea_guanine_opt_freq E -998.374239876000
  N       5.912256     -3.160865      0.776202
  C       4.916096     -2.729150      1.617659
  O       3.960001     -3.435947      1.935284
  N       5.005518     -1.422601      2.087080
  C       5.892203     -0.371785      1.748730
  C       6.330815      0.492265      2.766147
  C       7.153538      1.577810      2.462692
  C       7.569092      1.806140      1.146884
  C       7.136892      0.945242      0.134678
  C       6.293154     -0.131334      0.423327
  H       5.888163     -4.145567      0.556550
  H       6.805941     -2.692932      0.738984
  H       4.366815     -1.265858      2.856062
  H       6.026892      0.305254      3.792837
  H       7.478261      2.238901      3.261198
  H       8.214782      2.647179      0.913429
  H       7.439466      1.118339     -0.894328
  H       5.934082     -0.770400     -0.377276
  O      -0.044219      2.238704     -1.295310
  N      -2.656465      0.519953     -1.112074
  N       0.883167      0.472017     -0.130917
  N      -0.279184     -1.479720      0.578152
  N      -2.631041     -1.459672     -0.052568
  N       1.972998     -1.188568      1.099720
  C      -1.364771      0.325079     -0.666451
  C      -1.372380     -0.908906     -0.010023
  C      -0.193829      1.134995     -0.769718
  C       0.809849     -0.763417      0.497576
  C      -3.362369     -0.580445     -0.715163
  H      -2.997300      1.321162     -1.623655
  H       1.748474      0.998332     -0.102434
  H      -4.415250     -0.693871     -0.936766
  H       1.983581     -2.157891      1.397586
  H       2.852222     -0.869388      0.720360
34
Coordinates from ORCA-job phenylurea_guanine_opt_freq E -998.374252057599
  N       6.016473     -3.203130      0.837561
  C       4.981418     -2.768050      1.629935
  O       4.029768     -3.488825      1.929551
  N       5.035165     -1.448900      2.066895
  C       5.916126     -0.397272      1.723946
  C       6.283415      0.507413      2.728122
  C       7.097809      1.599827      2.428608
  C       7.573465      1.792889      1.127354
  C       7.209506      0.889591      0.126333
  C       6.374759     -0.195014      0.411336
  H       6.021314     -4.194939      0.650660
  H       6.904596     -2.723289      0.828195
  H       4.368784     -1.278230      2.809493
  H       5.930637      0.344198      3.743189
  H       7.367452      2.292731      3.220541
  H       8.212748      2.639367      0.895890
  H       7.557286      1.032694     -0.892904
  H       6.063662     -0.869996     -0.379537
  O      -0.126430      2.328675     -1.175004
  N      -2.707923      0.539816     -1.090143
  N       0.825635      0.533232     -0.079801
  N      -0.291781     -1.475005      0.527439
  N      -2.636985     -1.484041     -0.121525
  N       1.950592     -1.153185      1.083892
  C      -1.413677      0.358984     -0.644271
  C      -1.393384     -0.903320     -0.043543
  C      -0.263331      1.200857     -0.702452
  C       0.780893     -0.728686      0.489364
  C      -3.386856     -0.595329     -0.749335
  H      -3.062516      1.355286     -1.568811
  H       1.673131      1.086163     -0.027633
  H      -4.434877     -0.727556     -0.982996
  H       1.980408     -2.136540      1.332672
  H       2.820167     -0.817360      0.691431
34
Coordinates from ORCA-job phenylurea_guanine_opt_freq E -998.374576410521
  N       5.941385     -3.153361      0.807600
  C       4.917927     -2.683776      1.592397
  O       3.927616     -3.365063      1.863180
  N       5.030470     -1.376774      2.056991
  C       5.956992     -0.355654      1.733861
  C       6.363168      0.518202      2.753441
  C       7.228251      1.575707      2.471455
  C       7.717018      1.763953      1.174429
  C       7.315247      0.892834      0.159324
  C       6.430107     -0.155969      0.426027
  H       5.899265     -4.138791      0.594519
  H       6.850312     -2.714440      0.813465
  H       4.360473     -1.187280      2.791713
  H       5.999194      0.358044      3.765009
  H       7.527666      2.244549      3.273269
  H       8.396554      2.582292      0.956849
  H       7.673288      1.034671     -0.856483
  H       6.091967     -0.803955     -0.376164
  O      -0.180892      2.285812     -1.216114
  N      -2.755613      0.491851     -1.100453
  N       0.781509      0.508271     -0.101063
  N      -0.327183     -1.496570      0.529935
  N      -2.675711     -1.521067     -0.108893
  N       1.912681     -1.164593      1.079765
  C      -1.459119      0.319739     -0.656448
  C      -1.432853     -0.936120     -0.042142
  C      -0.312025      1.163256     -0.727973
  C       0.744804     -0.747268      0.482958
  C      -3.429715     -0.641033     -0.743978
  H      -3.113689      1.300992     -1.587115
  H       1.625193      1.067925     -0.059602
  H      -4.478448     -0.778117     -0.971807
  H       1.942133     -2.144621      1.343852
  H       2.789479     -0.830589      0.702653
34
Coordinates from ORCA-job phenylurea_guanine_opt_freq E -998.374757637356
  N       5.903283     -3.126242      0.779286
  C       4.888412     -2.636479      1.562014
  O       3.882571     -3.294137      1.828831
  N       5.021914     -1.334718      2.032145
  C       5.982484     -0.336783      1.734523
  C       6.402919      0.519461      2.767888
  C       7.306063      1.549820      2.505253
  C       7.819176      1.729941      1.216654
  C       7.403047      0.879882      0.189132
  C       6.480687     -0.141692      0.435263
  H       5.838105     -4.111334      0.568874
  H       6.825628     -2.716027      0.806234
  H       4.359061     -1.130188      2.768971
  H       6.018992      0.367935      3.773491
  H       7.616621      2.204474      3.314618
  H       8.528914      2.526446      1.014783
  H       7.780078      1.018809     -0.820287
  H       6.133445     -0.769437     -0.378947
  O      -0.253874      2.267064     -1.256488
  N      -2.802086      0.447285     -1.103540
  N       0.739990      0.517050     -0.124781
  N      -0.341731     -1.492935      0.534413
  N      -2.695320     -1.553581     -0.089190
  N       1.892062     -1.131211      1.073215
  C      -1.501811      0.294664     -0.663454
  C      -1.458298     -0.954040     -0.035764
  C      -0.365144      1.149115     -0.750788
  C       0.722208     -0.731921      0.474814
  C      -3.461660     -0.688544     -0.730051
  H      -3.171321      1.245944     -1.599165
  H       1.576317      1.089007     -0.095973
  H      -4.510274     -0.838566     -0.950660
  H       1.926665     -2.109197      1.343309
  H       2.770327     -0.796808      0.699832
34
Coordinates from ORCA-job phenylurea_guanine_opt_freq E -998.374970767918
  N       5.929135     -3.121500      0.787996
  C       4.897804     -2.608350      1.532656
  O       3.875341     -3.249074      1.776655
  N       5.031758     -1.302545      1.991688
  C       6.023771     -0.327756      1.721719
  C       6.417466      0.535020      2.759694
  C       7.354028      1.541823      2.522614
  C       7.926138      1.691889      1.255407
  C       7.534561      0.836745      0.222051
  C       6.580203     -0.160944      0.442370
  H       5.853644     -4.109927      0.596036
  H       6.859303     -2.734140      0.859697
  H       4.350224     -1.080389      2.706671
  H       5.987983      0.409674      3.750491
  H       7.645172      2.202364      3.334490
  H       8.662257      2.469245      1.074183
  H       7.957171      0.954891     -0.771895
  H       6.253772     -0.788622     -0.380259
  O      -0.374012      2.288422     -1.237001
  N      -2.877958      0.418184     -1.089374
  N       0.667275      0.549042     -0.130767
  N      -0.369626     -1.489807      0.510374
  N      -2.726861     -1.593161     -0.100577
  N       1.856127     -1.091122      1.044603
  C      -1.572950      0.285587     -0.657781
  C      -1.501630     -0.969311     -0.045384
  C      -0.454031      1.162399     -0.741019
  C       0.678750     -0.706722      0.455192
  C      -3.512900     -0.735070     -0.726599
  H      -3.265494      1.214465     -1.574789
  H       1.491417      1.138619     -0.099861
  H      -4.559690     -0.901919     -0.944073
  H       1.908861     -2.070286      1.306785
  H       2.730439     -0.744666      0.672461
34
Coordinates from ORCA-job phenylurea_guanine_opt_freq E -998.375203198119
  N       5.955273     -3.102872      0.796595
  C       4.903005     -2.550259      1.482850
  O       3.854076     -3.162093      1.688232
  N       5.045857     -1.238889      1.922894
  C       6.090113     -0.306448      1.699977
  C       6.447999      0.564600      2.744283
  C       7.435399      1.531246      2.550015
  C       8.093152      1.633571      1.320253
  C       7.735857      0.771865      0.279809
  C       6.732461     -0.185482      0.456480
  H       5.860759     -4.095421      0.634598
  H       6.892342     -2.749686      0.932236
  H       4.338816     -0.988303      2.603465
  H       5.952237      0.478205      3.708064
  H       7.698924      2.198559      3.365794
  H       8.868386      2.379466      1.172912
  H       8.225065      0.854878     -0.686789
  H       6.435247     -0.814430     -0.375994
  O      -0.536716      2.309225     -1.204677
  N      -2.988839      0.375650     -1.068170
  N       0.559586      0.579772     -0.136367
  N      -0.420669     -1.494712      0.479261
  N      -2.780132     -1.648148     -0.115591
  N       1.798201     -1.048643      1.003404
  C      -1.677998      0.268332     -0.648529
  C      -1.570511     -0.994558     -0.058382
  C      -0.581315      1.173276     -0.726039
  C       0.607061     -0.684766      0.428610
  C      -3.592003     -0.799482     -0.720987
  H      -3.399428      1.169144     -1.538992
  H       1.369403      1.188729     -0.103935
  H      -4.635975     -0.988311     -0.934054
  H       1.882421     -2.028885      1.253144
  H       2.659400     -0.682071      0.620082
34
Coordinates from ORCA-job phenylurea_guanine_opt_freq E -998.375416993512
  N       5.992206     -3.086674      0.808251
  C       4.920188     -2.500013      1.437576
  O       3.854430     -3.090792      1.615101
  N       5.060439     -1.178074      1.844610
  C       6.152404     -0.289060      1.676741
  C       6.479662      0.585493      2.729311
  C       7.511614      1.512892      2.581829
  C       8.243882      1.573858      1.391931
  C       7.916577      0.710230      0.343152
  C       6.870127     -0.207815      0.471957
  H       5.886655     -4.084687      0.689794
  H       6.927720     -2.753400      0.997547
  H       4.334691     -0.903736      2.495014
  H       5.926135      0.532385      3.663672
  H       7.750767      2.182784      3.402958
  H       9.052760      2.289772      1.281401
  H       8.464195      0.762024     -0.593823
  H       6.599388     -0.836647     -0.369531
  O      -0.694044      2.324640     -1.194354
  N      -3.098658      0.333802     -1.044411
  N       0.455685      0.611150     -0.156425
  N      -0.468544     -1.491816      0.452532
  N      -2.831437     -1.693015     -0.113373
  N       1.748382     -0.996063      0.950417
  C      -1.780872      0.252925     -0.642214
  C      -1.636758     -1.012463     -0.065602
  C      -0.705178      1.183708     -0.725942
  C       0.538252     -0.658072      0.394785
  C      -3.670515     -0.858326     -0.700944
  H      -3.533375      1.121159     -1.503725
  H       1.253556      1.235576     -0.127163
  H      -4.712406     -1.069157     -0.903025
  H       1.859390     -1.973712      1.199526
  H       2.590132     -0.615815      0.536880
34
Coordinates from ORCA-job phenylurea_guanine_opt_freq E -998.375569901404
  N       5.989114     -3.059743      0.806394
  C       4.913132     -2.436757      1.396173
  O       3.827944     -3.000056      1.548578
  N       5.073689     -1.110538      1.785560
  C       6.206045     -0.263922      1.662231
  C       6.528376      0.594762      2.728627
  C       7.598482      1.483474      2.620620
  C       8.373312      1.521082      1.456829
  C       8.050730      0.672840      0.394125
  C       6.966945     -0.205604      0.483083
  H       5.862166     -4.057850      0.709473
  H       6.925999     -2.747633      1.023920
  H       4.334026     -0.819959      2.413618
  H       5.941964      0.559295      3.643521
  H       7.833253      2.141548      3.452477
  H       9.210746      2.207603      1.377064
  H       8.631698      0.706775     -0.523355
  H       6.702095     -0.822148     -0.369351
  O      -0.801514      2.312553     -1.220401
  N      -3.176838      0.289453     -1.036276
  N       0.380241      0.621186     -0.181317
  N      -0.509600     -1.491458      0.450340
  N      -2.873956     -1.726933     -0.094173
  N       1.708065     -0.958560      0.920451
  C      -1.854854      0.228954     -0.645512
  C      -1.688841     -1.029911     -0.061180
  C      -0.792066      1.174780     -0.745250
  C       0.483783     -0.644845      0.376626
  C      -3.729837     -0.908173     -0.680140
  H      -3.627379      1.067412     -1.496328
  H       1.172728      1.252311     -0.158297
  H      -4.770288     -1.134533     -0.872243
  H       1.837072     -1.931410      1.179946
  H       2.531016     -0.570936      0.478622
34
Coordinates from ORCA-job phenylurea_guanine_opt_freq E -998.375714852871
  N       5.996971     -3.044862      0.805744
  C       4.919910     -2.408334      1.382571
  O       3.833078     -2.964111      1.542322
  N       5.078920     -1.073549      1.740552
  C       6.229913     -0.250594      1.656796
  C       6.557438      0.580240      2.744119
  C       7.648272      1.446364      2.665870
  C       8.438865      1.488153      1.512559
  C       8.112503      0.666409      0.430550
  C       7.007778     -0.188189      0.488953
  H       5.872196     -4.045516      0.735955
  H       6.933821     -2.725679      1.013240
  H       4.343184     -0.774480      2.367390
  H       5.957808      0.539022      3.650054
  H       7.885549      2.082857      3.513647
  H       9.291592      2.157890      1.455932
  H       8.706353      0.702427     -0.478569
  H       6.739761     -0.787471     -0.375129
  O      -0.859963      2.286402     -1.302477
  N      -3.229659      0.261608     -1.022176
  N       0.341531      0.622699     -0.241532
  N      -0.529854     -1.477062      0.458124
  N      -2.903368     -1.727320     -0.031833
  N       1.699412     -0.924451      0.867213
  C      -1.900085      0.214428     -0.655883
  C      -1.719751     -1.028065     -0.041975
  C      -0.841783      1.161393     -0.800441
  C       0.458533     -0.630652      0.343331
  C      -3.773218     -0.926708     -0.622616
  H      -3.691998      1.026921     -1.491651
  H       1.134163      1.253776     -0.240874
  H      -4.816628     -1.160505     -0.787509
  H       1.830079     -1.886916      1.162075
  H       2.506124     -0.553067      0.380124
34
Coordinates from ORCA-job phenylurea_guanine_opt_freq E -998.375827112342
  N       5.990000     -3.009423      0.801650
  C       4.912825     -2.352944      1.354296
  O       3.816104     -2.893434      1.500710
  N       5.087525     -1.015615      1.700156
  C       6.265169     -0.225294      1.653404
  C       6.599137      0.577352      2.759357
  C       7.719860      1.407140      2.714316
  C       8.533641      1.437941      1.576912
  C       8.201631      0.642926      0.476772
  C       7.067549     -0.173932      0.501620
  H       5.856116     -4.009092      0.737694
  H       6.928166     -2.695645      1.010823
  H       4.344463     -0.704054      2.313503
  H       5.979990      0.542143      3.652309
  H       7.961417      2.022653      3.576271
  H       9.409414      2.079041      1.546373
  H       8.813874      0.670894     -0.420365
  H       6.793962     -0.752872     -0.374645
  O      -0.936763      2.254174     -1.377129
  N      -3.291373      0.223411     -1.007568
  N       0.291156      0.620819     -0.299492
  N      -0.555132     -1.467339      0.461366
  N      -2.936021     -1.739499      0.023818
  N       1.678785     -0.894883      0.816790
  C      -1.954530      0.191471     -0.665532
  C      -1.756284     -1.035195     -0.025826
  C      -0.905072      1.140981     -0.850607
  C       0.426924     -0.618736      0.310230
  C      -3.821017     -0.957227     -0.569140
  H      -3.766814      0.976085     -1.484321
  H       1.078932      1.257603     -0.322256
  H      -4.866206     -1.199946     -0.707912
  H       1.815213     -1.848425      1.136958
  H       2.474809     -0.538019      0.303921
34
Coordinates from ORCA-job phenylurea_guanine_opt_freq E -998.375993928999
  N       5.968424     -2.978732      0.779678
  C       4.899748     -2.301562      1.319838
  O       3.792800     -2.822054      1.460172
  N       5.098025     -0.963939      1.659067
  C       6.294428     -0.203639      1.651956
  C       6.630253      0.554529      2.784661
  C       7.776506      1.351177      2.782473
  C       8.611508      1.387703      1.660992
  C       8.276268      0.634658      0.532110
  C       7.117577     -0.146701      0.514792
  H       5.823855     -3.976082      0.709712
  H       6.911402     -2.670035      0.972078
  H       4.350757     -0.642106      2.263511
  H       5.992632      0.512040      3.664152
  H       8.020380      1.934263      3.666088
  H       9.506948      2.001835      1.664384
  H       8.904865      0.668816     -0.353466
  H       6.836682     -0.690811     -0.381302
  O      -1.007725      2.183735     -1.531523
  N      -3.344495      0.173347     -0.987022
  N       0.255021      0.612230     -0.402577
  N      -0.565028     -1.430357      0.496858
  N      -2.957146     -1.727865      0.144260
  N       1.675129     -0.839564      0.758912
  C      -1.997776      0.160305     -0.682447
  C      -1.779953     -1.027830      0.020433
  C      -0.957822      1.100519     -0.946808
  C       0.411670     -0.591086      0.272363
  C      -3.859558     -0.979587     -0.466277
  H      -3.835974      0.899107     -1.488572
  H       1.039924      1.249114     -0.474764
  H      -4.908144     -1.229276     -0.560435
  H       1.818843     -1.780821      1.110975
  H       2.457427     -0.508273      0.210182
34
Coordinates from ORCA-job phenylurea_guanine_opt_freq E -998.376130374975
  N       5.977318     -2.942489      0.769966
  C       4.905348     -2.250018      1.278197
  O       3.790981     -2.759039      1.401151
  N       5.111206     -0.909936      1.605248
  C       6.329456     -0.184154      1.645500
  C       6.652749      0.543165      2.800310
  C       7.823705      1.302462      2.846993
  C       8.693960      1.328533      1.752809
  C       8.370985      0.605295      0.600820
  C       7.188898     -0.137205      0.534901
  H       5.828119     -3.938946      0.700637
  H       6.919729     -2.635342      0.966439
  H       4.353310     -0.573151      2.189646
  H       5.985797      0.506753      3.658055
  H       8.058370      1.863208      3.747430
  H       9.608732      1.912112      1.794553
  H       9.028063      0.633211     -0.264093
  H       6.914714     -0.655929     -0.378277
  O      -1.106196      2.122256     -1.659079
  N      -3.413987      0.129788     -0.949356
  N       0.201147      0.606328     -0.505861
  N      -0.578924     -1.394686      0.511579
  N      -2.980358     -1.716742      0.253682
  N       1.663698     -0.786823      0.677176
  C      -2.057314      0.134585     -0.690558
  C      -1.810646     -1.019332      0.058677
  C      -1.032486      1.065701     -1.029448
  C       0.387242     -0.562748      0.217891
  C      -3.905719     -0.999219     -0.359143
  H      -3.924867      0.831602     -1.465409
  H       0.977029      1.245977     -0.632842
  H      -4.955728     -1.256401     -0.406130
  H       1.822565     -1.714181      1.059279
  H       2.430550     -0.481576      0.093711
34
Coordinates from ORCA-job phenylurea_guanine_opt_freq E -998.376267039693
  N       5.977676     -2.925376      0.745430
  C       4.907524     -2.223670      1.238270
  O       3.786402     -2.721495      1.347492
  N       5.120681     -0.886135      1.570060
  C       6.346749     -0.177294      1.645248
  C       6.658368      0.515947      2.823039
  C       7.838445      1.258317      2.909356
  C       8.727859      1.298692      1.831627
  C       8.416462      0.608641      0.655965
  C       7.226009     -0.115546      0.551178
  H       5.822209     -3.919119      0.658098
  H       6.921967     -2.621740      0.936357
  H       4.357561     -0.540673      2.141729
  H       5.976184      0.467444      3.668053
  H       8.065396      1.794026      3.826858
  H       9.649882      1.867792      1.904024
  H       9.090171      0.649343     -0.195537
  H       6.959739     -0.606530     -0.379672
  O      -1.161501      2.030394     -1.818460
  N      -3.451128      0.098854     -0.914785
  N       0.178336      0.581745     -0.617553
  N      -0.577048     -1.343103      0.552770
  N      -2.986819     -1.670096      0.389433
  N       1.669353     -0.738763      0.614447
  C      -2.086926      0.112084     -0.699612
  C      -1.820755     -0.993052      0.114231
  C      -1.070482      1.014169     -1.126848
  C       0.383079     -0.536646      0.176041
  C      -3.927949     -0.987467     -0.238737
  H      -3.974993      0.769757     -1.458201
  H       0.949961      1.208716     -0.814812
  H      -4.979753     -1.241757     -0.237102
  H       1.843429     -1.649508      1.029820
  H       2.421364     -0.464893     -0.003751
34
Coordinates from ORCA-job phenylurea_guanine_opt_freq E -998.376354429378
  N       5.982738     -2.886697      0.724178
  C       4.911603     -2.164170      1.180510
  O       3.777389     -2.641331      1.253826
  N       5.137352     -0.830218      1.516967
  C       6.384236     -0.160889      1.642743
  C       6.682924      0.497241      2.843821
  C       7.881737      1.201291      2.979799
  C       8.802223      1.237034      1.928369
  C       8.504304      0.581307      0.729773
  C       7.295786     -0.103106      0.575987
  H       5.811567     -3.876340      0.622957
  H       6.927555     -2.597678      0.933205
  H       4.360943     -0.469270      2.061090
  H       5.977194      0.452090      3.669372
  H       8.099622      1.711044      3.914085
  H       9.738501      1.776030      2.038688
  H       9.204319      0.619443     -0.100287
  H       7.043286     -0.566819     -0.372673
  O      -1.263990      1.928952     -1.969511
  N      -3.512706      0.047554     -0.879204
  N       0.121662      0.562251     -0.725669
  N      -0.586642     -1.286444      0.588249
  N      -2.997987     -1.635594      0.516543
  N       1.656408     -0.668579      0.545040
  C      -2.143096      0.080037     -0.706980
  C      -1.844941     -0.971577      0.165089
  C      -1.144831      0.957326     -1.219828
  C       0.356229     -0.501150      0.131469
  C      -3.961944     -0.997571     -0.123586
  H      -4.056272      0.680417     -1.448273
  H       0.881991      1.176420     -0.994043
  H      -5.011414     -1.256755     -0.075135
  H       1.858370     -1.559082      0.991091
  H       2.383334     -0.422109     -0.113206
34
Coordinates from ORCA-job phenylurea_guanine_opt_freq E -998.376499276884
  N       5.993216     -2.888435      0.708533
  C       4.919540     -2.161483      1.149569
  O       3.778824     -2.628995      1.192023
  N       5.147475     -0.836734      1.511177
  C       6.391974     -0.167311      1.654016
  C       6.687591      0.474257      2.865698
  C       7.883487      1.179820      3.014916
  C       8.806011      1.234575      1.965702
  C       8.512647      0.594707      0.757912
  C       7.306116     -0.090792      0.591695
  H       5.814129     -3.872856      0.577181
  H       6.938240     -2.608275      0.926822
  H       4.365470     -0.468795      2.038934
  H       5.982199      0.414889      3.690578
  H       8.099176      1.676960      3.956395
  H       9.739997      1.775595      2.085055
  H       9.215368      0.646948     -0.069015
  H       7.062033     -0.544808     -0.363905
  O      -1.290379      1.856617     -2.069124
  N      -3.528729      0.034215     -0.860333
  N       0.109814      0.542395     -0.786257
  N      -0.583458     -1.241752      0.621708
  N      -2.995583     -1.589076      0.597758
  N       1.661500     -0.632555      0.515989
  C      -2.157134      0.071082     -0.710050
  C      -1.847108     -0.942997      0.201718
  C      -1.163115      0.919502     -1.277798
  C       0.353482     -0.481341      0.114454
  C      -3.968294     -0.977737     -0.054852
  H      -4.078457      0.641329     -1.451124
  H       0.866122      1.136446     -1.106244
  H      -5.017137     -1.233011      0.019539
  H       1.875576     -1.511158      0.980576
  H       2.376856     -0.408167     -0.164793
34
Coordinates from ORCA-job phenylurea_guanine_opt_freq E -998.376577540052
  N       5.997280     -2.881483      0.711226
  C       4.922470     -2.140172      1.127056
  O       3.774819     -2.593375      1.137649
  N       5.159373     -0.821414      1.500368
  C       6.410318     -0.165059      1.657908
  C       6.701170      0.476603      2.870695
  C       7.902327      1.170338      3.029722
  C       8.835629      1.214274      1.988993
  C       8.547006      0.574494      0.780217
  C       7.335106     -0.099328      0.604362
  H       5.805888     -3.862522      0.572086
  H       6.940693     -2.615811      0.953032
  H       4.368269     -0.442747      2.007259
  H       5.987954      0.426487      3.689495
  H       8.114117      1.667322      3.972162
  H       9.773289      1.747150      2.115733
  H       9.257609      0.618121     -0.040450
  H       7.097729     -0.553894     -0.352616
  O      -1.332754      1.839103     -2.093596
  N      -3.551957      0.013514     -0.852150
  N       0.082951      0.549708     -0.802622
  N      -0.588971     -1.227097      0.625469
  N      -2.998057     -1.592487      0.616866
  N       1.652720     -0.601599      0.497645
  C      -2.180307      0.063148     -0.709072
  C      -1.857372     -0.940812      0.208933
  C      -1.194835      0.912224     -1.292469
  C       0.338661     -0.465564      0.105217
  C      -3.979406     -0.995552     -0.036147
  H      -4.109369      0.609053     -1.447525
  H       0.834348      1.142565     -1.135838
  H      -5.025785     -1.258234      0.045984
  H       1.879123     -1.477518      0.961938
  H       2.357414     -0.376379     -0.193074
34
Coordinates from ORCA-job phenylurea_guanine_opt_freq E -998.376679407979
  N       6.004775     -2.900225      0.726274
  C       4.927103     -2.145596      1.115698
  O       3.774364     -2.584442      1.088142
  N       5.171204     -0.835986      1.507835
  C       6.419108     -0.175041      1.662979
  C       6.699001      0.496023      2.862546
  C       7.896989      1.196021      3.014279
  C       8.839033      1.218872      1.979989
  C       8.560949      0.550214      0.784481
  C       7.352043     -0.130967      0.615103
  H       5.800137     -3.877995      0.582215
  H       6.943173     -2.652723      1.004643
  H       4.371493     -0.443747      1.989858
  H       5.979110      0.463817      3.676505
  H       8.099445      1.714879      3.946974
  H       9.773865      1.757761      2.101692
  H       9.276665      0.576358     -0.032533
  H       7.125465     -0.608873     -0.332917
  O      -1.354074      1.878569     -2.051066
  N      -3.558878      0.007682     -0.848183
  N       0.069448      0.582037     -0.775740
  N      -0.586553     -1.234536      0.609743
  N      -2.990959     -1.624451      0.585696
  N       1.651349     -0.583583      0.495680
  C      -2.188607      0.070621     -0.698610
  C      -1.857377     -0.950493      0.196274
  C      -1.209800      0.940398     -1.265234
  C       0.333641     -0.453921      0.108220
  C      -3.977574     -1.024976     -0.057202
  H      -4.121154      0.606925     -1.435250
  H       0.818513      1.185202     -1.095121
  H      -5.021342     -1.300241      0.015943
  H       1.885769     -1.468989      0.937792
  H       2.351125     -0.335537     -0.192252
34
Coordinates from ORCA-job phenylurea_guanine_opt_freq E -998.376653696337
  N       6.001208     -2.913762      0.763661
  C       4.930241     -2.107594      1.073627
  O       3.765540     -2.500068      0.965617
  N       5.207367     -0.812858      1.484226
  C       6.466309     -0.175817      1.654723
  C       6.710661      0.564123      2.824220
  C       7.922533      1.237977      2.986468
  C       8.912108      1.167216      1.998453
  C       8.668497      0.432026      0.833562
  C       7.448586     -0.225439      0.649181
  H       5.754619     -3.885202      0.638874
  H       6.920045     -2.715595      1.137110
  H       4.390329     -0.368726      1.894173
  H       5.950156      0.604109      3.601361
  H       8.095100      1.808349      3.895403
  H       9.857055      1.685273      2.132370
  H       9.419287      0.384100      0.048223
  H       7.248930     -0.754498     -0.277424
  O      -1.488703      1.975913     -1.935242
  N      -3.608156     -0.053175     -0.832959
  N      -0.010339      0.681996     -0.719213
  N      -0.581056     -1.245648      0.551220
  N      -2.965886     -1.741138      0.502850
  N       1.627321     -0.493805      0.474031
  C      -2.241334      0.065416     -0.674542
  C      -1.864881     -0.992272      0.156994
  C      -1.303586      1.008097     -1.196150
  C       0.304176     -0.397891      0.098747
  C      -3.979281     -1.150072     -0.106459
  H      -4.197912      0.549069     -1.389673
  H       0.717263      1.332825     -0.993545
  H      -5.010432     -1.474407     -0.050749
  H       1.905991     -1.392341      0.863850
  H       2.285693     -0.183124     -0.228533
34
Coordinates from ORCA-job phenylurea_guanine_opt_freq E -998.290583611385
  N       5.980851     -2.868998      0.765549
  C       4.919878     -2.130772      1.082069
  O       3.788003     -2.559529      0.977545
  N       5.144196     -0.850430      1.500728
  C       6.386478     -0.180835      1.673970
  C       6.656631      0.534722      2.783434
  C       7.836179      1.231276      2.911905
  C       8.775023      1.225948      1.965033
  C       8.519771      0.532075      0.877249
  C       7.329952     -0.152743      0.717786
  H       5.750426     -3.836627      0.623168
  H       6.862661     -2.646271      1.131433
  H       4.358066     -0.442093      1.893639
  H       5.941817      0.528671      3.532667
  H       8.024908      1.771120      3.760833
  H       9.695158      1.763768      2.073821
  H       9.241494      0.538130      0.131074
  H       7.136476     -0.649855     -0.158572
  O      -1.330892      1.840279     -1.795384
  N      -3.512784      0.045703     -0.744168
  N       0.097965      0.528544     -0.718045
  N      -0.540459     -1.260504      0.482414
  N      -2.935531     -1.587425      0.480592
  N       1.694367     -0.660936      0.338091
  C      -2.148446      0.076898     -0.621225
  C      -1.811799     -0.945057      0.145893
  C      -1.176202      0.912251     -1.122937
  C       0.367122     -0.507884      0.029248
  C      -3.922313     -0.970237     -0.070147
  H      -4.076639      0.649297     -1.252135
  H       0.848919      1.092238     -0.992260
  H      -4.960593     -1.217529     -0.007136
  H       1.945541     -1.498438      0.750876
  H       2.371224     -0.391697     -0.322556
34
Coordinates from ORCA-job phenylurea_guanine_opt_freq E -998.371997247773
  N       6.010204     -2.920349      0.758792
  C       4.933700     -2.148847      1.082655
  O       3.777379     -2.560641      0.986082
  N       5.173553     -0.854655      1.497471
  C       6.420604     -0.185464      1.671299
  C       6.667469      0.541321      2.825878
  C       7.860893      1.245926      2.981931
  C       8.838402      1.230304      2.004860
  C       8.596272      0.514487      0.853845
  C       7.394311     -0.174741      0.678406
  H       5.775048     -3.892654      0.617850
  H       6.917812     -2.705771      1.122725
  H       4.367953     -0.426708      1.900088
  H       5.920660      0.539477      3.592513
  H       8.034555      1.800422      3.874007
  H       9.768449      1.771431      2.130833
  H       9.343259      0.511852      0.087013
  H       7.204980     -0.687071     -0.233204
  O      -1.415148      1.934642     -1.951649
  N      -3.578888      0.026014     -0.760827
  N       0.059399      0.599893     -0.772358
  N      -0.558387     -1.265879      0.529253
  N      -2.970491     -1.655933      0.561029
  N       1.688394     -0.613419      0.336945
  C      -2.203334      0.085101     -0.642260
  C      -1.845624     -0.968229      0.187063
  C      -1.236327      0.968837     -1.197230
  C       0.351779     -0.469979      0.033170
  C      -3.977556     -1.035636     -0.022580
  H      -4.163043      0.638034     -1.301144
  H       0.810303      1.199046     -1.080209
  H      -5.020686     -1.308540      0.054606
  H       1.941284     -1.478983      0.766785
  H       2.370272     -0.340228     -0.349184
34
Coordinates from ORCA-job phenylurea_guanine_opt_freq E -998.351025853068
  N       6.053050     -2.937889      0.799457
  C       4.958188     -2.141431      1.123172
  O       3.787738     -2.558334      1.042540
  N       5.217342     -0.833235      1.514457
  C       6.443106     -0.185769      1.645184
  C       6.664831      0.573396      2.847704
  C       7.840341      1.274470      3.010291
  C       8.816250      1.211708      1.972479
  C       8.587120      0.449500      0.755896
  C       7.404341     -0.233608      0.586540
  H       5.828030     -3.911151      0.672412
  H       6.987385     -2.710045      1.154869
  H       4.383415     -0.370768      1.933534
  H       5.917246      0.599353      3.665295
  H       8.006149      1.863152      3.961740
  H       9.736979      1.750300      2.101754
  H       9.328866      0.404027     -0.064784
  H       7.209746     -0.793315     -0.381929
  O      -1.421754      1.976269     -1.777866
  N      -3.560307      0.021334     -0.810649
  N       0.012948      0.640150     -0.719822
  N      -0.571697     -1.268334      0.497439
  N      -2.940208     -1.693621      0.458333
  N       1.634593     -0.586348      0.409622
  C      -2.204645      0.099826     -0.667261
  C      -1.839069     -0.974240      0.119950
  C      -1.264351      1.008115     -1.146610
  C       0.315984     -0.446304      0.058055
  C      -3.938300     -1.072674     -0.115493
  H      -4.139062      0.641588     -1.335646
  H       0.736257      1.270728     -0.989483
  H      -4.965349     -1.370321     -0.056066
  H       1.933552     -1.492674      0.839264
  H       2.298735     -0.290800     -0.279926
34
Coordinates from ORCA-job phenylurea_guanine_opt_freq E -998.372235330793
  N       5.993882     -2.903473      0.748943
  C       4.921077     -2.117186      1.078678
  O       3.771020     -2.535036      0.990621
  N       5.193717     -0.816142      1.485134
  C       6.448912     -0.175810      1.655944
  C       6.689818      0.566788      2.838940
  C       7.895179      1.252358      3.014772
  C       8.883127      1.190753      2.030325
  C       8.650690      0.452937      0.869578
  C       7.428953     -0.214756      0.658262
  H       5.770645     -3.878693      0.614787
  H       6.913546     -2.687502      1.107264
  H       4.376808     -0.357044      1.889964
  H       5.929278      0.593740      3.623872
  H       8.069652      1.825819      3.935179
  H       9.829093      1.716859      2.177586
  H       9.405889      0.414022      0.087559
  H       7.224252     -0.748901     -0.286250
  O      -1.464386      1.992394     -1.955353
  N      -3.584688     -0.004793     -0.774271
  N       0.001369      0.657406     -0.803016
  N      -0.567735     -1.277905      0.522984
  N      -2.948386     -1.725853      0.578012
  N       1.637721     -0.588340      0.355845
  C      -2.222155      0.087415     -0.669811
  C      -1.848951     -0.988994      0.165177
  C      -1.287423      1.017012     -1.236845
  C       0.317804     -0.444725      0.029341
  C      -3.955165     -1.107332     -0.007204
  H      -4.176193      0.615611     -1.320284
  H       0.731106      1.302940     -1.115589
  H      -4.987044     -1.414605      0.096204
  H       1.904861     -1.489075      0.800176
  H       2.311178     -0.296833     -0.362067
34
Coordinates from ORCA-job phenylurea_guanine_opt_freq E -998.357158567929
  N       6.054290     -2.923657      0.762362
  C       4.960149     -2.131825      1.065236
  O       3.782563     -2.525344      0.950970
  N       5.201573     -0.830360      1.482173
  C       6.451643     -0.179867      1.682885
  C       6.647813      0.525861      2.854839
  C       7.850336      1.203765      3.039005
  C       8.870877      1.174105      2.053756
  C       8.674655      0.477683      0.881904
  C       7.472608     -0.182694      0.687729
  H       5.816105     -3.894929      0.605460
  H       6.973263     -2.720022      1.124885
  H       4.373603     -0.402005      1.857586
  H       5.868116      0.533336      3.625814
  H       7.990287      1.743814      3.946043
  H       9.803920      1.691390      2.198284
  H       9.452984      0.464389      0.097645
  H       7.316669     -0.674766     -0.228785
  O      -1.599808      1.883938     -2.096710
  N      -3.668212     -0.020827     -0.717091
  N       0.011427      0.613664     -0.833577
  N      -0.508111     -1.189832      0.541619
  N      -2.944720     -1.622431      0.622520
  N       1.726251     -0.521963      0.281746
  C      -2.263064      0.063322     -0.631525
  C      -1.836595     -0.938438      0.215477
  C      -1.330648      0.942948     -1.253479
  C       0.369479     -0.401921      0.004956
  C      -4.011577     -1.045538      0.042747
  H      -4.295823      0.560329     -1.260689
  H       0.733079      1.216533     -1.196250
  H      -5.057786     -1.335200      0.151900
  H       1.990565     -1.363123      0.700166
  H       2.381539     -0.277277     -0.435149
34
Coordinates from ORCA-job phenylurea_guanine_opt_freq E -998.372297033868
  N       6.028988     -2.933534      0.765669
  C       4.948269     -2.137025      1.050427
  O       3.787158     -2.535052      0.927459
  N       5.197727     -0.838249      1.455387
  C       6.438970     -0.183427      1.656190
  C       6.657256      0.548996      2.828992
  C       7.858054      1.241188      3.053331
  C       8.859107      1.199072      2.104133
  C       8.627169      0.469757      0.894479
  C       7.426506     -0.205328      0.676404
  H       5.791244     -3.901724      0.628321
  H       6.930940     -2.719036      1.139107
  H       4.370495     -0.401642      1.821288
  H       5.894418      0.564920      3.572001
  H       8.013359      1.803630      3.973872
  H       9.792615      1.730232      2.279571
  H       9.384681      0.442111      0.134842
  H       7.251674     -0.730164     -0.252993
  O      -1.503057      1.919802     -2.018367
  N      -3.618562     -0.010586     -0.692416
  N       0.027775      0.625100     -0.870384
  N      -0.534001     -1.226806      0.499157
  N      -2.950260     -1.653818      0.641240
  N       1.710697     -0.534103      0.227103
  C      -2.232683      0.073686     -0.639087
  C      -1.838844     -0.956278      0.199150
  C      -1.288076      0.966003     -1.256808
  C       0.353588     -0.423238     -0.051978
  C      -3.985540     -1.064487      0.096112
  H      -4.222450      0.581633     -1.215077
  H       0.762672      1.231349     -1.213611
  H      -5.025417     -1.356721      0.237066
  H       1.986870     -1.399112      0.665183
  H       2.356106     -0.274090     -0.491311
34
Coordinates from ORCA-job phenylurea_guanine_opt_freq E -998.371474618888
  N       6.013473     -2.924279      0.754347
  C       4.930606     -2.135191      1.057956
  O       3.771898     -2.543942      0.948031
  N       5.191278     -0.842286      1.462480
  C       6.441699     -0.194010      1.658123
  C       6.640873      0.543788      2.840894
  C       7.839499      1.232158      3.030813
  C       8.864145      1.186394      2.063969
  C       8.672234      0.464021      0.899383
  C       7.463016     -0.213081      0.678567
  H       5.785488     -3.898142      0.612190
  H       6.947836     -2.712333      1.123515
  H       4.366298     -0.374344      1.840920
  H       5.849546      0.562966      3.607480
  H       7.978533      1.798038      3.941677
  H       9.801162      1.717073      2.219339
  H       9.457727      0.441137      0.139614
  H       7.301416     -0.741289     -0.262602
  O      -1.523680      1.929754     -2.001944
  N      -3.588383     -0.005317     -0.738718
  N      -0.020279      0.653731     -0.855173
  N      -0.531220     -1.227566      0.543264
  N      -2.895837     -1.678509      0.666719
  N       1.661738     -0.539680      0.276319
  C      -2.232042      0.091426     -0.655351
  C      -1.820435     -0.956056      0.216649
  C      -1.325828      0.993390     -1.260275
  C       0.328953     -0.414503     -0.006615
  C      -3.922608     -1.083086      0.076174
  H      -4.204126      0.592717     -1.299220
  H       0.694520      1.280107     -1.206109
  H      -4.944351     -1.387382      0.199497
  H       1.948751     -1.433418      0.721040
  H       2.315551     -0.269232     -0.468502
34
Coordinates from ORCA-job phenylurea_guanine_opt_freq E -998.367918629328
  N       6.003051     -2.882601      0.745623
  C       4.940433     -2.100044      1.070509
  O       3.796472     -2.519222      0.962801
  N       5.213720     -0.795650      1.496141
  C       6.453100     -0.171070      1.679872
  C       6.693372      0.543372      2.878870
  C       7.867757      1.204718      3.051325
  C       8.822889      1.145082      2.043930
  C       8.596163      0.437836      0.875714
  C       7.409050     -0.209292      0.669636
  H       5.778542     -3.854656      0.572661
  H       6.905710     -2.657202      1.079656
  H       4.389188     -0.356763      1.889035
  H       5.959215      0.570481      3.679639
  H       8.047733      1.757357      3.995144
  H       9.740356      1.652768      2.187578
  H       9.327969      0.402984      0.084615
  H       7.203618     -0.721781     -0.289842
  O      -1.530122      1.898437     -2.102732
  N      -3.580895     -0.029514     -0.733610
  N      -0.001933      0.638054     -0.848793
  N      -0.513102     -1.211557      0.563420
  N      -2.886439     -1.665017      0.632435
  N       1.678885     -0.520844      0.320099
  C      -2.216367      0.068877     -0.654997
  C      -1.805313     -0.953825      0.212010
  C      -1.307874      0.966424     -1.282926
  C       0.347055     -0.405953      0.025067
  C      -3.919114     -1.083899      0.043071
  H      -4.197467      0.559808     -1.282312
  H       0.711262      1.263483     -1.215738
  H      -4.943657     -1.387288      0.152860
  H       1.959421     -1.399535      0.759952
  H       2.314771     -0.270911     -0.436261
34
Coordinates from ORCA-job phenylurea_guanine_opt_freq E -998.375106258819
  N       6.019122     -2.917698      0.748388
  C       4.943114     -2.113246      1.047488
  O       3.779290     -2.513270      0.924965
  N       5.211880     -0.806925      1.468059
  C       6.464815     -0.172781      1.675475
  C       6.686744      0.543731      2.866964
  C       7.895753      1.219714      3.076149
  C       8.896230      1.167779      2.101306
  C       8.677927      0.451899      0.921347
  C       7.459426     -0.205632      0.690428
  H       5.788474     -3.889863      0.583919
  H       6.930941     -2.701831      1.100058
  H       4.386203     -0.358831      1.840914
  H       5.922997      0.565202      3.638532
  H       8.056412      1.770750      4.011542
  H       9.836266      1.684297      2.270052
  H       9.437617      0.417073      0.146730
  H       7.270974     -0.717150     -0.255422
  O      -1.573364      1.874082     -2.102159
  N      -3.646247     -0.037455     -0.693504
  N      -0.017106      0.628778     -0.895587
  N      -0.529919     -1.196368      0.526782
  N      -2.936757     -1.647024      0.656656
  N       1.688042     -0.504168      0.242931
  C      -2.259324      0.061256     -0.648323
  C      -1.841531     -0.944883      0.206015
  C      -1.340251      0.949366     -1.297339
  C       0.339774     -0.396493     -0.035244
  C      -3.987087     -1.077222      0.095280
  H      -4.264413      0.543063     -1.226076
  H       0.696552      1.248592     -1.274587
  H      -5.022224     -1.379014      0.235215
  H       1.966767     -1.368058      0.685645
  H       2.320354     -0.264610     -0.508143
34
Coordinates from ORCA-job phenylurea_guanine_opt_freq E -998.376714596312
  N       6.024224     -2.919026      0.744538
  C       4.943422     -2.124867      1.042570
  O       3.781388     -2.523039      0.924077
  N       5.201298     -0.834291      1.456306
  C       6.448043     -0.189753      1.665756
  C       6.651060      0.529921      2.852359
  C       7.851764      1.218474      3.063427
  C       8.868132      1.180793      2.099045
  C       8.668541      0.461818      0.918285
  C       7.459225     -0.208726      0.689185
  H       5.798775     -3.882043      0.583719
  H       6.952084     -2.699036      1.098838
  H       4.372954     -0.387266      1.827379
  H       5.877261      0.542810      3.615201
  H       7.991204      1.765305      3.983703
  H       9.802565      1.708405      2.270312
  H       9.438641      0.436168      0.150443
  H       7.295077     -0.718292     -0.248441
  O      -1.538233      1.866375     -2.086554
  N      -3.617619     -0.018660     -0.705325
  N      -0.010450      0.630676     -0.894410
  N      -0.526505     -1.192566      0.545717
  N      -2.914351     -1.641592      0.696885
  N       1.686131     -0.507118      0.245046
  C      -2.243056      0.075850     -0.651149
  C      -1.828361     -0.937807      0.226292
  C      -1.326104      0.954370     -1.297673
  C       0.340625     -0.395240     -0.028368
  C      -3.955296     -1.067311      0.118704
  H      -4.234712      0.563407     -1.256927
  H       0.700243      1.241162     -1.271567
  H      -4.983804     -1.367433      0.262378
  H       1.964592     -1.379548      0.692464
  H       2.318695     -0.268862     -0.507762
34
Coordinates from ORCA-job phenylurea_guanine_opt_freq E -998.376859149421
  N       6.030240     -2.899292      0.745496
  C       4.950231     -2.094814      1.007701
  O       3.788441     -2.489816      0.862441
  N       5.207017     -0.795458      1.418780
  C       6.466564     -0.171214      1.666943
  C       6.652088      0.533172      2.860224
  C       7.851134      1.200166      3.091905
  C       8.890947      1.156664      2.160449
  C       8.705592      0.456826      0.962889
  C       7.499748     -0.193260      0.710406
  H       5.797434     -3.875402      0.580875
  H       6.936707     -2.691798      1.127977
  H       4.376197     -0.334744      1.771338
  H       5.856825      0.547668      3.600029
  H       7.984894      1.736300      4.033577
  H       9.830975      1.666908      2.358839
  H       9.495589      0.430809      0.215747
  H       7.338524     -0.687621     -0.254197
  O      -1.584805      1.825117     -2.134783
  N      -3.640152     -0.015646     -0.650920
  N      -0.032938      0.597425     -0.952158
  N      -0.527132     -1.191027      0.530410
  N      -2.914651     -1.613289      0.754580
  N       1.686523     -0.528716      0.153895
  C      -2.263788      0.067546     -0.634696
  C      -1.834034     -0.930241      0.244434
  C      -1.357028      0.925804     -1.327261
  C       0.331237     -0.413434     -0.078598
  C      -3.965269     -1.041326      0.195618
  H      -4.267405      0.561839     -1.197721
  H       0.677923      1.196983     -1.363099
  H      -4.993297     -1.329500      0.373622
  H       1.978817     -1.384111      0.617781
  H       2.304305     -0.309459     -0.628068
34
Coordinates from ORCA-job phenylurea_guanine_opt_freq E -998.376810833573
  N       6.023869     -2.889386      0.736491
  C       4.947974     -2.084382      1.008952
  O       3.784441     -2.476202      0.867319
  N       5.213447     -0.786409      1.424116
  C       6.467195     -0.167875      1.660201
  C       6.665969      0.542132      2.858379
  C       7.874484      1.199222      3.098902
  C       8.906668      1.139774      2.165872
  C       8.706604      0.435277      0.965297
  C       7.492350     -0.204426      0.705841
  H       5.785097     -3.860853      0.574462
  H       6.935185     -2.684721      1.114332
  H       4.382904     -0.323520      1.776532
  H       5.875177      0.569212      3.598836
  H       8.016747      1.742320      4.032934
  H       9.850168      1.641211      2.361534
  H       9.494894      0.397359      0.226864
  H       7.332153     -0.705207     -0.235590
  O      -1.622560      1.824551     -2.148056
  N      -3.648924     -0.035755     -0.660370
  N      -0.045087      0.606563     -0.948996
  N      -0.517733     -1.182641      0.529768
  N      -2.905880     -1.619301      0.742524
  N       1.683517     -0.507751      0.163522
  C      -2.271414      0.058322     -0.639254
  C      -1.829859     -0.932016      0.238834
  C      -1.374463      0.923340     -1.329756
  C       0.331158     -0.400427     -0.074374
  C      -3.964514     -1.056837      0.181011
  H      -4.278624      0.534621     -1.204272
  H       0.658719      1.211004     -1.353879
  H      -4.989857     -1.351398      0.357928
  H       1.979446     -1.362907      0.627214
  H       2.298201     -0.279836     -0.598664
34
Coordinates from ORCA-job phenylurea_guanine_opt_freq E -998.376706949967
  N       6.030238     -2.895998      0.740206
  C       4.951096     -2.090539      0.994412
  O       3.795703     -2.480151      0.840407
  N       5.207984     -0.796771      1.403913
  C       6.455253     -0.174294      1.659648
  C       6.632541      0.540904      2.862418
  C       7.835132      1.200506      3.111805
  C       8.879265      1.137879      2.174339
  C       8.707661      0.428183      0.990877
  C       7.498039     -0.213676      0.717878
  H       5.800968     -3.857772      0.589903
  H       6.935739     -2.686952      1.128495
  H       4.371363     -0.333714      1.738773
  H       5.829162      0.571033      3.600371
  H       7.957040      1.747003      4.036491
  H       9.812817      1.641178      2.366581
  H       9.507160      0.388345      0.252663
  H       7.353641     -0.717895     -0.227877
  O      -1.622192      1.824998     -2.148516
  N      -3.642755     -0.033201     -0.616149
  N      -0.035394      0.615071     -0.990107
  N      -0.496416     -1.176280      0.516690
  N      -2.890102     -1.615325      0.772142
  N       1.706042     -0.499754      0.111847
  C      -2.262365      0.062985     -0.628087
  C      -1.814749     -0.926709      0.246500
  C      -1.367923      0.927514     -1.340810
  C       0.349199     -0.393463     -0.111915
  C      -3.954175     -1.054583      0.233162
  H      -4.277156      0.534948     -1.144833
  H       0.667690      1.219362     -1.407890
  H      -4.980829     -1.349209      0.431097
  H       2.005153     -1.354795      0.579734
  H       2.312622     -0.275770     -0.659715
34
Coordinates from ORCA-job phenylurea_guanine_opt_freq E -998.376688713971
  N       6.027774     -2.910179      0.733467
  C       4.947798     -2.096421      0.992640
  O       3.782713     -2.484663      0.836216
  N       5.209521     -0.797698      1.409831
  C       6.460197     -0.174090      1.665212
  C       6.637336      0.538589      2.858259
  C       7.842298      1.203939      3.112769
  C       8.887841      1.147280      2.182096
  C       8.714258      0.439060      0.998956
  C       7.501049     -0.208586      0.723042
  H       5.792119     -3.880108      0.570990
  H       6.945494     -2.705015      1.121719
  H       4.377670     -0.330295      1.746146
  H       5.834511      0.563585      3.590653
  H       7.967914      1.749260      4.043037
  H       9.827133      1.656317      2.384389
  H       9.512131      0.403483      0.258501
  H       7.348082     -0.714504     -0.236833
  O      -1.624644      1.807081     -2.147255
  N      -3.641287     -0.029535     -0.630031
  N      -0.046957      0.611560     -0.987872
  N      -0.499330     -1.168965      0.531247
  N      -2.879933     -1.608537      0.792291
  N       1.695852     -0.499163      0.113414
  C      -2.265980      0.066392     -0.632211
  C      -1.813906     -0.920902      0.258197
  C      -1.377844      0.922730     -1.344332
  C       0.341645     -0.390456     -0.104582
  C      -3.943801     -1.050040      0.237704
  H      -4.282698      0.537224     -1.177335
  H       0.650434      1.212967     -1.411703
  H      -4.965965     -1.343888      0.432151
  H       1.993153     -1.351788      0.581907
  H       2.302872     -0.281574     -0.678226
34
Coordinates from ORCA-job phenylurea_guanine_opt_freq E -998.377080759298
  N       6.040427     -2.901125      0.726853
  C       4.956090     -2.099855      0.973012
  O       3.795346     -2.494168      0.811852
  N       5.206077     -0.802697      1.385761
  C       6.451745     -0.173758      1.650999
  C       6.611625      0.531998      2.848633
  C       7.809895      1.197583      3.119887
  C       8.869942      1.152406      2.211133
  C       8.707789      0.451693      1.002576
  C       7.504080     -0.197007      0.716749
  H       5.809068     -3.872093      0.574336
  H       6.937995     -2.691897      1.122749
  H       4.368033     -0.341772      1.716882
  H       5.799458      0.548804      3.569505
  H       7.922446      1.738693      4.058523
  H       9.809166      1.662663      2.433927
  H       9.517273      0.423982      0.274913
  H       7.372400     -0.697251     -0.234098
  O      -1.625058      1.790732     -2.180021
  N      -3.630582     -0.011061     -0.601083
  N      -0.037846      0.580841     -1.003008
  N      -0.495564     -1.169867      0.522251
  N      -2.873232     -1.576383      0.823486
  N       1.702242     -0.525980      0.084696
  C      -2.257007      0.067143     -0.620186
  C      -1.807135     -0.910769      0.267970
  C      -1.369053      0.905661     -1.353616
  C       0.345037     -0.410474     -0.121979
  C      -3.934901     -1.012464      0.280010
  H      -4.268592      0.556952     -1.144197
  H       0.662734      1.164851     -1.434188
  H      -4.955396     -1.291458      0.493435
  H       2.008391     -1.373344      0.550819
  H       2.304553     -0.307521     -0.704130
34
Coordinates from ORCA-job phenylurea_guanine_opt_freq E -998.376813416719
  N       6.031012     -2.900445      0.728860
  C       4.955693     -2.076450      0.965963
  O       3.796638     -2.458299      0.791360
  N       5.219171     -0.776075      1.380277
  C       6.469713     -0.166861      1.660503
  C       6.632096      0.552257      2.859308
  C       7.831005      1.196860      3.129923
  C       8.891321      1.117759      2.230972
  C       8.730781      0.403705      1.037680
  C       7.524822     -0.223708      0.743723
  H       5.785309     -3.873505      0.575159
  H       6.937544     -2.704049      1.134444
  H       4.382885     -0.295562      1.693437
  H       5.815266      0.595196      3.569170
  H       7.941295      1.748929      4.055897
  H       9.827723      1.610471      2.448031
  H       9.541917      0.351179      0.325647
  H       7.391621     -0.731662     -0.199293
  O      -1.696713      1.791380     -2.183833
  N      -3.663905     -0.050744     -0.579968
  N      -0.064230      0.610655     -1.037291
  N      -0.471344     -1.150580      0.510453
  N      -2.857199     -1.595634      0.830598
  N       1.715419     -0.472285      0.034726
  C      -2.281138      0.054378     -0.617442
  C      -1.800179     -0.913015      0.267414
  C      -1.411738      0.909313     -1.364732
  C       0.352197     -0.377357     -0.153405
  C      -3.944140     -1.053081      0.297961
  H      -4.316871      0.502427     -1.110731
  H       0.624514      1.214325     -1.484994
  H      -4.964620     -1.350617      0.522389
  H       2.028612     -1.316605      0.509032
  H       2.302971     -0.259239     -0.746783
34
Coordinates from ORCA-job phenylurea_guanine_opt_freq E -998.377057362203
  N       6.026952     -2.883172      0.730550
  C       4.950490     -2.068416      0.956350
  O       3.795909     -2.449306      0.778318
  N       5.213321     -0.778297      1.366919
  C       6.463868     -0.169451      1.652963
  C       6.621757      0.545698      2.858599
  C       7.832583      1.187443      3.146395
  C       8.902734      1.109346      2.244135
  C       8.749269      0.402868      1.054813
  C       7.532035     -0.222097      0.741147
  H       5.789345     -3.845286      0.579493
  H       6.931076     -2.681692      1.136081
  H       4.375896     -0.296904      1.673233
  H       5.797473      0.587213      3.573927
  H       7.944966      1.734403      4.085111
  H       9.844770      1.599181      2.471062
  H       9.569614      0.353404      0.343799
  H       7.398891     -0.726005     -0.219956
  O      -1.708465      1.764000     -2.206694
  N      -3.658684     -0.048845     -0.565480
  N      -0.077618      0.603073     -1.058520
  N      -0.469019     -1.142525      0.520786
  N      -2.845918     -1.584275      0.849639
  N       1.708859     -0.473172      0.021093
  C      -2.283061      0.054596     -0.615430
  C      -1.796443     -0.906376      0.278950
  C      -1.423082      0.898614     -1.378862
  C       0.346660     -0.377009     -0.158142
  C      -3.931341     -1.045337      0.319954
  H      -4.315725      0.499231     -1.095543
  H       0.605153      1.197620     -1.521063
  H      -4.947782     -1.339580      0.548797
  H       2.025958     -1.319261      0.499043
  H       2.287010     -0.266625     -0.787013
34
Coordinates from ORCA-job phenylurea_guanine_opt_freq E -998.377013227346
  N       6.049235     -2.910836      0.719566
  C       4.960628     -2.096928      0.938084
  O       3.794175     -2.484736      0.747903
  N       5.211849     -0.796915      1.355384
  C       6.451339     -0.173446      1.651038
  C       6.582978      0.535468      2.849789
  C       7.778043      1.197109      3.148754
  C       8.859108      1.141529      2.256886
  C       8.728030      0.437036      1.060334
  C       7.527231     -0.206739      0.745418
  H       5.815403     -3.881808      0.564431
  H       6.945814     -2.705532      1.136214
  H       4.366413     -0.326177      1.656170
  H       5.751698      0.559871      3.550028
  H       7.867125      1.741263      4.079511
  H       9.790256      1.647627      2.491778
  H       9.555021      0.401890      0.350101
  H       7.415432     -0.710551     -0.207684
  O      -1.667866      1.763750     -2.208787
  N      -3.630435     -0.013881     -0.541716
  N      -0.055596      0.579640     -1.068599
  N      -0.469658     -1.149417      0.505598
  N      -2.835133     -1.556006      0.889760
  N       1.712352     -0.510502     -0.004830
  C      -2.259979      0.068077     -0.607265
  C      -1.786883     -0.896090      0.286083
  C      -1.394454      0.895423     -1.383521
  C       0.352873     -0.398310     -0.179266
  C      -3.908492     -1.003030      0.372290
  H      -4.283476      0.544273     -1.075061
  H       0.629908      1.159274     -1.530700
  H      -4.921211     -1.280337      0.623620
  H       2.029243     -1.351761      0.467736
  H       2.296476     -0.306168     -0.814594
34
Coordinates from ORCA-job phenylurea_guanine_opt_freq E -998.377082050962
  N       6.044257     -2.896632      0.712616
  C       4.962775     -2.080339      0.924526
  O       3.809053     -2.464723      0.729457
  N       5.209955     -0.781826      1.339599
  C       6.452465     -0.167059      1.649198
  C       6.583022      0.539392      2.850409
  C       7.779319      1.185950      3.161830
  C       8.865056      1.120989      2.288155
  C       8.732336      0.419771      1.077098
  C       7.531497     -0.209243      0.751459
  H       5.810973     -3.865204      0.559963
  H       6.927924     -2.692619      1.129998
  H       4.367416     -0.308421      1.629377
  H       5.749562      0.570806      3.541390
  H       7.867468      1.727639      4.097476
  H       9.801142      1.615844      2.540120
  H       9.562445      0.377197      0.375320
  H       7.421069     -0.708585     -0.204386
  O      -1.703413      1.732232     -2.221291
  N      -3.651113     -0.028159     -0.532137
  N      -0.059555      0.568701     -1.088235
  N      -0.447109     -1.128276      0.523323
  N      -2.819799     -1.534391      0.931412
  N       1.733477     -0.495753     -0.047615
  C      -2.269186      0.058927     -0.597408
  C      -1.775575     -0.883381      0.311541
  C      -1.409670      0.875479     -1.389984
  C       0.365071     -0.390308     -0.191331
  C      -3.915005     -0.998194      0.397521
  H      -4.318916      0.515717     -1.078900
  H       0.623221      1.141352     -1.567831
  H      -4.930955     -1.276454      0.653352
  H       2.058460     -1.325033      0.432964
  H       2.299785     -0.302342     -0.864529
34
Coordinates from ORCA-job phenylurea_guanine_opt_freq E -998.377292378219
  N       6.032335     -2.888722      0.713470
  C       4.958093     -2.060247      0.919838
  O       3.805250     -2.437340      0.718331
  N       5.217110     -0.765079      1.333229
  C       6.464771     -0.164187      1.650169
  C       6.595241      0.552368      2.854685
  C       7.795273      1.184227      3.167674
  C       8.886602      1.097638      2.303741
  C       8.757756      0.389332      1.104264
  C       7.551091     -0.226232      0.765414
  H       5.784223     -3.859569      0.562281
  H       6.937356     -2.697221      1.141795
  H       4.377172     -0.273788      1.614877
  H       5.754344      0.601653      3.542585
  H       7.884656      1.734456      4.105783
  H       9.825751      1.581039      2.558520
  H       9.593728      0.332850      0.417551
  H       7.442641     -0.730980     -0.190352
  O      -1.762650      1.727890     -2.251114
  N      -3.658146     -0.049574     -0.505191
  N      -0.091102      0.585035     -1.118794
  N      -0.438544     -1.120498      0.503391
  N      -2.805263     -1.548367      0.919960
  N       1.724437     -0.467199     -0.071667
  C      -2.284349      0.051140     -0.598131
  C      -1.772469     -0.887387      0.299910
  C      -1.446912      0.876170     -1.406820
  C       0.357649     -0.374049     -0.214079
  C      -3.905941     -1.021167      0.411355
  H      -4.327076      0.486089     -1.025522
  H       0.579020      1.168472     -1.613258
  H      -4.914715     -1.308334      0.680678
  H       2.057990     -1.301366      0.415267
  H       2.282132     -0.273994     -0.885388
34
Coordinates from ORCA-job phenylurea_guanine_opt_freq E -998.377548108766
  N       6.049314     -2.887976      0.721607
  C       4.965449     -2.062338      0.889313
  O       3.803797     -2.438059      0.664422
  N       5.224669     -0.766319      1.299773
  C       6.463588     -0.166044      1.639520
  C       6.571851      0.543312      2.852051
  C       7.770910      1.175737      3.194448
  C       8.877318      1.092500      2.338596
  C       8.772708      0.390621      1.140408
  C       7.569380     -0.225021      0.777311
  H       5.807107     -3.853696      0.571897
  H       6.934439     -2.684465      1.155954
  H       4.370839     -0.274669      1.557251
  H       5.717735      0.588413      3.525879
  H       7.841977      1.721268      4.131410
  H       9.808060      1.575111      2.603040
  H       9.622397      0.336592      0.466527
  H       7.479174     -0.727482     -0.177750
  O      -1.783849      1.700920     -2.270649
  N      -3.656223     -0.044707     -0.468912
  N      -0.103562      0.572982     -1.161437
  N      -0.427397     -1.105727      0.497576
  N      -2.782350     -1.520267      0.978385
  N       1.726909     -0.467919     -0.130083
  C      -2.285535      0.052004     -0.589725
  C      -1.761394     -0.872735      0.318370
  C      -1.461692      0.862856     -1.428927
  C       0.357842     -0.372133     -0.249450
  C      -3.887519     -0.999820      0.482048
  H      -4.335886      0.484091     -0.993185
  H       0.558959      1.146590     -1.675716
  H      -4.890553     -1.280011      0.777566
  H       2.066795     -1.296405      0.354990
  H       2.272196     -0.284149     -0.968053
34
Coordinates from ORCA-job phenylurea_guanine_opt_freq E -998.377460779575
  N       6.048441     -2.905416      0.691417
  C       4.964906     -2.084607      0.885244
  O       3.815825     -2.467901      0.661521
  N       5.203798     -0.787927      1.309521
  C       6.440072     -0.171312      1.649062
  C       6.538225      0.537921      2.848560
  C       7.729868      1.188469      3.185513
  C       8.840123      1.124190      2.332505
  C       8.739052      0.423198      1.126212
  C       7.542943     -0.210340      0.773418
  H       5.817220     -3.874098      0.534524
  H       6.932722     -2.709959      1.139871
  H       4.361072     -0.308736      1.578605
  H       5.684232      0.569284      3.519650
  H       7.793496      1.732803      4.116001
  H       9.769635      1.621485      2.600186
  H       9.587142      0.383306      0.439162
  H       7.455136     -0.712576     -0.193390
  O      -1.724669      1.702317     -2.257933
  N      -3.627883     -0.012896     -0.468723
  N      -0.067598      0.552142     -1.143713
  N      -0.422337     -1.118198      0.505858
  N      -2.776510     -1.500350      0.991587
  N       1.740335     -0.506905     -0.120860
  C      -2.256864      0.064635     -0.582423
  C      -1.748730     -0.866980      0.328405
  C      -1.418661      0.860988     -1.416723
  C       0.374185     -0.396066     -0.239670
  C      -3.872494     -0.965624      0.488563
  H      -4.300777      0.525006     -1.002443
  H       0.600943      1.111993     -1.653815
  H      -4.877433     -1.232278      0.782944
  H       2.081484     -1.332756      0.364426
  H       2.290550     -0.319753     -0.948607
34
Coordinates from ORCA-job phenylurea_guanine_opt_freq E -998.377740837554
  N       6.044474     -2.890045      0.700082
  C       4.966874     -2.050278      0.858067
  O       3.817646     -2.420032      0.611988
  N       5.216869     -0.753287      1.272921
  C       6.455321     -0.159956      1.635357
  C       6.540594      0.554727      2.837356
  C       7.731051      1.177715      3.198798
  C       8.857482      1.082973      2.381811
  C       8.771771      0.375713      1.175489
  C       7.576082     -0.230594      0.792565
  H       5.798288     -3.859263      0.549310
  H       6.923659     -2.699855      1.159561
  H       4.367878     -0.255007      1.509364
  H       5.673958      0.609225      3.490377
  H       7.785988      1.726337      4.142532
  H       9.792356      1.559704      2.682505
  H       9.635930      0.311022      0.522785
  H       7.505833     -0.737558     -0.156605
  O      -1.807866      1.666242     -2.289236
  N      -3.648926     -0.042038     -0.424318
  N      -0.104468      0.555340     -1.191995
  N      -0.396166     -1.088969      0.498615
  N      -2.740838     -1.493507      1.030975
  N       1.745527     -0.466401     -0.196188
  C      -2.277917      0.051321     -0.570134
  C      -1.734086     -0.857518      0.342329
  C      -1.467478      0.843584     -1.435933
  C       0.373041     -0.372402     -0.278832
  C      -3.861116     -0.981710      0.541786
  H      -4.342366      0.478438     -0.945547
  H       0.547575      1.114541     -1.728807
  H      -4.859036     -1.257199      0.860583
  H       2.101755     -1.283716      0.296626
  H       2.267761     -0.294489     -1.049735
34
Coordinates from ORCA-job phenylurea_guanine_opt_freq E -998.377488360319
  N       6.039369     -2.884369      0.715299
  C       4.963643     -2.047525      0.845330
  O       3.808423     -2.411379      0.581232
  N       5.224073     -0.754602      1.262283
  C       6.458682     -0.164209      1.636382
  C       6.541667      0.556850      2.847166
  C       7.736353      1.174473      3.220106
  C       8.865291      1.068740      2.406217
  C       8.784560      0.356493      1.206484
  C       7.585461     -0.244617      0.808465
  H       5.784493     -3.850469      0.565313
  H       6.908438     -2.694499      1.184903
  H       4.371923     -0.246593      1.480242
  H       5.668945      0.621144      3.488009
  H       7.784658      1.729856      4.144233
  H       9.792435      1.541040      2.690723
  H       9.649738      0.286014      0.553874
  H       7.511994     -0.752461     -0.159196
  O      -1.862010      1.656721     -2.308891
  N      -3.652237     -0.059643     -0.400195
  N      -0.123687      0.565790     -1.223615
  N      -0.373799     -1.073905      0.478911
  N      -2.711570     -1.492411      1.044870
  N       1.752719     -0.439621     -0.232326
  C      -2.284715      0.044020     -0.569422
  C      -1.718599     -0.854330      0.338457
  C      -1.496512      0.839829     -1.453273
  C       0.378772     -0.354635     -0.308517
  C      -3.842305     -0.991816      0.574516
  H      -4.353634      0.451069     -0.908182
  H       0.516633      1.130616     -1.774164
  H      -4.832852     -1.272098      0.911916
  H       2.112335     -1.256908      0.254581
  H       2.268766     -0.263505     -1.077275
34
Coordinates from ORCA-job phenylurea_guanine_opt_freq E -998.377921904012
  N       6.045049     -2.890118      0.691935
  C       4.966585     -2.052801      0.818092
  O       3.819573     -2.419701      0.537975
  N       5.213791     -0.759775      1.242267
  C       6.444328     -0.165385      1.632745
  C       6.506271      0.553458      2.838304
  C       7.697375      1.178098      3.228689
  C       8.838407      1.081324      2.416827
  C       8.776636      0.373142      1.218676
  C       7.584732     -0.236045      0.816527
  H       5.798418     -3.856209      0.538107
  H       6.908434     -2.704482      1.183978
  H       4.363447     -0.254388      1.454810
  H       5.624937      0.610298      3.476270
  H       7.735874      1.729510      4.171151
  H       9.762457      1.558043      2.717176
  H       9.652847      0.309152      0.577825
  H       7.531574     -0.745191     -0.139113
  O      -1.837045      1.640476     -2.310997
  N      -3.632281     -0.035812     -0.371560
  N      -0.112854      0.544082     -1.240062
  N      -0.368235     -1.078413      0.483711
  N      -2.698308     -1.465714      1.085969
  N       1.755799     -0.471258     -0.268010
  C      -2.268317      0.052453     -0.553278
  C      -1.706782     -0.844421      0.359916
  C      -1.480526      0.830214     -1.456111
  C       0.384575     -0.373903     -0.323823
  C      -3.822813     -0.958164      0.621078
  H      -4.333496      0.476011     -0.887664
  H       0.526293      1.094403     -1.808819
  H      -4.811590     -1.225105      0.968253
  H       2.125444     -1.282889      0.224249
  H       2.266852     -0.297831     -1.120639
34
Coordinates from ORCA-job phenylurea_guanine_opt_freq E -998.377689534531
  N       6.055603     -2.902089      0.680681
  C       4.975799     -2.050772      0.794691
  O       3.834653     -2.412977      0.504459
  N       5.216177     -0.755079      1.216184
  C       6.441704     -0.164208      1.621804
  C       6.476936      0.557853      2.819730
  C       7.653749      1.180318      3.223723
  C       8.817560      1.076465      2.461519
  C       8.781200      0.362194      1.254547
  C       7.597464     -0.243493      0.820683
  H       5.812005     -3.866805      0.527323
  H       6.915308     -2.716998      1.178380
  H       4.359477     -0.245940      1.411620
  H       5.581936      0.619755      3.432275
  H       7.665067      1.734482      4.146028
  H       9.741054      1.552952      2.798247
  H       9.673521      0.290667      0.638839
  H       7.566379     -0.758370     -0.133279
  O      -1.856114      1.615612     -2.321374
  N      -3.625711     -0.031371     -0.336339
  N      -0.118441      0.534843     -1.260893
  N      -0.347042     -1.058500      0.489211
  N      -2.666565     -1.442127      1.125377
  N       1.765278     -0.463032     -0.310144
  C      -2.263435      0.055035     -0.538831
  C      -1.687494     -0.828441      0.378864
  C      -1.486916      0.818868     -1.459822
  C       0.391925     -0.367038     -0.340163
  C      -3.800974     -0.942836      0.667004
  H      -4.337311      0.474281     -0.846385
  H       0.510213      1.072415     -1.841163
  H      -4.784808     -1.207111      1.031654
  H       2.147624     -1.270938      0.187239
  H       2.251627     -0.304556     -1.197238
34
Coordinates from ORCA-job phenylurea_guanine_opt_freq E -998.378121283234
  N       6.039812     -2.893322      0.686584
  C       4.967733     -2.039956      0.767922
  O       3.829277     -2.395375      0.447565
  N       5.211650     -0.747264      1.193407
  C       6.433266     -0.163026      1.620084
  C       6.459517      0.562064      2.820350
  C       7.636807      1.172919      3.243139
  C       8.806721      1.057438      2.490337
  C       8.780638      0.341809      1.290462
  C       7.599370     -0.253179      0.843129
  H       5.784340     -3.858812      0.529083
  H       6.886805     -2.715173      1.204619
  H       4.359017     -0.231147      1.357286
  H       5.557778      0.634153      3.422386
  H       7.645581      1.729365      4.181805
  H       9.728667      1.525043      2.835470
  H       9.679103      0.262571      0.683269
  H       7.574913     -0.767218     -0.114273
  O      -1.910831      1.578872     -2.350947
  N      -3.617887     -0.047287     -0.296228
  N      -0.130931      0.530844     -1.306974
  N      -0.306159     -1.034033      0.467983
  N      -2.608973     -1.422299      1.172521
  N       1.785395     -0.437768     -0.375141
  C      -2.260115      0.045696     -0.533906
  C      -1.653592     -0.816590      0.385156
  C      -1.510523      0.799296     -1.484218
  C       0.409569     -0.351806     -0.384272
  C      -3.760733     -0.939492      0.731479
  H      -4.345143      0.443744     -0.794461
  H       0.483661      1.064374     -1.903977
  H      -4.732979     -1.202935      1.131670
  H       2.176460     -1.235689      0.117448
  H       2.259236     -0.282758     -1.254302
34
Coordinates from ORCA-job phenylurea_guanine_opt_freq E -998.377950813884
  N       6.039487     -2.887258      0.677688
  C       4.969236     -2.033625      0.743921
  O       3.833477     -2.389502      0.408395
  N       5.215360     -0.739796      1.173348
  C       6.435299     -0.159862      1.620020
  C       6.451748      0.566645      2.825116
  C       7.633337      1.173759      3.275329
  C       8.808553      1.052420      2.519602
  C       8.790520      0.336530      1.317351
  C       7.610077     -0.255188      0.862651
  H       5.784300     -3.853992      0.521980
  H       6.878085     -2.709272      1.208171
  H       4.364476     -0.214021      1.330203
  H       5.541473      0.642388      3.410866
  H       7.633764      1.732483      4.206127
  H       9.722340      1.515658      2.854191
  H       9.692827      0.253740      0.714139
  H       7.592417     -0.770537     -0.088991
  O      -1.932908      1.566119     -2.357099
  N      -3.609594     -0.041113     -0.258686
  N      -0.147144      0.517494     -1.338386
  N      -0.296663     -1.034185      0.467269
  N      -2.592096     -1.407909      1.191943
  N       1.778719     -0.451652     -0.424351
  C      -2.257279      0.046496     -0.512364
  C      -1.641455     -0.810519      0.402413
  C      -1.525417      0.791485     -1.486275
  C       0.406509     -0.360749     -0.410609
  C      -3.743773     -0.924446      0.766122
  H      -4.341605      0.446753     -0.759127
  H       0.455737      1.047437     -1.971087
  H      -4.712957     -1.183500      1.166439
  H       2.178215     -1.247054      0.075815
  H       2.242383     -0.302169     -1.307667
34
Coordinates from ORCA-job phenylurea_guanine_opt_freq E -998.378402724211
  N       6.049567     -2.886587      0.663853
  C       4.980746     -2.022918      0.680950
  O       3.856817     -2.369965      0.298291
  N       5.215648     -0.733296      1.112541
  C       6.420197     -0.162210      1.601057
  C       6.391791      0.566157      2.801716
  C       7.555859      1.164562      3.287620
  C       8.762515      1.032013      2.590936
  C       8.790619      0.314541      1.395881
  C       7.624629     -0.267365      0.885990
  H       5.795586     -3.846084      0.501902
  H       6.871055     -2.712009      1.227433
  H       4.359318     -0.197454      1.221786
  H       5.459935      0.650188      3.359328
  H       7.522428      1.723642      4.219737
  H       9.668382      1.487645      2.975714
  H       9.718738      0.222897      0.841965
  H       7.645306     -0.785426     -0.070921
  O      -1.990334      1.491468     -2.398526
  N      -3.587214     -0.039123     -0.181561
  N      -0.162063      0.492577     -1.399556
  N      -0.244497     -0.991418      0.456588
  N      -2.507882     -1.345073      1.291840
  N       1.796819     -0.435625     -0.532352
  C      -2.244470      0.044218     -0.489036
  C      -1.592007     -0.775677      0.435426
  C      -1.548218      0.753140     -1.515729
  C       0.424871     -0.348992     -0.467303
  C      -3.677341     -0.883347      0.890664
  H      -4.338488      0.425671     -0.671168
  H       0.416558      0.995365     -2.068105
  H      -4.628698     -1.129858      1.343615
  H       2.224452     -1.214752     -0.029001
  H       2.226825     -0.303847     -1.437123
34
Coordinates from ORCA-job phenylurea_guanine_opt_freq E -998.378287450414
  N       6.037045     -2.897762      0.656823
  C       4.976964     -2.026885      0.648221
  O       3.863269     -2.372139      0.244731
  N       5.203973     -0.731597      1.080580
  C       6.401042     -0.160410      1.596772
  C       6.347384      0.566286      2.794214
  C       7.499612      1.162005      3.302589
  C       8.721781      1.029282      2.637529
  C       8.774260      0.314026      1.433632
  C       7.620839     -0.266443      0.905634
  H       5.780579     -3.864818      0.489076
  H       6.841412     -2.728281      1.237369
  H       4.354584     -0.195954      1.165242
  H       5.403212      0.651120      3.325728
  H       7.445751      1.719617      4.232151
  H       9.623318      1.484315      3.049877
  H       9.714801      0.222919      0.892034
  H       7.660403     -0.782865     -0.044456
  O      -2.030686      1.457502     -2.407249
  N      -3.556491     -0.031519     -0.122858
  N      -0.169325      0.476270     -1.453239
  N      -0.187408     -0.969026      0.432865
  N      -2.424058     -1.310980      1.343115
  N       1.824252     -0.433603     -0.610123
  C      -2.224795      0.043953     -0.480463
  C      -1.540208     -0.758196      0.440821
  C      -1.559014      0.734073     -1.533100
  C       0.453406     -0.344065     -0.516946
  C      -3.609114     -0.855609      0.970061
  H      -4.320806      0.429033     -0.582468
  H       0.389609      0.968583     -2.129571
  H      -4.541937     -1.091013      1.469526
  H       2.257864     -1.202784     -0.104954
  H       2.225933     -0.321977     -1.538709
34
Coordinates from ORCA-job phenylurea_guanine_opt_freq E -998.378783137041
  N       6.031928     -2.890978      0.632897
  C       4.979499     -2.010683      0.576721
  O       3.878197     -2.346890      0.126912
  N       5.201727     -0.719150      1.013114
  C       6.379552     -0.158296      1.575900
  C       6.282771      0.568813      2.770694
  C       7.417437      1.152737      3.329875
  C       8.663896      1.008129      2.718036
  C       8.760299      0.291839      1.520484
  C       7.624653     -0.276084      0.938929
  H       5.770827     -3.852391      0.461705
  H       6.818814     -2.724046      1.242959
  H       4.353652     -0.170688      1.050386
  H       5.319445      0.662472      3.260248
  H       7.330259      1.711077      4.259755
  H       9.550011      1.453814      3.166078
  H       9.721120      0.191129      1.018617
  H       7.699362     -0.793996     -0.012594
  O      -2.084165      1.375849     -2.434788
  N      -3.509022     -0.023106     -0.025423
  N      -0.183901      0.436540     -1.518653
  N      -0.121155     -0.928975      0.425604
  N      -2.315417     -1.237629      1.440358
  N       1.840995     -0.433419     -0.733046
  C      -2.191754      0.043598     -0.434121
  C      -1.468533     -0.718614      0.487249
  C      -1.573972      0.690415     -1.545930
  C       0.475817     -0.344016     -0.580272
  C      -3.516887     -0.803098      1.094956
  H      -4.299813      0.411636     -0.485848
  H       0.342444      0.896449     -2.248541
  H      -4.431797     -1.024385      1.629779
  H       2.305084     -1.186206     -0.225441
  H       2.206073     -0.338788     -1.672144
34
Coordinates from ORCA-job phenylurea_guanine_opt_freq E -998.378896675765
  N       6.041534     -2.910337      0.612826
  C       4.987031     -2.034030      0.508316
  O       3.904160     -2.378657      0.021408
  N       5.188679     -0.736910      0.942564
  C       6.337440     -0.167567      1.552253
  C       6.184692      0.567327      2.742779
  C       7.295583      1.160047      3.350320
  C       8.569366      1.013702      2.783619
  C       8.720165      0.290247      1.601871
  C       7.609976     -0.285831      0.971710
  H       5.796111     -3.872383      0.445683
  H       6.803894     -2.730292      1.247570
  H       4.337756     -0.180320      0.942325
  H       5.197406      0.660168      3.196163
  H       7.166302      1.725068      4.269223
  H       9.432442      1.462983      3.258994
  H       9.701105      0.189279      1.154472
  H       7.725642     -0.811573      0.027795
  O      -2.128273      1.340256     -2.426529
  N      -3.436089      0.006865      0.085478
  N      -0.187047      0.414136     -1.578091
  N      -0.035591     -0.907640      0.392179
  N      -2.179628     -1.176182      1.521329
  N       1.867881     -0.452229     -0.873505
  C      -2.141841      0.055526     -0.389520
  C      -1.377422     -0.687456      0.514521
  C      -1.579634      0.673673     -1.545813
  C       0.515240     -0.349108     -0.656321
  C      -3.390032     -0.741878      1.229247
  H      -4.241038      0.435512     -0.342810
  H       0.300754      0.856123     -2.356918
  H      -4.276809     -0.943357      1.815371
  H       2.352823     -1.197182     -0.368384
  H       2.194870     -0.374920     -1.825671
34
Coordinates from ORCA-job phenylurea_guanine_opt_freq E -998.379298580607
  N       6.021232     -2.902163      0.593673
  C       4.984920     -2.019140      0.422003
  O       3.926217     -2.356170     -0.124897
  N       5.174625     -0.724660      0.858135
  C       6.293853     -0.164431      1.530447
  C       6.085949      0.572546      2.707550
  C       7.168281      1.152672      3.373898
  C       8.468561      0.992235      2.879553
  C       8.674508      0.268057      1.703311
  C       7.594168     -0.295966      1.019381
  H       5.769774     -3.862179      0.422491
  H       6.750148     -2.726785      1.273300
  H       4.335578     -0.160444      0.796032
  H       5.077920      0.676592      3.103734
  H       6.996161      1.718586      4.284389
  H       9.309826      1.431509      3.402316
  H       9.677342      0.157174      1.303360
  H       7.754835     -0.822376      0.082150
  O      -2.190658      1.259678     -2.419362
  N      -3.342929      0.027858      0.216291
  N      -0.201291      0.367707     -1.657738
  N       0.072908     -0.870751      0.355779
  N      -1.999412     -1.093846      1.621579
  N       1.893497     -0.469217     -1.040862
  C      -2.078556      0.058393     -0.336641
  C      -1.259671     -0.646399      0.550026
  C      -1.587072      0.628226     -1.549251
  C       0.557047     -0.356887     -0.748571
  C      -3.228036     -0.673556      1.383158
  H      -4.174449      0.437369     -0.180731
  H       0.237616      0.775232     -2.478690
  H      -4.078531     -0.851740      2.027489
  H       2.407358     -1.193700     -0.534686
  H       2.165731     -0.420368     -2.014161
34
Coordinates from ORCA-job phenylurea_guanine_opt_freq E -998.379507734235
  N       6.014323     -2.934184      0.570318
  C       4.983743     -2.055727      0.346520
  O       3.952944     -2.403611     -0.240494
  N       5.143328     -0.752456      0.778267
  C       6.222231     -0.174683      1.498456
  C       5.948024      0.566462      2.657508
  C       6.988519      1.161670      3.368258
  C       8.312356      1.011797      2.949990
  C       8.585576      0.281177      1.789623
  C       7.547669     -0.297847      1.052501
  H       5.774944     -3.902965      0.398574
  H       6.706569     -2.747849      1.277048
  H       4.307092     -0.195781      0.670147
  H       4.921887      0.661879      2.996858
  H       6.763509      1.732080      4.266486
  H       9.122949      1.464269      3.517878
  H       9.610343      0.176876      1.436956
  H       7.757750     -0.829160      0.130969
  O      -2.206871      1.245751     -2.365561
  N      -3.210483      0.077649      0.356298
  N      -0.187005      0.340528     -1.711372
  N       0.196608     -0.857497      0.305088
  N      -1.793676     -1.031580      1.698889
  N       1.938491     -0.504801     -1.191835
  C      -1.981513      0.081021     -0.273904
  C      -1.117547     -0.614860      0.575374
  C      -1.558516      0.621097     -1.523777
  C       0.619267     -0.372254     -0.834380
  C      -3.032452     -0.601651      1.525459
  H      -4.066444      0.490836      0.000530
  H       0.206154      0.727445     -2.556223
  H      -3.844874     -0.757777      2.223021
  H       2.471112     -1.222072     -0.692490
  H       2.161446     -0.470723     -2.176529
34
Coordinates from ORCA-job phenylurea_guanine_opt_freq E -998.379858445327
  N       6.005296     -2.937068      0.541238
  C       4.983328     -2.062307      0.270457
  O       3.979069     -2.414951     -0.358192
  N       5.121436     -0.758490      0.704454
  C       6.165337     -0.179295      1.473845
  C       5.837459      0.558352      2.620796
  C       6.843306      1.154524      3.382267
  C       8.185118      1.008323      3.020397
  C       8.511937      0.281487      1.870151
  C       7.509242     -0.298467      1.089438
  H       5.775661     -3.905566      0.365558
  H       6.669809     -2.745549      1.276881
  H       4.291202     -0.201820      0.555428
  H       4.797123      0.650303      2.913538
  H       6.576962      1.722024      4.269782
  H       8.968082      1.460534      3.623715
  H       9.551371      0.180625      1.562863
  H       7.762156     -0.826922      0.175736
  O      -2.233284      1.190084     -2.336106
  N      -3.096864      0.115524      0.469756
  N      -0.183226      0.297976     -1.759296
  N       0.302486     -0.832636      0.274583
  N      -1.612756     -0.950975      1.776349
  N       1.962060     -0.538953     -1.327143
  C      -1.902575      0.092685     -0.222802
  C      -0.996395     -0.576633      0.603987
  C      -1.543088      0.590084     -1.508741
  C       0.666212     -0.388000     -0.902657
  C      -2.858349     -0.522801      1.652320
  H      -3.965479      0.520579      0.147656
  H       0.163810      0.653511     -2.640184
  H      -3.632109     -0.650948      2.397617
  H       2.516539     -1.241881     -0.835159
  H       2.136575     -0.530295     -2.324081
34
Coordinates from ORCA-job phenylurea_guanine_opt_freq E -998.380179209913
  N       6.001356     -2.941395      0.505835
  C       4.983745     -2.081203      0.189894
  O       4.008372     -2.444312     -0.481113
  N       5.092439     -0.778070      0.630987
  C       6.093517     -0.189830      1.450498
  C       5.705825      0.538328      2.586248
  C       6.672294      1.144209      3.393232
  C       8.032273      1.014208      3.086966
  C       8.417696      0.297036      1.950349
  C       7.456024     -0.291854      1.125059
  H       5.791386     -3.910370      0.323023
  H       6.632279     -2.740128      1.270309
  H       4.263664     -0.227742      0.447842
  H       4.649772      0.616493      2.837033
  H       6.361013      1.704244      4.268705
  H       8.782713      1.471343      3.723559
  H       9.468992      0.210427      1.693895
  H       7.755764     -0.812346      0.220308
  O      -2.248313      1.149428     -2.289011
  N      -2.954007      0.170487      0.595988
  N      -0.177101      0.251609     -1.808623
  N       0.420264     -0.817092      0.232710
  N      -1.405733     -0.866480      1.847880
  N       1.984728     -0.590021     -1.470822
  C      -1.804422      0.111598     -0.165998
  C      -0.855862     -0.538686      0.628853
  C      -1.517821      0.565312     -1.486412
  C       0.717752     -0.414167     -0.980490
  C      -2.649813     -0.428905      1.784966
  H      -3.832652      0.574340      0.313546
  H       0.117770      0.577950     -2.722863
  H      -3.377719     -0.523293      2.579578
  H       2.561498     -1.281356     -0.982798
  H       2.109755     -0.606705     -2.474681
34
Coordinates from ORCA-job phenylurea_guanine_opt_freq E -998.380722624800
  N       5.996359     -2.947977      0.442312
  C       4.985751     -2.100812      0.068956
  O       4.059763     -2.477465     -0.659631
  N       5.045539     -0.797844      0.519365
  C       5.980040     -0.202060      1.409167
  C       5.503959      0.502954      2.525467
  C       6.401583      1.116839      3.405316
  C       7.780822      1.016789      3.185725
  C       8.254751      0.321239      2.068989
  C       7.361781     -0.275269      1.175726
  H       5.816958     -3.919804      0.244902
  H       6.580119     -2.737809      1.242123
  H       4.220998     -0.258346      0.286661
  H       4.433208      0.556572      2.706414
  H       6.021921      1.659375      4.265069
  H       8.478083      1.480058      3.873540
  H       9.322482      0.257474      1.879979
  H       7.731069     -0.778541      0.286306
  O      -2.262049      1.066576     -2.211265
  N      -2.722942      0.256161      0.774806
  N      -0.161503      0.171950     -1.859516
  N       0.604088     -0.781873      0.179598
  N      -1.073805     -0.720066      1.947185
  N       2.014883     -0.668566     -1.664297
  C      -1.644046      0.141176     -0.079502
  C      -0.631867     -0.470285      0.666938
  C      -1.468763      0.517796     -1.442065
  C       0.798137     -0.452579     -1.076153
  C      -2.317500     -0.274912      1.966860
  H      -3.618716      0.653281      0.547347
  H       0.052129      0.441896     -2.813711
  H      -2.972512     -0.315497      2.827232
  H       2.629051     -1.336945     -1.191072
  H       2.057677     -0.730426     -2.674319
34
Coordinates from ORCA-job phenylurea_guanine_opt_freq E -998.381924151468
  N       5.972664     -2.953752      0.355239
  C       4.976533     -2.136270     -0.106720
  O       4.132748     -2.535995     -0.920129
  N       4.953568     -0.836905      0.353159
  C       5.770907     -0.224875      1.340601
  C       5.158658      0.436333      2.416132
  C       5.940138      1.064666      3.391018
  C       7.337281      1.020364      3.309002
  C       7.947563      0.367486      2.231836
  C       7.171309     -0.242676      1.244498
  H       5.844823     -3.929115      0.138392
  H       6.478647     -2.728104      1.203804
  H       4.141780     -0.318390      0.044280
  H       4.073710      0.444518      2.489916
  H       5.455983      1.573469      4.217249
  H       7.943976      1.493335      4.074661
  H       9.030299      0.347409      2.150752
  H       7.646118     -0.712687      0.387145
  O      -2.244045      0.956369     -2.032021
  N      -2.294012      0.392239      1.044728
  N      -0.123060      0.055651     -1.901521
  N       0.918409     -0.732653      0.088345
  N      -0.499629     -0.503267      2.058238
  N       2.061420     -0.790930     -1.932654
  C      -1.344777      0.191331      0.063285
  C      -0.239936     -0.368841      0.712066
  C      -1.357313      0.455512     -1.335862
  C       0.937301     -0.512156     -1.208045
  C      -1.727974     -0.041512      2.210145
  H      -3.210298      0.783045      0.909685
  H      -0.048563      0.242669     -2.898116
  H      -2.257151     -0.001279      3.152541
  H       2.729268     -1.427069     -1.492741
  H       1.981106     -0.914861     -2.934454
34
Coordinates from ORCA-job phenylurea_guanine_opt_freq E -998.379703969101
  N       6.014080     -2.944380      0.267189
  C       4.996791     -2.161619     -0.230181
  O       4.215459     -2.588497     -1.090187
  N       4.883055     -0.867332      0.253825
  C       5.619329     -0.246439      1.311460
  C       4.911600      0.341076      2.371848
  C       5.611807      0.984572      3.410103
  C       7.013242      1.023539      3.390945
  C       7.714418      0.438748      2.341597
  C       7.027985     -0.183905      1.294732
  H       5.960107     -3.929110      0.032965
  H       6.458341     -2.707661      1.145719
  H       4.044491     -0.384484     -0.070373
  H       3.819188      0.282110      2.392377
  H       5.057862      1.439283      4.226579
  H       7.546322      1.507774      4.174192
  H       8.795073      0.483261      2.315835
  H       7.574013     -0.597081      0.453097
  O      -2.231570      0.929263     -1.867094
  N      -1.964537      0.541687      1.212450
  N      -0.120693     -0.040608     -1.897863
  N       1.109028     -0.741049     -0.027276
  N      -0.088409     -0.349390      2.054639
  N       2.046659     -0.936204     -2.109792
  C      -1.130128      0.246026      0.144964
  C       0.030928     -0.306979      0.694348
  C      -1.286112      0.430308     -1.246574
  C       0.997892     -0.595829     -1.307537
  C      -1.279806      0.164175      2.323222
  H      -2.886683      0.955659      1.152438
  H      -0.144786      0.095166     -2.866956
  H      -1.702614      0.280046      3.315174
  H       2.767920     -1.549070     -1.660738
  H       1.877197     -1.099996     -3.080675
34
Coordinates from ORCA-job phenylurea_guanine_opt_freq E -998.378060018716
  N       6.027991     -2.923378      0.159937
  C       5.001517     -2.165230     -0.340695
  O       4.272363     -2.610228     -1.225512
  N       4.820744     -0.882352      0.173954
  C       5.492149     -0.259604      1.285233
  C       4.724848      0.238000      2.346755
  C       5.353338      0.880631      3.437226
  C       6.743262      1.007403      3.485038
  C       7.506932      0.505386      2.437312
  C       6.890815     -0.113738      1.322295
  H       6.024065     -3.913345     -0.114453
  H       6.439914     -2.679233      1.022447
  H       3.973528     -0.440306     -0.163859
  H       3.644851      0.108557      2.321508
  H       4.748974      1.267861      4.257654
  H       7.228012      1.495944      4.323686
  H       8.587712      0.615416      2.448922
  H       7.481579     -0.459525      0.486510
  O      -2.212715      0.817449     -1.815809
  N      -1.693315      0.673245      1.348624
  N      -0.108783     -0.163191     -1.928321
  N       1.271223     -0.696790     -0.059031
  N       0.256283     -0.146298      2.129568
  N       2.044797     -1.053443     -2.240095
  C      -0.948750      0.290152      0.212604
  C       0.259212     -0.212893      0.726037
  C      -1.218594      0.362060     -1.210805
  C       1.056283     -0.657978     -1.367752
  C      -0.915399      0.386403      2.458308
  H      -2.630994      1.083164      1.329279
  H      -0.210727     -0.104349     -2.927839
  H      -1.255929      0.578246      3.495815
  H       2.803563     -1.632419     -1.795252
  H       1.798701     -1.282558     -3.194835
34
Coordinates from ORCA-job phenylurea_guanine_opt_freq E -998.382771042001
  N       6.001380     -2.900880      0.181278
  C       4.987295     -2.142539     -0.334465
  O       4.256627     -2.581744     -1.227841
  N       4.824343     -0.868960      0.169847
  C       5.483311     -0.260155      1.267009
  C       4.713733      0.257175      2.321072
  C       5.323979      0.886040      3.399595
  C       6.713723      0.984548      3.455503
  C       7.481130      0.465695      2.411759
  C       6.868347     -0.142627      1.306996
  H       5.987418     -3.875006     -0.081124
  H       6.408108     -2.653003      1.061878
  H       3.992474     -0.418032     -0.166091
  H       3.639672      0.149460      2.290892
  H       4.718009      1.284423      4.210532
  H       7.198938      1.466971      4.310922
  H       8.563297      0.553687      2.436122
  H       7.464317     -0.504512      0.476211
  O      -2.175071      0.767955     -1.765839
  N      -1.671963      0.639580      1.327791
  N      -0.085730     -0.156879     -1.890536
  N       1.309057     -0.658607     -0.016311
  N       0.284897     -0.131874      2.121684
  N       2.056108     -1.022679     -2.201091
  C      -0.924568      0.281833      0.231807
  C       0.287109     -0.195211      0.743403
  C      -1.195589      0.349078     -1.170738
  C       1.085598     -0.630251     -1.325633
  C      -0.894944      0.367600      2.421982
  H      -2.599468      1.022196      1.305865
  H      -0.204667     -0.115264     -2.934035
  H      -1.240873      0.547853      3.428474
  H       2.799576     -1.590329     -1.789929
  H       1.801874     -1.262485     -3.152534
34
Coordinates from ORCA-job phenylurea_guanine_opt_freq E -998.385120669424
  N       6.013215     -2.899896      0.198398
  C       4.989638     -2.153397     -0.343021
  O       4.264440     -2.596081     -1.261225
  N       4.805532     -0.885666      0.157542
  C       5.445644     -0.270387      1.262449
  C       4.646190      0.242952      2.301741
  C       5.242915      0.881176      3.387992
  C       6.643372      0.991580      3.456562
  C       7.434544      0.476284      2.422481
  C       6.842299     -0.139223      1.322695
  H       6.015544     -3.869750     -0.059593
  H       6.406541     -2.648753      1.106166
  H       3.960462     -0.435833     -0.188288
  H       3.563073      0.126674      2.253377
  H       4.621781      1.278779      4.187697
  H       7.110867      1.480427      4.304515
  H       8.518353      0.575800      2.458004
  H       7.458499     -0.497644      0.498036
  O      -2.192476      0.797745     -1.695147
  N      -1.589846      0.659782      1.368697
  N      -0.091064     -0.154762     -1.887730
  N       1.352773     -0.683484     -0.078514
  N       0.382729     -0.140738      2.088679
  N       2.056872     -1.042255     -2.242213
  C      -0.874554      0.288786      0.249436
  C       0.347927     -0.205347      0.716188
  C      -1.183574      0.361985     -1.137189
  C       1.098538     -0.645483     -1.363392
  C      -0.785720      0.379292      2.430080
  H      -2.515723      1.056529      1.374173
  H      -0.226991     -0.102396     -2.891217
  H      -1.101955      0.567641      3.445463
  H       2.804782     -1.607346     -1.832136
  H       1.792825     -1.273934     -3.186248
34
Coordinates from ORCA-job phenylurea_guanine_opt_freq E -998.385813528002
  N       6.024149     -2.890194      0.143648
  C       4.997357     -2.152731     -0.372289
  O       4.285784     -2.597120     -1.279762
  N       4.797053     -0.893888      0.146809
  C       5.423991     -0.278025      1.264056
  C       4.617006      0.202241      2.308209
  C       5.200272      0.840672      3.405541
  C       6.590147      0.983751      3.481996
  C       7.391836      0.500906      2.447352
  C       6.816662     -0.114789      1.329977
  H       6.036217     -3.860662     -0.133379
  H       6.418250     -2.648450      1.038571
  H       3.947863     -0.457676     -0.185987
  H       3.539823      0.061875      2.257230
  H       4.571558      1.213395      4.208802
  H       7.041654      1.471963      4.336988
  H       8.469099      0.625599      2.489699
  H       7.439742     -0.446978      0.504154
  O      -2.193060      0.760528     -1.689162
  N      -1.535402      0.699324      1.375284
  N      -0.094021     -0.191576     -1.878963
  N       1.372434     -0.663829     -0.079112
  N       0.443296     -0.073760      2.084405
  N       2.042856     -1.071592     -2.244240
  C      -0.839758      0.302210      0.250957
  C       0.386000     -0.173000      0.715059
  C      -1.171168      0.339066     -1.132379
  C       1.096985     -0.660640     -1.360408
  C      -0.715925      0.449743      2.435719
  H      -2.466275      1.093542      1.385944
  H      -0.239450     -0.167763     -2.866314
  H      -1.015077      0.661629      3.451116
  H       2.809512     -1.630328     -1.836953
  H       1.768040     -1.320384     -3.178115
34
Coordinates from ORCA-job phenylurea_guanine_opt_freq E -998.386403662602
  N       6.030380     -2.886256      0.135618
  C       5.001466     -2.149738     -0.392249
  O       4.305062     -2.595305     -1.309879
  N       4.783602     -0.893739      0.126801
  C       5.397238     -0.278533      1.258293
  C       4.579316      0.193664      2.296322
  C       5.151620      0.828250      3.402976
  C       6.536828      0.977897      3.493753
  C       7.350957      0.505368      2.463200
  C       6.788115     -0.109533      1.336211
  H       6.046223     -3.859916     -0.145053
  H       6.411566     -2.652330      1.037661
  H       3.933557     -0.465415     -0.213385
  H       3.504267      0.049807      2.236552
  H       4.511953      1.193079      4.203822
  H       6.977707      1.464640      4.359296
  H       8.428778      0.634527      2.516096
  H       7.418731     -0.435658      0.514152
  O      -2.184972      0.734429     -1.658474
  N      -1.491160      0.719334      1.406638
  N      -0.091472     -0.210084     -1.876274
  N       1.412359     -0.648727     -0.085479
  N       0.512918     -0.035138      2.095119
  N       2.050771     -1.091688     -2.282965
  C      -0.807444      0.311666      0.271593
  C       0.433090     -0.152200      0.723395
  C      -1.160279      0.328407     -1.111835
  C       1.112459     -0.667638     -1.376144
  C      -0.650809      0.486036      2.462157
  H      -2.427233      1.109994      1.432536
  H      -0.256723     -0.205739     -2.884796
  H      -0.937761      0.709102      3.484197
  H       2.825640     -1.640664     -1.879745
  H       1.760697     -1.354844     -3.215658
34
Coordinates from ORCA-job phenylurea_guanine_opt_freq E -998.387361718476
  N       6.037316     -2.867779      0.126862
  C       4.998983     -2.146834     -0.412652
  O       4.312939     -2.599234     -1.350802
  N       4.756475     -0.897976      0.111031
  C       5.343834     -0.286917      1.250138
  C       4.503369      0.158385      2.280811
  C       5.049721      0.792433      3.398609
  C       6.434167      0.966009      3.503245
  C       7.266707      0.517834      2.477270
  C       6.726560     -0.094220      1.344579
  H       6.079331     -3.833773     -0.155592
  H       6.404529     -2.625401      1.035764
  H       3.897037     -0.481952     -0.229072
  H       3.431830     -0.004586      2.205790
  H       4.396445      1.138574      4.194206
  H       6.857591      1.452594      4.373022
  H       8.340005      0.665828      2.542326
  H       7.371379     -0.400925      0.526345
  O      -2.172221      0.712730     -1.595767
  N      -1.374883      0.751496      1.440129
  N      -0.088071     -0.236102     -1.866921
  N       1.476035     -0.646117     -0.122396
  N       0.650210      0.009405      2.079494
  N       2.044335     -1.118680     -2.305778
  C      -0.732092      0.321640      0.294720
  C       0.523478     -0.134601      0.713062
  C      -1.131409      0.315405     -1.077539
  C       1.135972     -0.684527     -1.394408
  C      -0.499308      0.538657      2.466525
  H      -2.302970      1.141284      1.483956
  H      -0.289158     -0.242991     -2.867767
  H      -0.749962      0.782840      3.493208
  H       2.824989     -1.657194     -1.913458
  H       1.734286     -1.392248     -3.224487
34
Coordinates from ORCA-job phenylurea_guanine_opt_freq E -998.387853303916
  N       6.056798     -2.856370      0.084260
  C       5.010727     -2.145550     -0.446471
  O       4.334920     -2.598776     -1.388276
  N       4.748802     -0.907591      0.092039
  C       5.317306     -0.297245      1.242760
  C       4.453219      0.125032      2.273284
  C       4.975990      0.759301      3.403125
  C       6.362247      0.957526      3.527446
  C       7.220971      0.532013      2.502235
  C       6.703039     -0.080287      1.353196
  H       6.111073     -3.819210     -0.208412
  H       6.417402     -2.621509      1.000137
  H       3.879454     -0.504011     -0.243181
  H       3.381973     -0.054597      2.185630
  H       4.303610      1.087619      4.196782
  H       6.767565      1.445404      4.414140
  H       8.296431      0.698460      2.581146
  H       7.366210     -0.368563      0.537719
  O      -2.175441      0.683284     -1.546432
  N      -1.305094      0.790614      1.454571
  N      -0.089788     -0.267648     -1.844284
  N       1.509629     -0.628750     -0.129614
  N       0.727194      0.069071      2.059623
  N       2.031345     -1.150391     -2.318135
  C      -0.687054      0.337364      0.309508
  C       0.573967     -0.104564      0.706735
  C      -1.115541      0.299512     -1.046213
  C       1.142638     -0.699311     -1.389134
  C      -0.411855      0.602874      2.461224
  H      -2.234783      1.179236      1.513078
  H      -0.306030     -0.302346     -2.828836
  H      -0.642664      0.868185      3.480703
  H       2.831527     -1.677690     -1.940216
  H       1.701664     -1.438026     -3.225682
34
Coordinates from ORCA-job phenylurea_guanine_opt_freq E -998.388286114480
  N       6.064515     -2.829350      0.068601
  C       5.013945     -2.126082     -0.455722
  O       4.355404     -2.577803     -1.398488
  N       4.730827     -0.900601      0.090846
  C       5.288364     -0.299338      1.253850
  C       4.426088      0.096333      2.283194
  C       4.944700      0.718442      3.414490
  C       6.319056      0.932964      3.539690
  C       7.175811      0.536367      2.516585
  C       6.666615     -0.065261      1.367155
  H       6.127742     -3.790540     -0.237895
  H       6.419139     -2.605699      0.986323
  H       3.854026     -0.509970     -0.240468
  H       3.361315     -0.092479      2.196760
  H       4.273849      1.025542      4.207479
  H       6.716568      1.411874      4.427141
  H       8.242239      0.715734      2.597168
  H       7.327964     -0.331745      0.551471
  O      -2.193764      0.641978     -1.523492
  N      -1.249323      0.819166      1.464563
  N      -0.101884     -0.299552     -1.843186
  N       1.542230     -0.610667     -0.155597
  N       0.805906      0.123891      2.035142
  N       2.022098     -1.176006     -2.339474
  C      -0.654140      0.346220      0.310111
  C       0.620658     -0.078360      0.688091
  C      -1.115059      0.276917     -1.036565
  C       1.146139     -0.711762     -1.406351
  C      -0.327690      0.658788      2.461120
  H      -2.187223      1.204217      1.537423
  H      -0.339405     -0.358906     -2.821442
  H      -0.536124      0.943052      3.481825
  H       2.839712     -1.688085     -1.959841
  H       1.677151     -1.486221     -3.236053
34
Coordinates from ORCA-job phenylurea_guanine_opt_freq E -998.388465622422
  N       6.078341     -2.817337      0.041368
  C       5.019521     -2.120881     -0.477666
  O       4.369833     -2.574980     -1.435746
  N       4.720529     -0.902617      0.081372
  C       5.269852     -0.304786      1.252901
  C       4.405248      0.073777      2.290321
  C       4.918222      0.692719      3.433975
  C       6.288518      0.920653      3.558454
  C       7.148089      0.542338      2.528244
  C       6.642166     -0.056702      1.366345
  H       6.153746     -3.772170     -0.278661
  H       6.430487     -2.597894      0.959090
  H       3.837659     -0.527676     -0.242032
  H       3.342260     -0.123982      2.204503
  H       4.244349      0.986316      4.231886
  H       6.680889      1.396155      4.447108
  H       8.212152      0.732778      2.610301
  H       7.307258     -0.310185      0.545104
  O      -2.171429      0.604403     -1.513218
  N      -1.226226      0.848248      1.479599
  N      -0.098475     -0.328669     -1.841631
  N       1.556713     -0.596540     -0.164666
  N       0.838665      0.180709      2.046719
  N       2.020319     -1.200883     -2.347036
  C      -0.638357      0.355774      0.319801
  C       0.642205     -0.051332      0.696541
  C      -1.104669      0.257300     -1.030271
  C       1.153047     -0.724684     -1.414900
  C      -0.296591      0.714252      2.470418
  H      -2.158292      1.226872      1.553027
  H      -0.347237     -0.405140     -2.825202
  H      -0.496641      1.018797      3.496287
  H       2.840407     -1.700466     -1.981229
  H       1.674895     -1.521109     -3.236652
34
Coordinates from ORCA-job phenylurea_guanine_opt_freq E -998.388965995400
  N       6.096656     -2.810596      0.046612
  C       5.029419     -2.105428     -0.470679
  O       4.369638     -2.550398     -1.438033
  N       4.728933     -0.890561      0.093255
  C       5.286896     -0.303730      1.260129
  C       4.423205      0.069766      2.298093
  C       4.942427      0.680153      3.444372
  C       6.321556      0.906739      3.572710
  C       7.180753      0.533299      2.529781
  C       6.664458     -0.057656      1.368622
  H       6.169705     -3.765635     -0.275036
  H       6.449556     -2.600881      0.967995
  H       3.833208     -0.520143     -0.221769
  H       3.356886     -0.121955      2.207883
  H       4.267556      0.970461      4.246700
  H       6.722260      1.377402      4.470436
  H       8.252085      0.721130      2.604579
  H       7.326221     -0.307307      0.544722
  O      -2.208682      0.586804     -1.525036
  N      -1.249638      0.849740      1.452513
  N      -0.124411     -0.335992     -1.840522
  N       1.544208     -0.582974     -0.152481
  N       0.818183      0.192030      2.033201
  N       2.004383     -1.200137     -2.340511
  C      -0.661021      0.356743      0.310264
  C       0.623694     -0.042721      0.693671
  C      -1.131684      0.250286     -1.037768
  C       1.136042     -0.722105     -1.406310
  C      -0.320223      0.721384      2.441802
  H      -2.182429      1.223914      1.520705
  H      -0.374603     -0.420688     -2.823055
  H      -0.522760      1.028815      3.458256
  H       2.837039     -1.692545     -1.981548
  H       1.647934     -1.524157     -3.229100
34
Coordinates from ORCA-job phenylurea_guanine_opt_freq E -998.389199789820
  N       6.109829     -2.793012      0.013706
  C       5.037797     -2.100397     -0.479082
  O       4.381489     -2.542671     -1.441010
  N       4.730342     -0.898863      0.103611
  C       5.284100     -0.312313      1.276307
  C       4.420275      0.048741      2.323761
  C       4.937101      0.657198      3.464939
  C       6.313969      0.897109      3.584839
  C       7.174829      0.538348      2.536781
  C       6.662863     -0.051096      1.378673
  H       6.188051     -3.738249     -0.323703
  H       6.469290     -2.589376      0.933767
  H       3.826693     -0.538137     -0.196574
  H       3.354975     -0.149025      2.242112
  H       4.262217      0.937297      4.269129
  H       6.711713      1.366745      4.484539
  H       8.242566      0.736752      2.609750
  H       7.325042     -0.288787      0.549963
  O      -2.232140      0.574090     -1.502724
  N      -1.238179      0.872866      1.444653
  N      -0.132451     -0.351504     -1.834731
  N       1.541697     -0.576367     -0.178725
  N       0.828067      0.220230      1.997585
  N       1.991446     -1.221418     -2.336326
  C      -0.656775      0.366295      0.299645
  C       0.625681     -0.029396      0.663126
  C      -1.135158      0.243894     -1.030529
  C       1.131163     -0.729277     -1.406670
  C      -0.302910      0.756441      2.424961
  H      -2.178773      1.249994      1.522059
  H      -0.388475     -0.454818     -2.812851
  H      -0.498676      1.074941      3.437821
  H       2.834231     -1.705182     -1.976494
  H       1.635559     -1.557996     -3.217855
34
Coordinates from ORCA-job phenylurea_guanine_opt_freq E -998.389878848088
  N       6.112588     -2.767763     -0.001610
  C       5.036085     -2.079664     -0.488576
  O       4.389175     -2.518716     -1.447113
  N       4.714241     -0.886828      0.103575
  C       5.269481     -0.312004      1.281292
  C       4.413392      0.031944      2.338491
  C       4.936362      0.627347      3.483149
  C       6.306727      0.873513      3.594374
  C       7.158518      0.535585      2.543327
  C       6.643025     -0.042924      1.380830
  H       6.194453     -3.710702     -0.348363
  H       6.469100     -2.577636      0.927779
  H       3.805673     -0.537180     -0.181864
  H       3.347469     -0.166886      2.260151
  H       4.266937      0.892675      4.292603
  H       6.705344      1.333076      4.489288
  H       8.220603      0.741313      2.614696
  H       7.300034     -0.264815      0.545333
  O      -2.230845      0.534049     -1.505460
  N      -1.222262      0.890563      1.445556
  N      -0.137599     -0.380526     -1.840453
  N       1.557720     -0.560310     -0.180973
  N       0.856427      0.267038      1.994899
  N       1.986960     -1.243378     -2.349497
  C      -0.648248      0.370103      0.299153
  C       0.643605     -0.006800      0.664549
  C      -1.137915      0.221653     -1.033557
  C       1.132665     -0.741461     -1.420097
  C      -0.276330      0.798432      2.420970
  H      -2.160782      1.261105      1.523500
  H      -0.395793     -0.495614     -2.801353
  H      -0.464214      1.131475      3.429510
  H       2.835343     -1.710112     -1.988977
  H       1.629510     -1.593495     -3.220680
34
Coordinates from ORCA-job phenylurea_guanine_opt_freq E -998.390429621151
  N       6.129563     -2.754091     -0.015353
  C       5.040673     -2.066585     -0.492244
  O       4.393221     -2.500321     -1.465124
  N       4.709063     -0.881161      0.115361
  C       5.267863     -0.313808      1.290739
  C       4.416518      0.017459      2.350358
  C       4.945045      0.605776      3.503128
  C       6.315195      0.857440      3.614104
  C       7.161019      0.533583      2.550427
  C       6.639834     -0.038755      1.384035
  H       6.220078     -3.694612     -0.375456
  H       6.487343     -2.569710      0.907160
  H       3.787948     -0.544689     -0.158064
  H       3.350453     -0.181652      2.270007
  H       4.276780      0.861195      4.319780
  H       6.719763      1.310873      4.516936
  H       8.225326      0.743323      2.613878
  H       7.292174     -0.252028      0.543892
  O      -2.239817      0.498729     -1.513918
  N      -1.227547      0.907550      1.433914
  N      -0.149837     -0.400249     -1.836947
  N       1.557683     -0.545702     -0.186001
  N       0.865500      0.304930      1.989726
  N       1.977141     -1.257539     -2.348114
  C      -0.654775      0.375099      0.292213
  C       0.644621      0.011990      0.660176
  C      -1.148829      0.204972     -1.040011
  C       1.126413     -0.746229     -1.419909
  C      -0.273054      0.834328      2.409577
  H      -2.167664      1.272567      1.510865
  H      -0.419870     -0.532929     -2.810818
  H      -0.456268      1.183182      3.423785
  H       2.833849     -1.713379     -1.996012
  H       1.612046     -1.616499     -3.217638
34
Coordinates from ORCA-job phenylurea_guanine_opt_freq E -998.390913962297
  N       6.148296     -2.732668     -0.042393
  C       5.046583     -2.059187     -0.508562
  O       4.399271     -2.491009     -1.488582
  N       4.697937     -0.886757      0.116933
  C       5.250886     -0.322922      1.301139
  C       4.396372     -0.013402      2.370055
  C       4.917305      0.574326      3.524704
  C       6.285748      0.846926      3.631016
  C       7.135044      0.544351      2.562199
  C       6.619082     -0.026788      1.392528
  H       6.255362     -3.663950     -0.413407
  H       6.504239     -2.552141      0.883465
  H       3.764508     -0.566858     -0.140692
  H       3.334187     -0.223885      2.294800
  H       4.247250      0.814152      4.345119
  H       6.685427      1.299597      4.533520
  H       8.195109      0.770308      2.626023
  H       7.272162     -0.222253      0.547783
  O      -2.252135      0.484736     -1.474280
  N      -1.187343      0.936851      1.431992
  N      -0.156846     -0.421132     -1.828310
  N       1.576506     -0.540588     -0.205346
  N       0.906848      0.341042      1.964586
  N       1.962232     -1.289123     -2.362798
  C      -0.630120      0.387336      0.297178
  C       0.672445      0.029218      0.647610
  C      -1.144390      0.198255     -1.019399
  C       1.127588     -0.760629     -1.427745
  C      -0.222742      0.878586      2.391295
  H      -2.123641      1.303163      1.516130
  H      -0.442247     -0.569918     -2.793579
  H      -0.396821      1.240725      3.388899
  H       2.828341     -1.730769     -2.013474
  H       1.585005     -1.662536     -3.223953
34
Coordinates from ORCA-job phenylurea_guanine_opt_freq E -998.391113918196
  N       6.160981     -2.706168     -0.062686
  C       5.050414     -2.030356     -0.502578
  O       4.395712     -2.448528     -1.469435
  N       4.703368     -0.871876      0.140996
  C       5.278584     -0.324182      1.323492
  C       4.440333     -0.022720      2.411605
  C       4.981203      0.546963      3.558443
  C       6.354934      0.814501      3.651771
  C       7.189226      0.524568      2.563844
  C       6.654414     -0.030254      1.397591
  H       6.260443     -3.630114     -0.448592
  H       6.527847     -2.545915      0.866584
  H       3.755990     -0.559728     -0.093102
  H       3.375205     -0.220818      2.349775
  H       4.321591      0.778736      4.391087
  H       6.769848      1.254090      4.556333
  H       8.254450      0.748381      2.614607
  H       7.295285     -0.215591      0.539139
  O      -2.297273      0.433298     -1.512463
  N      -1.243030      0.945467      1.392604
  N      -0.183488     -0.448212     -1.843856
  N       1.542064     -0.513278     -0.210290
  N       0.851871      0.385025      1.938365
  N       1.943478     -1.292824     -2.338679
  C      -0.674561      0.388159      0.263567
  C       0.627605      0.053241      0.623516
  C      -1.181060      0.171552     -1.050755
  C       1.102802     -0.758936     -1.425039
  C      -0.285782      0.911893      2.356418
  H      -2.189038      1.301630      1.468251
  H      -0.456832     -0.619371     -2.799915
  H      -0.465647      1.286515      3.354928
  H       2.818222     -1.718662     -1.991500
  H       1.578292     -1.673428     -3.189570
34
Coordinates from ORCA-job phenylurea_guanine_opt_freq E -998.391742895125
  N       6.172592     -2.678087     -0.086057
  C       5.050960     -2.023044     -0.513009
  O       4.406640     -2.444089     -1.488866
  N       4.681114     -0.877592      0.144699
  C       5.247288     -0.332444      1.325595
  C       4.407833     -0.050909      2.415205
  C       4.944812      0.517197      3.572169
  C       6.311304      0.803296      3.660764
  C       7.143502      0.534482      2.569594
  C       6.615893     -0.019672      1.400403
  H       6.293286     -3.596993     -0.486900
  H       6.535714     -2.520571      0.846097
  H       3.728755     -0.583732     -0.075236
  H       3.341866     -0.262298      2.348756
  H       4.284457      0.733094      4.406444
  H       6.721120      1.241803      4.564486
  H       8.201087      0.773052      2.618269
  H       7.256619     -0.189874      0.539683
  O      -2.283701      0.414759     -1.486738
  N      -1.195579      0.971786      1.398125
  N      -0.179274     -0.466334     -1.824266
  N       1.573111     -0.509172     -0.221016
  N       0.913773      0.420558      1.921283
  N       1.939891     -1.323703     -2.352167
  C      -0.643232      0.398117      0.269289
  C       0.669065      0.069345      0.616144
  C      -1.169018      0.162924     -1.032835
  C       1.114231     -0.772867     -1.426379
  C      -0.218847      0.953851      2.348860
  H      -2.139427      1.329089      1.483226
  H      -0.468773     -0.648726     -2.773572
  H      -0.381796      1.345338      3.349051
  H       2.824221     -1.737259     -2.008941
  H       1.557963     -1.718265     -3.197707
