26
Coordinates from ORCA-job semicarbazide_guanine_opt_freq E -822.662173317420
  N       5.415777     -0.763181      1.503893
  N       4.387020     -1.732977      1.499813
  C       4.648245     -3.083948      1.503587
  O       3.770755     -3.935850      1.499576
  N       5.970174     -3.393827      1.499812
  H       5.914814     -0.853328      0.612764
  H       4.986795      0.164929      1.477829
  H       3.403854     -1.472411      1.537324
  H       6.546111     -2.691506      1.945536
  H       6.181896     -4.361425      1.696169
  O       0.192100      2.665900     -0.000400
  N      -2.071500      0.658800      0.000600
  N       1.574000      0.803100      0.000100
  N       0.756600     -1.453600     -0.000300
  N      -1.719400     -1.543200     -0.000600
  N       3.054900     -1.010000      0.000500
  C      -0.718000      0.488500     -0.000100
  C      -0.524500     -0.873100     -0.000400
  C       0.338300      1.448600     -0.000100
  C       1.748300     -0.592400      0.000000
  C      -2.630800     -0.592600      0.000500
  H      -2.570600      1.538600      0.001200
  H       2.407800      1.383500      0.000300
  H      -3.701500     -0.739200      0.001000
  H       3.290500     -1.996500      0.000600
  H       3.822300     -0.347100      0.000800
26
Coordinates from ORCA-job semicarbazide_guanine_opt_freq E -822.683297868629
  N       5.432704     -0.792481      1.514634
  N       4.412294     -1.768736      1.526556
  C       4.691664     -3.112275      1.537681
  O       3.803282     -3.962609      1.526415
  N       6.035752     -3.404665      1.520720
  H       5.931829     -0.877049      0.621037
  H       4.996280      0.131209      1.488763
  H       3.414281     -1.492714      1.559508
  H       6.618334     -2.699414      1.959185
  H       6.261111     -4.370528      1.709658
  O       0.189968      2.700769      0.001562
  N      -2.104819      0.676245      0.000914
  N       1.549294      0.820447     -0.015066
  N       0.731262     -1.431494     -0.025051
  N      -1.724181     -1.532100     -0.014823
  N       3.018272     -1.003601     -0.025437
  C      -0.742724      0.512067     -0.006667
  C      -0.532800     -0.857338     -0.015866
  C       0.312569      1.476196     -0.005728
  C       1.715137     -0.573894     -0.024369
  C      -2.644138     -0.582837     -0.004316
  H      -2.609469      1.551956      0.008740
  H       2.377646      1.404415     -0.016375
  H      -3.713526     -0.742236     -0.000230
  H       3.253805     -1.999280     -0.027021
  H       3.800114     -0.354275     -0.014420
26
Coordinates from ORCA-job semicarbazide_guanine_opt_freq E -822.698170568879
  N       5.458725     -0.818524      1.516350
  N       4.440103     -1.804676      1.549650
  C       4.734588     -3.141033      1.568817
  O       3.842722     -3.991256      1.552639
  N       6.092041     -3.417515      1.543844
  H       5.952289     -0.896667      0.618616
  H       5.015135      0.098441      1.497688
  H       3.444680     -1.515267      1.579202
  H       6.678959     -2.713436      1.977669
  H       6.324575     -4.382418      1.731144
  O       0.191368      2.729905      0.004722
  N      -2.139784      0.689333      0.000152
  N       1.524655      0.835774     -0.027261
  N       0.704107     -1.407073     -0.047301
  N      -1.734228     -1.520340     -0.030193
  N       2.986260     -0.992987     -0.047967
  C      -0.770393      0.535530     -0.012609
  C      -0.544796     -0.839864     -0.030820
  C       0.283449      1.500809     -0.009595
  C       1.685410     -0.552917     -0.044922
  C      -2.660848     -0.575149     -0.011179
  H      -2.649181      1.561462      0.014665
  H       2.345200      1.429397     -0.030230
  H      -3.728532     -0.748301     -0.004958
  H       3.218044     -1.987160     -0.051873
  H       3.779395     -0.360290     -0.026246
26
Coordinates from ORCA-job semicarbazide_guanine_opt_freq E -822.713149864388
  N       5.505265     -0.849153      1.516420
  N       4.491205     -1.850926      1.577438
  C       4.803665     -3.182910      1.608560
  O       3.920989     -4.041167      1.587268
  N       6.167165     -3.441940      1.583045
  H       5.986127     -0.920182      0.612472
  H       5.051579      0.061929      1.515780
  H       3.507016     -1.551136      1.602154
  H       6.755665     -2.739138      2.015258
  H       6.403212     -4.405513      1.775209
  O       0.180934      2.757337      0.012442
  N      -2.187565      0.708000     -0.000102
  N       1.487147      0.853707     -0.043583
  N       0.663863     -1.378096     -0.080473
  N      -1.767219     -1.499008     -0.054596
  N       2.946908     -0.974051     -0.083431
  C      -0.813714      0.565135     -0.020126
  C      -0.577074     -0.813985     -0.053367
  C       0.239108      1.527112     -0.013025
  C       1.648698     -0.525690     -0.074277
  C      -2.696678     -0.558717     -0.022169
  H      -2.698821      1.578593      0.025150
  H       2.295994      1.463390     -0.049819
  H      -3.762752     -0.743435     -0.013428
  H       3.172268     -1.964059     -0.094553
  H       3.750956     -0.360321     -0.048243
26
Coordinates from ORCA-job semicarbazide_guanine_opt_freq E -822.725043336988
  N       5.568857     -0.885820      1.512442
  N       4.564179     -1.903485      1.600110
  C       4.894886     -3.234096      1.647080
  O       4.030500     -4.107166      1.627075
  N       6.258934     -3.477609      1.640792
  H       6.025395     -0.943215      0.596904
  H       5.107519      0.019483      1.551845
  H       3.595039     -1.601967      1.619035
  H       6.844957     -2.772713      2.072481
  H       6.493271     -4.438284      1.850522
  O       0.150206      2.784980      0.024137
  N      -2.241473      0.732258      0.000280
  N       1.438104      0.876528     -0.061004
  N       0.615292     -1.347793     -0.120309
  N      -1.814795     -1.470715     -0.085910
  N       2.897719     -0.948284     -0.130203
  C      -0.866484      0.597427     -0.028057
  C      -0.624175     -0.782397     -0.081129
  C       0.184602      1.555739     -0.015379
  C       1.603949     -0.494313     -0.107523
  C      -2.745257     -0.534992     -0.036438
  H      -2.752491      1.602584      0.039361
  H       2.234274      1.503276     -0.073461
  H      -3.810097     -0.727362     -0.025194
  H       3.111045     -1.934109     -0.155852
  H       3.709985     -0.352180     -0.081603
26
Coordinates from ORCA-job semicarbazide_guanine_opt_freq E -822.731999193045
  N       5.630632     -0.921012      1.512302
  N       4.637459     -1.948172      1.616228
  C       4.981535     -3.277617      1.682835
  O       4.132584     -4.163308      1.665645
  N       6.344158     -3.511082      1.690905
  H       6.054840     -0.954150      0.581663
  H       5.167795     -0.021711      1.607553
  H       3.673185     -1.652585      1.626879
  H       6.930659     -2.801035      2.112948
  H       6.577290     -4.468316      1.917420
  O       0.110092      2.807891      0.030169
  N      -2.286386      0.756894     -0.002886
  N       1.392835      0.897564     -0.075055
  N       0.568905     -1.324847     -0.151252
  N      -1.861318     -1.443963     -0.112407
  N       2.849928     -0.927894     -0.169930
  C      -0.912269      0.622947     -0.036211
  C      -0.670667     -0.755640     -0.103927
  C       0.138390      1.579550     -0.019122
  C       1.559911     -0.470197     -0.133786
  C      -2.791559     -0.509605     -0.051108
  H      -2.795602      1.627876      0.046098
  H       2.182625      1.532865     -0.094191
  H      -3.856163     -0.702968     -0.038850
  H       3.048110     -1.914184     -0.210827
  H       3.666973     -0.341525     -0.111092
26
Coordinates from ORCA-job semicarbazide_guanine_opt_freq E -822.737154971744
  N       5.695995     -0.958007      1.512340
  N       4.715452     -1.990685      1.624233
  C       5.069851     -3.317836      1.714653
  O       4.229786     -4.211855      1.705623
  N       6.432147     -3.544241      1.743177
  H       6.075201     -0.948480      0.562741
  H       5.238609     -0.068580      1.683939
  H       3.747380     -1.707514      1.623239
  H       7.019074     -2.823129      2.145011
  H       6.664954     -4.495689      1.992799
  O       0.066087      2.828239      0.037760
  N      -2.328706      0.784283     -0.007198
  N       1.348579      0.916585     -0.087098
  N       0.519496     -1.305374     -0.181121
  N      -1.910799     -1.416669     -0.139253
  N       2.799631     -0.912955     -0.209229
  C      -0.955853      0.645296     -0.044160
  C      -0.719311     -0.731769     -0.126073
  C       0.097027      1.600355     -0.021916
  C       1.511951     -0.451693     -0.159401
  C      -2.839178     -0.480329     -0.067150
  H      -2.834879      1.656501      0.050998
  H       2.138461      1.551762     -0.110965
  H      -3.904392     -0.669655     -0.054891
  H       2.978913     -1.902347     -0.267472
  H       3.618464     -0.330439     -0.140581
26
Coordinates from ORCA-job semicarbazide_guanine_opt_freq E -822.741386479166
  N       5.763981     -0.994344      1.512359
  N       4.795974     -2.029319      1.628688
  C       5.156433     -3.353368      1.751136
  O       4.317747     -4.249605      1.751747
  N       6.518348     -3.577011      1.793877
  H       6.084057     -0.922922      0.544262
  H       5.316114     -0.121633      1.775184
  H       3.820926     -1.764980      1.611573
  H       7.109243     -2.840361      2.158984
  H       6.753228     -4.520259      2.069981
  O       0.023839      2.844535      0.048015
  N      -2.368379      0.813186     -0.011905
  N       1.306807      0.931770     -0.097674
  N       0.468353     -1.288809     -0.213013
  N      -1.963139     -1.389336     -0.168424
  N       2.748985     -0.904156     -0.247394
  C      -0.996971      0.664845     -0.052258
  C      -0.769233     -0.710977     -0.149754
  C       0.060961      1.616964     -0.023455
  C       1.462241     -0.439038     -0.185701
  C      -2.887117     -0.448171     -0.084781
  H      -2.870320      1.687099      0.056320
  H       2.102868      1.558909     -0.122863
  H      -3.953622     -0.629494     -0.072747
  H       2.905707     -1.897985     -0.324493
  H       3.566910     -0.319764     -0.167664
26
Coordinates from ORCA-job semicarbazide_guanine_opt_freq E -822.744542537515
  N       5.828923     -1.026839      1.504664
  N       4.872828     -2.064628      1.622838
  C       5.236380     -3.385433      1.780753
  O       4.394166     -4.279077      1.802792
  N       6.596850     -3.606855      1.847918
  H       6.078636     -0.882753      0.524114
  H       5.400229     -0.178697      1.862793
  H       3.890536     -1.822111      1.587971
  H       7.188706     -2.849439      2.164564
  H       6.834945     -4.536897      2.161922
  O      -0.010878      2.856586      0.067699
  N      -2.403941      0.840812     -0.013787
  N       1.269864      0.942467     -0.104412
  N       0.419358     -1.274265     -0.248549
  N      -2.013956     -1.363073     -0.201820
  N       2.701571     -0.900707     -0.284696
  C      -1.033879      0.682103     -0.058167
  C      -0.816363     -0.692872     -0.175420
  C       0.030578      1.629501     -0.019458
  C       1.415383     -0.430912     -0.212048
  C      -2.931684     -0.416181     -0.103512
  H      -2.901126      1.716276      0.067454
  H       2.075215      1.557231     -0.126052
  H      -3.999690     -0.588329     -0.092064
  H       2.835179     -1.897429     -0.382199
  H       3.516109     -0.312702     -0.193295
26
Coordinates from ORCA-job semicarbazide_guanine_opt_freq E -822.746395926677
  N       5.870609     -1.043316      1.503345
  N       4.919555     -2.082834      1.620616
  C       5.283344     -3.401825      1.805470
  O       4.436674     -4.290882      1.840759
  N       6.641868     -3.624669      1.875545
  H       6.066359     -0.849839      0.519299
  H       5.476204     -0.210648      1.928884
  H       3.933391     -1.857457      1.572727
  H       7.238618     -2.854731      2.148324
  H       6.886110     -4.545367      2.210268
  O      -0.027693      2.861584      0.080596
  N      -2.425984      0.858653     -0.017082
  N       1.247687      0.944867     -0.107790
  N       0.386663     -1.267214     -0.270761
  N      -2.048290     -1.345986     -0.224638
  N       2.671053     -0.904390     -0.305277
  C      -1.056854      0.692526     -0.062851
  C      -0.847165     -0.682474     -0.192395
  C       0.012772      1.634888     -0.016698
  C       1.385768     -0.429819     -0.227335
  C      -2.960515     -0.394624     -0.117865
  H      -2.919228      1.735553      0.072104
  H       2.060172      1.550031     -0.124681
  H      -4.029604     -0.560169     -0.107652
  H       2.790783     -1.901364     -0.414024
  H       3.481643     -0.314717     -0.208886
26
Coordinates from ORCA-job semicarbazide_guanine_opt_freq E -822.747536627693
  N       5.895273     -1.053129      1.499281
  N       4.945644     -2.091731      1.613253
  C       5.309334     -3.409854      1.816150
  O       4.458248     -4.293801      1.866973
  N       6.665750     -3.633388      1.895860
  H       6.055266     -0.825702      0.516719
  H       5.539677     -0.228573      1.972823
  H       3.957214     -1.879499      1.557914
  H       7.264658     -2.854284      2.134915
  H       6.914772     -4.545898      2.248031
  O      -0.032511      2.862949      0.095140
  N      -2.439299      0.869446     -0.017469
  N       1.235050      0.942951     -0.108384
  N       0.365558     -1.264031     -0.287884
  N      -2.069747     -1.335044     -0.241954
  N       2.651744     -0.910568     -0.319159
  C      -1.070535      0.698950     -0.064725
  C      -0.865786     -0.676408     -0.204851
  C       0.002626      1.636731     -0.011774
  C       1.367919     -0.431541     -0.238048
  C      -2.977994     -0.380970     -0.127696
  H      -2.929561      1.747258      0.078754
  H       2.051761      1.542350     -0.118851
  H      -4.047702     -0.542881     -0.118485
  H       2.765738     -1.907417     -0.435255
  H       3.460844     -0.320141     -0.221276
26
Coordinates from ORCA-job semicarbazide_guanine_opt_freq E -822.748897784905
  N       5.930178     -1.067519      1.493460
  N       4.981334     -2.100783      1.604750
  C       5.344555     -3.416758      1.839439
  O       4.487947     -4.293797      1.908616
  N       6.697633     -3.642605      1.919853
  H       6.041810     -0.787783      0.519099
  H       5.642481     -0.260450      2.039544
  H       3.989660     -1.906975      1.539013
  H       7.304035     -2.854374      2.101112
  H       6.956794     -4.544415      2.290119
  O      -0.035854      2.863652      0.115094
  N      -2.459026      0.885730     -0.021369
  N       1.216699      0.936885     -0.107514
  N       0.333392     -1.261380     -0.310395
  N      -2.101915     -1.318361     -0.267679
  N       2.622264     -0.923320     -0.334563
  C      -1.090778      0.708487     -0.068591
  C      -0.893476     -0.667528     -0.222511
  C      -0.012290      1.638322     -0.004560
  C       1.341802     -0.436372     -0.250495
  C      -3.004244     -0.360158     -0.144792
  H      -2.944173      1.765362      0.083630
  H       2.038001      1.529982     -0.106404
  H      -4.074799     -0.516885     -0.138479
  H       2.730348     -1.919248     -0.458560
  H       3.431563     -0.333933     -0.237814
26
Coordinates from ORCA-job semicarbazide_guanine_opt_freq E -822.749844474588
  N       5.975401     -1.090468      1.472642
  N       5.031289     -2.118370      1.585368
  C       5.395074     -3.428933      1.863845
  O       4.534766     -4.298850      1.968815
  N       6.744168     -3.649912      1.963651
  H       6.031902     -0.741011      0.517967
  H       5.763169     -0.323729      2.103572
  H       4.035313     -1.943337      1.507468
  H       7.355430     -2.852425      2.070143
  H       7.013899     -4.533809      2.366522
  O      -0.043079      2.864754      0.150455
  N      -2.485937      0.907750     -0.024639
  N       1.190936      0.930646     -0.103026
  N       0.290730     -1.255891     -0.343965
  N      -2.143975     -1.294474     -0.305690
  N       2.582079     -0.936704     -0.356502
  C      -1.118525      0.721910     -0.072503
  C      -0.930458     -0.653567     -0.248025
  C      -0.033570      1.641630      0.009059
  C       1.306429     -0.439863     -0.268010
  C      -3.039495     -0.331895     -0.168932
  H      -2.964421      1.789235      0.094334
  H       2.015996      1.518191     -0.082869
  H      -4.111030     -0.482061     -0.167018
  H       2.682220     -1.932073     -0.492092
  H       3.395629     -0.350969     -0.260567
26
Coordinates from ORCA-job semicarbazide_guanine_opt_freq E -822.750072513024
  N       6.004201     -1.100653      1.464433
  N       5.061998     -2.127338      1.580986
  C       5.425680     -3.433123      1.888373
  O       4.565458     -4.300655      2.011035
  N       6.773485     -3.654747      1.982108
  H       6.032661     -0.716703      0.522938
  H       5.840605     -0.359140      2.141207
  H       4.065099     -1.961672      1.496715
  H       7.392459     -2.858857      2.041618
  H       7.051089     -4.533445      2.390116
  O      -0.050469      2.865238      0.166545
  N      -2.503414      0.921858     -0.032225
  N       1.173782      0.926748     -0.098958
  N       0.263701     -1.253262     -0.359902
  N      -2.171190     -1.279550     -0.327930
  N       2.556367     -0.945247     -0.363904
  C      -1.136865      0.729995     -0.077160
  C      -0.954827     -0.644773     -0.262158
  C      -0.047936      1.643430      0.015895
  C       1.283763     -0.442173     -0.274632
  C      -3.062705     -0.313997     -0.186817
  H      -2.977650      1.804920      0.092113
  H       1.999943      1.512399     -0.066082
  H      -4.134865     -0.459379     -0.189118
  H       2.651998     -1.939724     -0.502506
  H       3.371572     -0.364375     -0.272687
26
Coordinates from ORCA-job semicarbazide_guanine_opt_freq E -822.750132313064
  N       6.015206     -1.105014      1.460386
  N       5.074234     -2.132684      1.578009
  C       5.439123     -3.436183      1.892818
  O       4.580571     -4.303599      2.027225
  N       6.787078     -3.655690      1.992435
  H       6.039518     -0.714618      0.522069
  H       5.863807     -0.372045      2.148516
  H       4.077181     -1.968855      1.493094
  H       7.408999     -2.861508      2.040399
  H       7.065114     -4.533669      2.401576
  O      -0.055558      2.865832      0.174185
  N      -2.510808      0.927410     -0.034654
  N       1.166312      0.926446     -0.096854
  N       0.253047     -1.251345     -0.366936
  N      -2.181900     -1.273534     -0.336805
  N       2.545903     -0.946798     -0.367033
  C      -1.144695      0.733389     -0.079579
  C      -0.964783     -0.640745     -0.268071
  C      -0.054332      1.644850      0.017727
  C       1.274290     -0.441806     -0.277363
  C      -3.072200     -0.307103     -0.193531
  H      -2.983590      1.810909      0.092157
  H       1.992261      1.512107     -0.057291
  H      -4.144592     -0.450559     -0.197184
  H       2.640778     -1.941247     -0.506042
  H       3.362976     -0.368165     -0.279249
26
Coordinates from ORCA-job semicarbazide_guanine_opt_freq E -822.750213381605
  N       6.028622     -1.108863      1.459870
  N       5.090117     -2.138900      1.580121
  C       5.457723     -3.438772      1.902740
  O       4.603373     -4.308599      2.047379
  N       6.806474     -3.656998      2.000726
  H       6.055791     -0.719857      0.521893
  H       5.884779     -0.381808      2.154456
  H       4.093384     -1.976064      1.496520
  H       7.435040     -2.867934      2.037355
  H       7.085169     -4.539197      2.400033
  O      -0.063921      2.867117      0.179404
  N      -2.520940      0.935453     -0.041769
  N       1.155978      0.926363     -0.093374
  N       0.238636     -1.249127     -0.372357
  N      -2.196732     -1.265715     -0.346395
  N       2.531740     -0.948708     -0.366975
  C      -1.155532      0.737881     -0.083740
  C      -0.978665     -0.635530     -0.274071
  C      -0.063087      1.646632      0.020070
  C       1.261236     -0.441445     -0.278244
  C      -3.085377     -0.297606     -0.203569
  H      -2.991832      1.819917      0.085445
  H       1.981467      1.512190     -0.044941
  H      -4.158139     -0.437881     -0.209797
  H       2.626677     -1.943809     -0.503435
  H       3.351958     -0.372964     -0.287342
26
Coordinates from ORCA-job semicarbazide_guanine_opt_freq E -822.750286597318
  N       6.039296     -1.111775      1.463045
  N       5.104566     -2.145032      1.583572
  C       5.475581     -3.441919      1.909959
  O       4.625423     -4.315282      2.058853
  N       6.824733     -3.657632      2.009828
  H       6.077177     -0.730548      0.522671
  H       5.893503     -0.384317      2.156068
  H       4.108077     -1.982225      1.502908
  H       7.459210     -2.873580      2.041230
  H       7.103004     -4.545753      2.395862
  O      -0.071549      2.868523      0.183577
  N      -2.530093      0.942760     -0.046609
  N       1.146673      0.926818     -0.092152
  N       0.225548     -1.246560     -0.378652
  N      -2.210183     -1.258674     -0.354222
  N       2.518956     -0.950059     -0.366865
  C      -1.165292      0.742309     -0.089063
  C      -0.991155     -0.630775     -0.280085
  C      -0.070863      1.648781      0.018458
  C       1.249273     -0.440947     -0.280424
  C      -3.097150     -0.289047     -0.210672
  H      -2.999399      1.827913      0.081673
  H       1.972342      1.511565     -0.034064
  H      -4.170260     -0.426441     -0.217795
  H       2.614731     -1.945769     -0.499576
  H       3.341793     -0.376561     -0.297521
26
Coordinates from ORCA-job semicarbazide_guanine_opt_freq E -822.750371121519
  N       6.052391     -1.115389      1.469271
  N       5.123310     -2.152750      1.587200
  C       5.498722     -3.447129      1.915964
  O       4.652421     -4.324952      2.062796
  N       6.847507     -3.658263      2.022112
  H       6.105164     -0.743092      0.526261
  H       5.900804     -0.384370      2.157040
  H       4.126502     -1.990768      1.511618
  H       7.486688     -2.878330      2.048623
  H       7.126309     -4.552953      2.391955
  O      -0.079512      2.870713      0.185526
  N      -2.541393      0.952567     -0.054334
  N       1.135355      0.926805     -0.090581
  N       0.208883     -1.243755     -0.383340
  N      -2.227226     -1.249919     -0.361285
  N       2.503012     -0.952802     -0.365786
  C      -1.177185      0.747953     -0.093606
  C      -1.006620     -0.625273     -0.285343
  C      -0.080114      1.650799      0.020569
  C       1.234376     -0.441271     -0.281850
  C      -3.111672     -0.277810     -0.218938
  H      -3.008693      1.838892      0.073107
  H       1.962547      1.508401     -0.023595
  H      -4.185235     -0.411549     -0.227721
  H       2.599330     -1.949098     -0.494253
  H       3.328269     -0.380882     -0.311405
26
Coordinates from ORCA-job semicarbazide_guanine_opt_freq E -822.750482675558
  N       6.070524     -1.120599      1.483686
  N       5.149586     -2.163851      1.591232
  C       5.530219     -3.456374      1.921899
  O       4.687286     -4.340186      2.054980
  N       6.877383     -3.659620      2.042979
  H       6.143914     -0.754755      0.539529
  H       5.908308     -0.384799      2.164126
  H       4.151721     -2.004765      1.521945
  H       7.519040     -2.881972      2.063679
  H       7.159179     -4.561651      2.391612
  O      -0.088491      2.874104      0.186242
  N      -2.556295      0.965303     -0.059031
  N       1.120350      0.927208     -0.094812
  N       0.186300     -1.239368     -0.393530
  N      -2.250075     -1.238093     -0.368710
  N       2.481720     -0.956875     -0.367134
  C      -1.192817      0.756432     -0.102554
  C      -1.027080     -0.617716     -0.293727
  C      -0.092346      1.655068      0.013090
  C       1.214545     -0.441610     -0.288248
  C      -3.130784     -0.262988     -0.224310
  H      -3.020830      1.852852      0.069860
  H       1.950981      1.502152     -0.015485
  H      -4.204886     -0.392644     -0.231682
  H       2.577654     -1.953646     -0.491816
  H       3.308833     -0.385830     -0.333816
26
Coordinates from ORCA-job semicarbazide_guanine_opt_freq E -822.750619114337
  N       6.096242     -1.128930      1.501442
  N       5.184130     -2.178831      1.591471
  C       5.569924     -3.470726      1.923540
  O       4.729026     -4.359807      2.036636
  N       6.914229     -3.662424      2.069908
  H       6.186476     -0.760127      0.559645
  H       5.922817     -0.391543      2.177944
  H       4.184222     -2.025200      1.530342
  H       7.553312     -2.882645      2.081668
  H       7.203365     -4.568859      2.399916
  O      -0.098276      2.879689      0.181734
  N      -2.574954      0.981837     -0.068027
  N       1.101566      0.927468     -0.099296
  N       0.158144     -1.234694     -0.399108
  N      -2.278125     -1.223567     -0.373742
  N       2.455185     -0.962618     -0.367584
  C      -1.212130      0.767078     -0.109450
  C      -1.052130     -0.608646     -0.299437
  C      -0.107791      1.660080      0.010891
  C       1.190009     -0.442340     -0.292957
  C      -3.154307     -0.244222     -0.231162
  H      -3.036055      1.871466      0.058705
  H       1.937219      1.493679     -0.012220
  H      -4.228982     -0.369357     -0.238849
  H       2.548088     -1.959515     -0.491528
  H       3.282736     -0.391470     -0.360479
26
Coordinates from ORCA-job semicarbazide_guanine_opt_freq E -822.750809491391
  N       6.131978     -1.141146      1.529061
  N       5.228201     -2.198520      1.589458
  C       5.618056     -3.490869      1.923659
  O       4.778863     -4.384980      2.008209
  N       6.958213     -3.668645      2.103387
  H       6.233297     -0.755795      0.594733
  H       5.945009     -0.409973      2.209239
  H       4.225708     -2.053325      1.536187
  H       7.589878     -2.882702      2.102385
  H       7.260208     -4.577485      2.413755
  O      -0.110787      2.888494      0.168829
  N      -2.598020      1.000959     -0.075520
  N       1.078094      0.929763     -0.111434
  N       0.124580     -1.228420     -0.405468
  N      -2.311178     -1.206619     -0.375228
  N       2.423407     -0.967988     -0.369203
  C      -1.235902      0.780807     -0.120231
  C      -1.082019     -0.597171     -0.305430
  C      -0.127760      1.668947     -0.002882
  C       1.160565     -0.441283     -0.301030
  C      -3.182575     -0.222903     -0.233806
  H      -3.055162      1.892952      0.048845
  H       1.919433      1.486328     -0.018612
  H      -4.257733     -0.344240     -0.238976
  H       2.509874     -1.964617     -0.497217
  H       3.249712     -0.395794     -0.392704
26
Coordinates from ORCA-job semicarbazide_guanine_opt_freq E -822.751082952576
  N       6.184775     -1.159786      1.568025
  N       5.288853     -2.225781      1.584311
  C       5.682200     -3.518995      1.921434
  O       4.846075     -4.418283      1.974462
  N       7.016927     -3.680465      2.142656
  H       6.289338     -0.744226      0.646802
  H       5.978579     -0.445750      2.261312
  H       4.283567     -2.091195      1.540772
  H       7.637506     -2.885693      2.124867
  H       7.337431     -4.590752      2.427988
  O      -0.130630      2.903055      0.140452
  N      -2.629714      1.025613     -0.089177
  N       1.045766      0.935372     -0.128390
  N       0.081397     -1.219980     -0.405016
  N      -2.353492     -1.185514     -0.371650
  N       2.381949     -0.971964     -0.366912
  C      -1.268375      0.799020     -0.133732
  C      -1.121110     -0.581823     -0.308107
  C      -0.156343      1.682553     -0.022687
  C       1.121827     -0.437231     -0.307200
  C      -3.219995     -0.196424     -0.237207
  H      -3.082199      1.920996      0.027602
  H       1.892398      1.483630     -0.035090
  H      -4.295592     -0.313975     -0.240537
  H       2.457808     -1.967817     -0.504413
  H       3.204994     -0.398810     -0.430562
26
Coordinates from ORCA-job semicarbazide_guanine_opt_freq E -822.751493998760
  N       6.254280     -1.184721      1.623206
  N       5.366169     -2.260244      1.577315
  C       5.762136     -3.554477      1.917277
  O       4.931730     -4.459910      1.936431
  N       7.090353     -3.699521      2.184054
  H       6.353935     -0.727031      0.721415
  H       6.017942     -0.500546      2.337557
  H       4.358622     -2.137018      1.545875
  H       7.698108     -2.895008      2.149304
  H       7.433818     -4.611989      2.432064
  O      -0.159583      2.924193      0.090439
  N      -2.670186      1.054791     -0.109264
  N       1.004585      0.945923     -0.152962
  N       0.029930     -1.208567     -0.396167
  N      -2.403899     -1.161223     -0.359754
  N       2.332061     -0.972383     -0.357712
  C      -1.309668      0.821732     -0.152558
  C      -1.168695     -0.562455     -0.306715
  C      -0.194087      1.702131     -0.056169
  C       1.074536     -0.428595     -0.311046
  C      -3.266038     -0.166398     -0.238712
  H      -3.117786      1.954323     -0.006308
  H       1.854716      1.489657     -0.064723
  H      -4.341969     -0.280754     -0.239174
  H       2.393426     -1.966884     -0.510516
  H       3.149506     -0.399251     -0.473154
26
Coordinates from ORCA-job semicarbazide_guanine_opt_freq E -822.752024080286
  N       6.324885     -1.210783      1.687204
  N       5.444707     -2.295472      1.568921
  C       5.842481     -3.590073      1.910369
  O       5.020408     -4.502455      1.903288
  N       7.165676     -3.722408      2.214767
  H       6.406762     -0.705932      0.809003
  H       6.050085     -0.567794      2.426608
  H       4.436430     -2.181055      1.552003
  H       7.761835     -2.909085      2.170498
  H       7.531972     -4.637727      2.414579
  O      -0.191898      2.947923      0.020887
  N      -2.711143      1.082766     -0.134006
  N       0.963271      0.959490     -0.180807
  N      -0.018810     -1.196286     -0.374751
  N      -2.451789     -1.138581     -0.338353
  N       2.284686     -0.968693     -0.338411
  C      -1.351313      0.844354     -0.172752
  C      -1.214839     -0.542767     -0.298031
  C      -0.233194      1.723644     -0.098383
  C       1.028674     -0.416701     -0.308500
  C      -3.311160     -0.138794     -0.238271
  H      -3.154635      1.986390     -0.050845
  H       1.813099      1.506027     -0.105806
  H      -4.387279     -0.250948     -0.236336
  H       2.330043     -1.961392     -0.511679
  H       3.094988     -0.397870     -0.511191
26
Coordinates from ORCA-job semicarbazide_guanine_opt_freq E -822.752459872217
  N       6.367370     -1.226864      1.735248
  N       5.494622     -2.318434      1.561428
  C       5.894054     -3.610999      1.905164
  O       5.080489     -4.530312      1.891376
  N       7.216480     -3.737976      2.224540
  H       6.426213     -0.688111      0.875682
  H       6.061914     -0.622088      2.494451
  H       4.486928     -2.205792      1.557141
  H       7.809906     -2.922338      2.181901
  H       7.593863     -4.657374      2.381147
  O      -0.214005      2.963583     -0.037548
  N      -2.736860      1.100079     -0.153628
  N       0.937849      0.969456     -0.200490
  N      -0.047777     -1.187617     -0.352437
  N      -2.480703     -1.124834     -0.318179
  N       2.256869     -0.964305     -0.317512
  C      -1.377559      0.858502     -0.186685
  C      -1.243189     -0.529816     -0.287577
  C      -0.257895      1.737658     -0.132086
  C       1.000784     -0.407476     -0.302031
  C      -3.339009     -0.122398     -0.236358
  H      -3.178065      2.006221     -0.087158
  H       1.783519      1.524517     -0.138987
  H      -4.415262     -0.232854     -0.232909
  H       2.292174     -1.955114     -0.508692
  H       3.061233     -0.399537     -0.535798
26
Coordinates from ORCA-job semicarbazide_guanine_opt_freq E -822.752831091521
  N       6.389045     -1.234376      1.762611
  N       5.525611     -2.331725      1.554232
  C       5.927808     -3.620203      1.904531
  O       5.121723     -4.546212      1.892205
  N       7.249188     -3.743669      2.230453
  H       6.434530     -0.675690      0.915313
  H       6.068814     -0.655388      2.535927
  H       4.518407     -2.217521      1.560682
  H       7.848381     -2.932950      2.184623
  H       7.626370     -4.667736      2.358021
  O      -0.225584      2.970397     -0.067758
  N      -2.751859      1.112386     -0.166273
  N       0.923164      0.972874     -0.209398
  N      -0.067543     -1.182672     -0.342126
  N      -2.501047     -1.114610     -0.310088
  N       2.238611     -0.964838     -0.302375
  C      -1.393406      0.866969     -0.195303
  C      -1.262299     -0.521787     -0.283572
  C      -0.271053      1.743631     -0.149540
  C       0.982534     -0.404693     -0.298135
  C      -3.357047     -0.109603     -0.238692
  H      -3.190840      2.020162     -0.107758
  H       1.766039      1.532725     -0.150456
  H      -4.433673     -0.216313     -0.235150
  H       2.269451     -1.954456     -0.503553
  H       3.038615     -0.408923     -0.558416
26
Coordinates from ORCA-job semicarbazide_guanine_opt_freq E -822.753278943093
  N       6.416699     -1.242700      1.793764
  N       5.571377     -2.347432      1.539868
  C       5.978544     -3.629552      1.904451
  O       5.182279     -4.564706      1.889699
  N       7.295113     -3.746929      2.247313
  H       6.451357     -0.657022      0.964790
  H       6.083767     -0.696139      2.585934
  H       4.564392     -2.231255      1.564511
  H       7.907377     -2.947850      2.185374
  H       7.666249     -4.677871      2.341367
  O      -0.237674      2.976162     -0.094071
  N      -2.771943      1.132560     -0.183713
  N       0.902939      0.972933     -0.215945
  N      -0.099664     -1.177144     -0.336201
  N      -2.534169     -1.097187     -0.308417
  N       2.209767     -0.971376     -0.281690
  C      -1.415333      0.878918     -0.207248
  C      -1.292135     -0.510763     -0.283878
  C      -0.286902      1.748585     -0.166019
  C       0.954200     -0.406125     -0.294157
  C      -3.384145     -0.086903     -0.246538
  H      -3.206448      2.042912     -0.132043
  H       1.745897      1.532013     -0.149756
  H      -4.461597     -0.185178     -0.243769
  H       2.233998     -1.960020     -0.493028
  H       2.999995     -0.432155     -0.600594
26
Coordinates from ORCA-job semicarbazide_guanine_opt_freq E -822.753596263212
  N       6.448330     -1.251800      1.817455
  N       5.619597     -2.359417      1.523585
  C       6.029326     -3.638442      1.902375
  O       5.238595     -4.578460      1.875211
  N       7.338197     -3.749733      2.272381
  H       6.478381     -0.639618      1.007861
  H       6.108691     -0.731586      2.625274
  H       4.612272     -2.244758      1.566380
  H       7.959809     -2.960238      2.185560
  H       7.705729     -4.684531      2.345552
  O      -0.247887      2.980747     -0.108800
  N      -2.791725      1.153493     -0.200351
  N       0.881935      0.970814     -0.218251
  N      -0.133875     -1.172858     -0.333910
  N      -2.568834     -1.078596     -0.311829
  N       2.179397     -0.980221     -0.262649
  C      -1.437085      0.890921     -0.218777
  C      -1.323025     -0.500116     -0.287192
  C      -0.302360      1.752789     -0.176370
  C       0.924380     -0.409855     -0.290312
  C      -3.411907     -0.062338     -0.258642
  H      -3.221212      2.066489     -0.153250
  H       1.729731      1.520813     -0.139491
  H      -4.490133     -0.152111     -0.258319
  H       2.192939     -1.968457     -0.480082
  H       2.954676     -0.457155     -0.643407
26
Coordinates from ORCA-job semicarbazide_guanine_opt_freq E -822.753745836711
  N       6.456274     -1.250064      1.819311
  N       5.638964     -2.359100      1.508938
  C       6.048965     -3.637008      1.898781
  O       5.259714     -4.578024      1.866873
  N       7.354080     -3.744370      2.283611
  H       6.483297     -0.620217      1.023309
  H       6.121515     -0.744891      2.638232
  H       4.631702     -2.243843      1.566295
  H       7.984184     -2.963607      2.174621
  H       7.715608     -4.682248      2.359809
  O      -0.245190      2.978002     -0.100934
  N      -2.795743      1.165289     -0.209702
  N       0.875876      0.962878     -0.209649
  N      -0.150694     -1.174949     -0.334606
  N      -2.586111     -1.068094     -0.321449
  N       2.167311     -0.992598     -0.248775
  C      -1.443057      0.894942     -0.222813
  C      -1.337232     -0.496927     -0.291215
  C      -0.303007      1.750145     -0.172387
  C       0.910813     -0.419039     -0.284310
  C      -3.423132     -0.046926     -0.269734
  H      -3.221080      2.080234     -0.162223
  H       1.730317      1.499981     -0.116229
  H      -4.501948     -0.129263     -0.273320
  H       2.172043     -1.981976     -0.467530
  H       2.930469     -0.482552     -0.674903
26
Coordinates from ORCA-job semicarbazide_guanine_opt_freq E -822.753837355785
  N       6.475911     -1.253500      1.824740
  N       5.659769     -2.359217      1.501050
  C       6.065756     -3.640327      1.894123
  O       5.273748     -4.577721      1.851034
  N       7.366737     -3.746982      2.295536
  H       6.502510     -0.611358      1.038602
  H       6.142255     -0.757923      2.650585
  H       4.652167     -2.247750      1.566033
  H       7.994202     -2.966065      2.172300
  H       7.732859     -4.682582      2.374230
  O      -0.248012      2.979665     -0.101107
  N      -2.802677      1.173262     -0.217293
  N       0.867123      0.960550     -0.207127
  N      -0.164406     -1.175162     -0.333017
  N      -2.599157     -1.060785     -0.324232
  N       2.155209     -0.997627     -0.240251
  C      -1.450757      0.899243     -0.227541
  C      -1.348932     -0.493321     -0.292931
  C      -0.308872      1.752200     -0.173538
  C       0.898527     -0.421548     -0.281178
  C      -3.433579     -0.037015     -0.277221
  H      -3.225508      2.089509     -0.172068
  H       1.726900      1.487464     -0.106086
  H      -4.512521     -0.117235     -0.283457
  H       2.148353     -1.986651     -0.458345
  H       2.906336     -0.493349     -0.692837
26
Coordinates from ORCA-job semicarbazide_guanine_opt_freq E -822.753945152677
  N       6.416081     -1.218159      1.785895
  N       5.599843     -2.325522      1.488698
  C       6.000220     -3.609514      1.883204
  O       5.200549     -4.539549      1.858031
  N       7.309238     -3.721219      2.263321
  H       6.439497     -0.576058      0.999825
  H       6.106575     -0.718556      2.616955
  H       4.594071     -2.204845      1.563057
  H       7.943408     -2.945561      2.135653
  H       7.663364     -4.656988      2.389925
  O      -0.207077      2.956880     -0.049191
  N      -2.761836      1.160506     -0.202337
  N       0.904637      0.935963     -0.178454
  N      -0.132158     -1.195542     -0.338920
  N      -2.567433     -1.072792     -0.335643
  N       2.192830     -1.021885     -0.239170
  C      -1.411696      0.881295     -0.211519
  C      -1.315828     -0.510609     -0.293617
  C      -0.266654      1.730657     -0.139839
  C       0.930939     -0.446115     -0.273704
  C      -3.398107     -0.046261     -0.279860
  H      -3.182213      2.077211     -0.143857
  H       1.773138      1.444738     -0.061585
  H      -4.477330     -0.121464     -0.291155
  H       2.180542     -2.013956     -0.451860
  H       2.939339     -0.526881     -0.713852
26
Coordinates from ORCA-job semicarbazide_guanine_opt_freq E -822.754093449083
  N       6.401819     -1.208435      1.787590
  N       5.579318     -2.312952      1.487498
  C       5.975060     -3.599989      1.875958
  O       5.171160     -4.525849      1.852995
  N       7.286378     -3.717716      2.246822
  H       6.421337     -0.565600      1.002164
  H       6.092034     -0.711932      2.620676
  H       4.574220     -2.191130      1.564463
  H       7.915685     -2.936993      2.129076
  H       7.643558     -4.651495      2.374191
  O      -0.194751      2.952346     -0.050162
  N      -2.748387      1.153109     -0.198101
  N       0.917979      0.931410     -0.177261
  N      -0.116969     -1.201711     -0.334976
  N      -2.551991     -1.079976     -0.329220
  N       2.207163     -1.025928     -0.237362
  C      -1.397925      0.874933     -0.207982
  C      -1.300959     -0.516753     -0.288328
  C      -0.254050      1.726372     -0.139262
  C       0.945215     -0.450078     -0.271685
  C      -3.383818     -0.054321     -0.270899
  H      -3.168803      2.069880     -0.141034
  H       1.786447      1.440690     -0.062247
  H      -4.462886     -0.131520     -0.280406
  H       2.188201     -2.017283     -0.451731
  H       2.948903     -0.533303     -0.720772
26
Coordinates from ORCA-job semicarbazide_guanine_opt_freq E -822.754439323250
  N       6.335693     -1.170583      1.787133
  N       5.492052     -2.263970      1.482851
  C       5.875834     -3.558762      1.850808
  O       5.059109     -4.473367      1.838462
  N       7.193705     -3.696753      2.182908
  H       6.346241     -0.529268      1.000726
  H       6.030619     -0.679689      2.625978
  H       4.488856     -2.133964      1.566529
  H       7.811134     -2.902670      2.108340
  H       7.554864     -4.626795      2.312080
  O      -0.143327      2.931811     -0.047434
  N      -2.693853      1.123786     -0.174932
  N       0.973221      0.911988     -0.171603
  N      -0.056227     -1.225365     -0.322540
  N      -2.490842     -1.108744     -0.300808
  N       2.265318     -1.044285     -0.233070
  C      -1.342207      0.849284     -0.191847
  C      -1.241369     -0.541639     -0.269437
  C      -0.201830      1.706277     -0.131573
  C       1.003729     -0.467834     -0.265159
  C      -3.326013     -0.085346     -0.243926
  H      -3.114661      2.040327     -0.117296
  H       1.839204      1.426512     -0.060874
  H      -4.404644     -0.168232     -0.248153
  H       2.226511     -2.033179     -0.450733
  H       2.992824     -0.563762     -0.746427
26
Coordinates from ORCA-job semicarbazide_guanine_opt_freq E -822.754663353477
  N       6.272047     -1.137776      1.777183
  N       5.416429     -2.223340      1.476212
  C       5.795722     -3.522904      1.828918
  O       4.971831     -4.431985      1.820576
  N       7.116497     -3.672541      2.136065
  H       6.284633     -0.498434      0.989280
  H       5.975183     -0.644746      2.617945
  H       4.414361     -2.085237      1.563197
  H       7.730172     -2.873416      2.094363
  H       7.474020     -4.601748      2.277124
  O      -0.096972      2.911075     -0.030469
  N      -2.647150      1.101876     -0.156347
  N       1.020150      0.891874     -0.161887
  N      -0.008443     -1.245513     -0.317487
  N      -2.443146     -1.130190     -0.288947
  N       2.313524     -1.064144     -0.231396
  C      -1.295250      0.828035     -0.177491
  C      -1.193796     -0.562579     -0.257921
  C      -0.155581      1.685922     -0.118150
  C       1.051270     -0.487207     -0.259858
  C      -3.278659     -0.107758     -0.220710
  H      -3.067605      2.018442     -0.096453
  H       1.885565      1.406846     -0.048696
  H      -4.357199     -0.192029     -0.220225
  H       2.264198     -2.052684     -0.448017
  H       3.032138     -0.594067     -0.766805
26
Coordinates from ORCA-job semicarbazide_guanine_opt_freq E -822.755063470490
  N       6.174035     -1.090603      1.764643
  N       5.303081     -2.163477      1.466420
  C       5.682431     -3.469402      1.791321
  O       4.852517     -4.375461      1.776037
  N       7.004594     -3.631124      2.070349
  H       6.200623     -0.453088      0.975435
  H       5.887239     -0.590850      2.604747
  H       4.303069     -2.015549      1.554828
  H       7.613002     -2.826740      2.083818
  H       7.353952     -4.560607      2.229188
  O      -0.025021      2.878765     -0.006252
  N      -2.578433      1.072218     -0.126244
  N       1.089445      0.859506     -0.150372
  N       0.058494     -1.275304     -0.308573
  N      -2.376361     -1.159849     -0.265788
  N       2.382684     -1.097758     -0.228994
  C      -1.226618      0.797812     -0.156674
  C      -1.126124     -0.592925     -0.240646
  C      -0.086179      1.653794     -0.098683
  C       1.119875     -0.519004     -0.252327
  C      -3.210432     -0.137117     -0.189337
  H      -2.997524      1.989143     -0.062382
  H       1.953615      1.375906     -0.033589
  H      -4.289030     -0.221015     -0.182150
  H       2.321957     -2.087738     -0.439616
  H       3.089050     -0.643757     -0.795155
26
Coordinates from ORCA-job semicarbazide_guanine_opt_freq E -822.755358574905
  N       6.079165     -1.049094      1.756860
  N       5.200076     -2.109992      1.456513
  C       5.587519     -3.421004      1.747967
  O       4.758846     -4.330125      1.709173
  N       6.909704     -3.588256      2.014788
  H       6.127781     -0.408590      0.970664
  H       5.797031     -0.543835      2.594590
  H       4.199538     -1.957588      1.539548
  H       7.513705     -2.783021      2.085616
  H       7.245445     -4.519584      2.195004
  O       0.043715      2.847870      0.010781
  N      -2.516488      1.049027     -0.099071
  N       1.151577      0.826887     -0.143502
  N       0.114285     -1.303066     -0.295025
  N      -2.320608     -1.183936     -0.239280
  N       2.442486     -1.132588     -0.226666
  C      -1.165571      0.771820     -0.138194
  C      -1.068511     -0.619771     -0.221677
  C      -0.021942      1.622576     -0.083696
  C       1.178910     -0.551934     -0.244219
  C      -3.151162     -0.159165     -0.158980
  H      -2.933486      1.966900     -0.034987
  H       2.015085      1.344816     -0.027833
  H      -4.230049     -0.239390     -0.145656
  H       2.377605     -2.124993     -0.428154
  H       3.139286     -0.688189     -0.814561
26
Coordinates from ORCA-job semicarbazide_guanine_opt_freq E -822.755493959762
  N       6.023845     -1.024266      1.757714
  N       5.145075     -2.082080      1.450643
  C       5.535299     -3.396016      1.720886
  O       4.709692     -4.306974      1.667563
  N       6.860078     -3.567158      1.981380
  H       6.078386     -0.376812      0.977363
  H       5.739784     -0.522347      2.597162
  H       4.143287     -1.929065      1.526007
  H       7.462913     -2.764347      2.082238
  H       7.184005     -4.499605      2.177958
  O       0.080328      2.832193      0.009088
  N      -2.481977      1.035829     -0.083676
  N       1.185468      0.809898     -0.144078
  N       0.145680     -1.319049     -0.281840
  N      -2.288962     -1.197908     -0.215856
  N       2.475998     -1.149536     -0.225099
  C      -1.131854      0.757398     -0.127839
  C      -1.036500     -0.634641     -0.206893
  C       0.013648      1.606445     -0.081188
  C       1.210862     -0.569564     -0.239553
  C      -3.118293     -0.171999     -0.139334
  H      -2.898500      1.954079     -0.021820
  H       2.049625      1.328705     -0.037431
  H      -4.197282     -0.250010     -0.122177
  H       2.413771     -2.143025     -0.424289
  H       3.169564     -0.704368     -0.816928
26
Coordinates from ORCA-job semicarbazide_guanine_opt_freq E -822.755569378853
  N       6.009906     -1.023365      1.781947
  N       5.141668     -2.080024      1.456010
  C       5.539999     -3.394824      1.703848
  O       4.725493     -4.312930      1.618730
  N       6.865522     -3.564174      1.978491
  H       6.070605     -0.359708      1.015274
  H       5.714560     -0.535435      2.623906
  H       4.135330     -1.939562      1.517276
  H       7.471564     -2.765999      2.098314
  H       7.179198     -4.500811      2.176517
  O       0.085747      2.831811     -0.023260
  N      -2.479831      1.037839     -0.078579
  N       1.187145      0.807405     -0.164684
  N       0.144194     -1.321055     -0.268847
  N      -2.289649     -1.197384     -0.189508
  N       2.476043     -1.152925     -0.232813
  C      -1.130638      0.758099     -0.129125
  C      -1.036894     -0.635037     -0.195222
  C       0.017327      1.604808     -0.099839
  C       1.210433     -0.573821     -0.243871
  C      -3.117744     -0.170018     -0.121925
  H      -2.896641      1.956484     -0.025148
  H       2.051008      1.330405     -0.078001
  H      -4.196834     -0.244888     -0.098348
  H       2.424969     -2.149622     -0.431549
  H       3.171458     -0.689492     -0.809591
26
Coordinates from ORCA-job semicarbazide_guanine_opt_freq E -822.755644943988
  N       5.977108     -1.004655      1.798687
  N       5.114567     -2.062617      1.450512
  C       5.506791     -3.381196      1.681312
  O       4.692285     -4.296409      1.587837
  N       6.835312     -3.557986      1.951765
  H       6.027739     -0.327541      1.043309
  H       5.673841     -0.534022      2.649937
  H       4.108278     -1.923066      1.504538
  H       7.440870     -2.763123      2.089770
  H       7.141417     -4.495274      2.155795
  O       0.104552      2.825635     -0.049019
  N      -2.458455      1.028069     -0.070979
  N       1.207358      0.800115     -0.173082
  N       0.166264     -1.331559     -0.250959
  N      -2.266750     -1.207694     -0.160989
  N       2.497977     -1.159114     -0.229533
  C      -1.109529      0.748872     -0.124490
  C      -1.015147     -0.644382     -0.177978
  C       0.037973      1.598171     -0.111281
  C       1.230540     -0.581877     -0.239888
  C      -3.096133     -0.180544     -0.100910
  H      -2.876186      1.946678     -0.024469
  H       2.072893      1.322530     -0.101519
  H      -4.174996     -0.255988     -0.072365
  H       2.448176     -2.153016     -0.434300
  H       3.187198     -0.694231     -0.811698
26
Coordinates from ORCA-job semicarbazide_guanine_opt_freq E -822.755716934233
  N       5.979563     -1.006381      1.823207
  N       5.122039     -2.062386      1.454336
  C       5.512580     -3.382914      1.672887
  O       4.698695     -4.297023      1.565136
  N       6.839124     -3.562803      1.949909
  H       6.030099     -0.321180      1.075319
  H       5.667320     -0.548494      2.677924
  H       4.114914     -1.928453      1.500429
  H       7.443205     -2.769362      2.100150
  H       7.146075     -4.501831      2.142603
  O       0.100427      2.829293     -0.079608
  N      -2.461194      1.028315     -0.071778
  N       1.204574      0.803526     -0.188680
  N       0.165437     -1.330523     -0.241942
  N      -2.266878     -1.207832     -0.143150
  N       2.495836     -1.156044     -0.233440
  C      -1.111931      0.750185     -0.128315
  C      -1.016024     -0.643339     -0.169976
  C       0.034199      1.601445     -0.129231
  C       1.229069     -0.578956     -0.242678
  C      -3.097393     -0.181218     -0.086558
  H      -2.879882      1.946821     -0.032688
  H       2.069863      1.327725     -0.127969
  H      -4.175963     -0.258199     -0.051961
  H       2.447693     -2.148298     -0.440461
  H       3.182496     -0.686300     -0.813464
26
Coordinates from ORCA-job semicarbazide_guanine_opt_freq E -822.755874335751
  N       5.963773     -1.004932      1.906313
  N       5.127299     -2.050651      1.463680
  C       5.520453     -3.376274      1.632816
  O       4.713917     -4.288578      1.462536
  N       6.838589     -3.564231      1.936413
  H       6.024651     -0.289710      1.188070
  H       5.618531     -0.589590      2.769570
  H       4.118372     -1.934024      1.483716
  H       7.435940     -2.777923      2.140276
  H       7.145151     -4.509728      2.093965
  O       0.103240      2.831055     -0.174327
  N      -2.457394      1.028844     -0.068438
  N       1.206932      0.803316     -0.239693
  N       0.169299     -1.332542     -0.209727
  N      -2.260749     -1.208197     -0.078373
  N       2.497824     -1.158271     -0.245517
  C      -1.108250      0.750370     -0.137777
  C      -1.010917     -0.643794     -0.140026
  C       0.035683      1.602554     -0.184587
  C       1.232779     -0.580089     -0.251056
  C      -3.091529     -0.181021     -0.034634
  H      -2.877154      1.947521     -0.052802
  H       2.072073      1.330614     -0.211701
  H      -4.169198     -0.258700      0.020719
  H       2.453068     -2.148570     -0.454599
  H       3.171558     -0.681674     -0.834814
26
Coordinates from ORCA-job semicarbazide_guanine_opt_freq E -822.756029277849
  N       5.938247     -1.004234      1.985003
  N       5.124438     -2.036528      1.474895
  C       5.524296     -3.364840      1.592583
  O       4.727798     -4.272839      1.356941
  N       6.833140     -3.560748      1.922589
  H       6.016953     -0.263245      1.295321
  H       5.561437     -0.626320      2.851450
  H       4.114157     -1.933321      1.463543
  H       7.419471     -2.784174      2.185612
  H       7.139865     -4.510696      2.047818
  O       0.108747      2.828096     -0.259672
  N      -2.449473      1.028658     -0.060751
  N       1.211941      0.799336     -0.289826
  N       0.176369     -1.335115     -0.181499
  N      -2.251061     -1.207842     -0.014437
  N       2.502957     -1.162517     -0.263463
  C      -1.101006      0.748807     -0.145004
  C      -1.002494     -0.645000     -0.111736
  C       0.040361      1.599934     -0.235085
  C       1.239169     -0.583581     -0.262401
  C      -3.081501     -0.179928      0.017441
  H      -2.869865      1.947142     -0.064693
  H       2.076906      1.327708     -0.292985
  H      -4.157951     -0.257227      0.093637
  H       2.463061     -2.152766     -0.466643
  H       3.167978     -0.682985     -0.858635
26
Coordinates from ORCA-job semicarbazide_guanine_opt_freq E -822.756396664900
  N       5.876668     -1.007577      2.120698
  N       5.109171     -2.010249      1.495645
  C       5.527753     -3.336430      1.521318
  O       4.756624     -4.230450      1.168062
  N       6.819669     -3.545058      1.896976
  H       5.988044     -0.223119      1.485848
  H       5.442761     -0.694304      2.985709
  H       4.100213     -1.924496      1.425829
  H       7.377518     -2.791390      2.266846
  H       7.131216     -4.499063      1.967091
  O       0.121184      2.815456     -0.402046
  N      -2.428776      1.028790     -0.041766
  N       1.223872      0.786254     -0.377592
  N       0.193836     -1.339908     -0.136067
  N      -2.227652     -1.203746      0.098015
  N       2.515903     -1.173613     -0.300320
  C      -1.082849      0.744180     -0.154981
  C      -0.982387     -0.646947     -0.062657
  C       0.053012      1.589855     -0.319734
  C       1.253715     -0.593442     -0.285919
  C      -3.056694     -0.174350      0.111048
  H      -2.849615      1.946436     -0.075265
  H       2.088237      1.312584     -0.434749
  H      -4.130122     -0.248560      0.224515
  H       2.482857     -2.166229     -0.485920
  H       3.169786     -0.698849     -0.910580
26
Coordinates from ORCA-job semicarbazide_guanine_opt_freq E -822.756841531008
  N       5.826273     -1.012864      2.196684
  N       5.092455     -1.997167      1.509499
  C       5.528956     -3.316958      1.480809
  O       4.779749     -4.198794      1.053397
  N       6.808593     -3.529507      1.888088
  H       5.967309     -0.207742      1.594422
  H       5.356031     -0.730636      3.051901
  H       4.087132     -1.913052      1.394125
  H       7.336035     -2.792567      2.329871
  H       7.128913     -4.482373      1.929007
  O       0.128671      2.805601     -0.474054
  N      -2.411956      1.029089     -0.021217
  N       1.232034      0.776663     -0.432431
  N       0.207351     -1.342719     -0.120399
  N      -2.209241     -1.200262      0.162950
  N       2.524605     -1.180942     -0.339057
  C      -1.068751      0.740477     -0.157322
  C      -0.967027     -0.648387     -0.037238
  C       0.062446      1.581925     -0.364651
  C       1.263825     -0.600295     -0.310331
  C      -3.036760     -0.169749      0.171138
  H      -2.831818      1.946809     -0.063587
  H       2.095857      1.299474     -0.520937
  H      -4.107493     -0.241555      0.309281
  H       2.496105     -2.178845     -0.498528
  H       3.184648     -0.719848     -0.951418
26
Coordinates from ORCA-job semicarbazide_guanine_opt_freq E -822.757387270438
  N       5.776700     -1.013790      2.241903
  N       5.075016     -1.987126      1.510778
  C       5.528524     -3.299936      1.448029
  O       4.805722     -4.172839      0.961273
  N       6.798578     -3.508940      1.890418
  H       5.933388     -0.189092      1.670403
  H       5.281274     -0.755175      3.092107
  H       4.075847     -1.896222      1.358434
  H       7.290810     -2.780206      2.385911
  H       7.129513     -4.459619      1.920818
  O       0.142737      2.796349     -0.504619
  N      -2.392266      1.032253      0.003561
  N       1.242287      0.764674     -0.467872
  N       0.216873     -1.348785     -0.120524
  N      -2.194979     -1.196160      0.204761
  N       2.530411     -1.194235     -0.379576
  C      -1.053094      0.737213     -0.153008
  C      -0.954579     -0.650784     -0.022893
  C       0.077527      1.573290     -0.385415
  C       1.271198     -0.611655     -0.334708
  C      -3.018885     -0.162911      0.213211
  H      -2.807570      1.952266     -0.034488
  H       2.107454      1.281235     -0.576782
  H      -4.087624     -0.229855      0.368186
  H       2.497110     -2.201223     -0.505655
  H       3.201972     -0.762949     -1.004248
26
Coordinates from ORCA-job semicarbazide_guanine_opt_freq E -822.757913660659
  N       5.687362     -1.023980      2.337723
  N       5.036890     -1.962224      1.522599
  C       5.522206     -3.255892      1.383440
  O       4.845015     -4.103408      0.797550
  N       6.777579     -3.471857      1.870889
  H       5.852976     -0.162379      1.825644
  H       5.149298     -0.821932      3.180266
  H       4.047355     -1.878329      1.312682
  H       7.216026     -2.775736      2.456334
  H       7.117279     -4.420165      1.869555
  O       0.165075      2.774212     -0.601882
  N      -2.355598      1.032980      0.034136
  N       1.262499      0.741920     -0.536238
  N       0.244377     -1.357939     -0.093759
  N      -2.156484     -1.188717      0.297576
  N       2.548027     -1.216753     -0.424053
  C      -1.022354      0.729645     -0.152288
  C      -0.922659     -0.654009      0.016685
  C       0.102876      1.555325     -0.443787
  C       1.292524     -0.630406     -0.361575
  C      -2.978569     -0.153808      0.296544
  H      -2.769381      1.952998     -0.017940
  H       2.124250      1.251722     -0.693107
  H      -4.042599     -0.213130      0.483495
  H       2.510723     -2.224137     -0.517025
  H       3.219247     -0.808226     -1.063459
26
Coordinates from ORCA-job semicarbazide_guanine_opt_freq E -822.758563045690
  N       5.560085     -1.058045      2.475137
  N       4.991527     -1.936873      1.542504
  C       5.537002     -3.186954      1.298161
  O       4.941083     -3.990845      0.579913
  N       6.769974     -3.410424      1.850283
  H       5.721990     -0.147891      2.051910
  H       4.954101     -0.942524      3.288114
  H       4.017977     -1.863408      1.263134
  H       7.122647     -2.771733      2.548594
  H       7.131990     -4.348871      1.792880
  O       0.190785      2.740312     -0.740577
  N      -2.307705      1.043127      0.072189
  N       1.283369      0.707719     -0.629672
  N       0.274801     -1.366542     -0.058386
  N      -2.107086     -1.166168      0.422239
  N       2.561684     -1.253239     -0.481916
  C      -0.984825      0.724645     -0.153852
  C      -0.884179     -0.650979      0.069413
  C       0.132964      1.529428     -0.527389
  C       1.313995     -0.657510     -0.398178
  C      -2.925168     -0.127894      0.409914
  H      -2.718905      1.962933     -0.000586
  H       2.136419      1.206856     -0.854207
  H      -3.981185     -0.171325      0.641013
  H       2.512220     -2.262961     -0.529376
  H       3.228380     -0.885059     -1.151254
26
Coordinates from ORCA-job semicarbazide_guanine_opt_freq E -822.759005907854
  N       5.425833     -1.108074      2.614520
  N       4.939657     -1.913567      1.572471
  C       5.555300     -3.103369      1.225321
  O       5.031549     -3.849835      0.395563
  N       6.773311     -3.332756      1.806903
  H       5.567496     -0.157055      2.283912
  H       4.776640     -1.089571      3.405822
  H       3.984303     -1.860452      1.235971
  H       7.056975     -2.766770      2.593853
  H       7.168007     -4.250861      1.678317
  O       0.218396      2.696258     -0.886154
  N      -2.260260      1.059381      0.094749
  N       1.302487      0.663585     -0.714778
  N       0.301780     -1.373051     -0.010246
  N      -2.060609     -1.132337      0.542028
  N       2.572641     -1.299302     -0.517268
  C      -0.947897      0.720769     -0.161406
  C      -0.847631     -0.643477      0.123206
  C       0.161166      1.497630     -0.612013
  C       1.333431     -0.689315     -0.419995
  C      -2.872014     -0.089269      0.510595
  H      -2.668658      1.977636     -0.007491
  H       2.148520      1.145446     -0.996791
  H      -3.919412     -0.112908      0.780547
  H       2.514023     -2.306385     -0.533502
  H       3.218908     -0.966575     -1.224130
26
Coordinates from ORCA-job semicarbazide_guanine_opt_freq E -822.759444265381
  N       5.338820     -1.165495      2.704924
  N       4.919011     -1.909923      1.592059
  C       5.596811     -3.042535      1.181667
  O       5.136081     -3.753226      0.286891
  N       6.808836     -3.264444      1.788104
  H       5.453277     -0.190101      2.440206
  H       4.657387     -1.219283      3.455525
  H       3.972620     -1.863396      1.226617
  H       7.041638     -2.744110      2.621207
  H       7.234255     -4.159959      1.610572
  O       0.240346      2.668920     -0.969275
  N      -2.234437      1.084397      0.105930
  N       1.309284      0.632462     -0.759885
  N       0.300150     -1.376771      0.009438
  N      -2.046143     -1.096977      0.604716
  N       2.559131     -1.342446     -0.541693
  C      -0.931225      0.726914     -0.167476
  C      -0.838148     -0.630504      0.149710
  C       0.178812      1.478678     -0.661016
  C       1.330939     -0.714507     -0.436460
  C      -2.848429     -0.046833      0.565652
  H      -2.637044      2.003531     -0.010528
  H       2.150420      1.101090     -1.077136
  H      -3.890199     -0.049766      0.857255
  H       2.479783     -2.357937     -0.517168
  H       3.191965     -1.052003     -1.279834
26
Coordinates from ORCA-job semicarbazide_guanine_opt_freq E -822.759779874343
  N       5.230516     -1.218931      2.782599
  N       4.870022     -1.905928      1.611739
  C       5.608998     -2.973480      1.139373
  O       5.190688     -3.646614      0.193954
  N       6.824550     -3.174471      1.741260
  H       5.314395     -0.225572      2.581486
  H       4.539253     -1.347645      3.515391
  H       3.934051     -1.872388      1.215503
  H       7.017843     -2.706741      2.614783
  H       7.283104     -4.043545      1.520079
  O       0.276786      2.631441     -1.049845
  N      -2.195378      1.104598      0.114738
  N       1.328145      0.590323     -0.799160
  N       0.311666     -1.385490      0.042345
  N      -2.019855     -1.063813      0.672011
  N       2.560686     -1.392005     -0.551379
  C      -0.900718      0.725827     -0.171983
  C      -0.815471     -0.623183      0.181916
  C       0.207307      1.451607     -0.705952
  C       1.341524     -0.746820     -0.441392
  C      -2.811795     -0.006563      0.617652
  H      -2.591751      2.023766     -0.021157
  H       2.169434      1.039938     -1.142598
  H      -3.847957      0.009956      0.928293
  H       2.470704     -2.404876     -0.499615
  H       3.177193     -1.123615     -1.310038
26
Coordinates from ORCA-job semicarbazide_guanine_opt_freq E -822.760044986575
  N       5.157180     -1.264300      2.824551
  N       4.840180     -1.912879      1.619792
  C       5.627260     -2.928268      1.110878
  O       5.233868     -3.585405      0.141463
  N       6.850945     -3.093780      1.700410
  H       5.210636     -0.261058      2.668998
  H       4.467423     -1.455940      3.544919
  H       3.907184     -1.884170      1.212541
  H       7.020807     -2.655227      2.594506
  H       7.343156     -3.937795      1.453734
  O       0.314196      2.605338     -1.091515
  N      -2.170574      1.127466      0.112776
  N       1.341334      0.555199     -0.811868
  N       0.305898     -1.393936      0.066106
  N      -2.017276     -1.033496      0.705495
  N       2.552077     -1.437681     -0.544276
  C      -0.881908      0.728310     -0.176112
  C      -0.810330     -0.615857      0.199936
  C       0.229962      1.432850     -0.727480
  C       1.340818     -0.775040     -0.435140
  C      -2.796659      0.032021      0.636788
  H      -2.557971      2.048260     -0.037151
  H       2.189601      0.987603     -1.160215
  H      -3.830562      0.065260      0.953790
  H       2.450704     -2.449472     -0.467354
  H       3.155991     -1.182225     -1.315568
26
Coordinates from ORCA-job semicarbazide_guanine_opt_freq E -822.760201772736
  N       5.109446     -1.327852      2.882728
  N       4.826021     -1.913225      1.640678
  C       5.654152     -2.871391      1.086960
  O       5.292283     -3.484647      0.076618
  N       6.878007     -3.028196      1.679345
  H       5.130044     -0.315885      2.788713
  H       4.428590     -1.587189      3.586556
  H       3.897643     -1.892169      1.215061
  H       7.025325     -2.637173      2.599636
  H       7.403563     -3.839329      1.392380
  O       0.330111      2.577000     -1.157033
  N      -2.154194      1.151185      0.109354
  N       1.339515      0.522182     -0.845681
  N       0.296291     -1.396032      0.089250
  N      -2.015276     -0.997305      0.749288
  N       2.534636     -1.475696     -0.549398
  C      -0.873098      0.732181     -0.186454
  C      -0.810338     -0.604028      0.218977
  C       0.237557      1.413954     -0.766476
  C       1.330810     -0.798610     -0.438941
  C      -2.784816      0.074002      0.664157
  H      -2.534490      2.072073     -0.057211
  H       2.190381      0.936491     -1.209347
  H      -3.814419      0.123789      0.992905
  H       2.423984     -2.483245     -0.446372
  H       3.132215     -1.235107     -1.335688
26
Coordinates from ORCA-job semicarbazide_guanine_opt_freq E -822.760462146782
  N       5.052007     -1.358917      2.887678
  N       4.796667     -1.917431      1.628973
  C       5.662750     -2.827669      1.054201
  O       5.330660     -3.428642      0.026882
  N       6.889243     -2.948728      1.651147
  H       5.023848     -0.344264      2.837610
  H       4.384288     -1.685740      3.584514
  H       3.873236     -1.892363      1.200467
  H       7.005257     -2.587365      2.588076
  H       7.445676     -3.736868      1.358033
  O       0.374353      2.553387     -1.170490
  N      -2.126848      1.171583      0.110663
  N       1.354697      0.485804     -0.847760
  N       0.287927     -1.410077      0.107000
  N      -2.017262     -0.973022      0.768448
  N       2.523456     -1.525041     -0.537897
  C      -0.852223      0.731783     -0.184318
  C      -0.807503     -0.601767      0.232346
  C       0.264832      1.395138     -0.771505
  C       1.329094     -0.830544     -0.428142
  C      -2.771566      0.108075      0.674672
  H      -2.494858      2.095768     -0.064980
  H       2.213281      0.885229     -1.209827
  H      -3.799760      0.173075      1.005296
  H       2.404081     -2.523784     -0.404828
  H       3.128611     -1.291843     -1.316255
26
Coordinates from ORCA-job semicarbazide_guanine_opt_freq E -822.760691114373
  N       5.052062     -1.392457      2.914113
  N       4.802928     -1.911639      1.636675
  C       5.682828     -2.794921      1.040277
  O       5.368390     -3.366856     -0.008188
  N       6.904277     -2.925964      1.646796
  H       4.999044     -0.377624      2.902733
  H       4.397769     -1.762350      3.595545
  H       3.880496     -1.884502      1.211204
  H       7.014255     -2.591808      2.594271
  H       7.477293     -3.692350      1.329031
  O       0.378056      2.539666     -1.199694
  N      -2.126396      1.185983      0.100915
  N       1.347392      0.469094     -0.862273
  N       0.272708     -1.409903      0.118161
  N      -2.028900     -0.952067      0.780849
  N       2.505585     -1.544228     -0.529596
  C      -0.855576      0.734691     -0.192952
  C      -0.818262     -0.594216      0.237927
  C       0.263536      1.385699     -0.790155
  C       1.315716     -0.842330     -0.425556
  C      -2.776238      0.133111      0.678581
  H      -2.488732      2.110544     -0.084347
  H       2.208719      0.860364     -1.226753
  H      -3.802942      0.207394      1.011843
  H       2.383961     -2.545032     -0.386466
  H       3.115970     -1.322522     -1.312937
26
Coordinates from ORCA-job semicarbazide_guanine_opt_freq E -822.760987901794
  N       5.067468     -1.416422      2.943210
  N       4.814395     -1.901950      1.649979
  C       5.695256     -2.765230      1.026888
  O       5.394644     -3.296786     -0.044826
  N       6.907745     -2.927672      1.645401
  H       4.994173     -0.403348      2.969536
  H       4.423493     -1.824419      3.610356
  H       3.894637     -1.869108      1.226073
  H       7.017430     -2.618967      2.600889
  H       7.489769     -3.674933      1.300621
  O       0.368577      2.526077     -1.235345
  N      -2.130840      1.193781      0.089245
  N       1.336133      0.457290     -0.882696
  N       0.262739     -1.406245      0.131402
  N      -2.036439     -0.935486      0.795310
  N       2.490301     -1.552471     -0.520323
  C      -0.862967      0.735000     -0.204062
  C      -0.827595     -0.587572      0.243799
  C       0.256187      1.376120     -0.813883
  C       1.304453     -0.848381     -0.423542
  C      -2.781587      0.150729      0.683621
  H      -2.490544      2.117054     -0.107361
  H       2.196118      0.842678     -1.256561
  H      -3.806639      0.231308      1.020209
  H       2.377441     -2.552085     -0.378930
  H       3.119593     -1.333186     -1.289007
26
Coordinates from ORCA-job semicarbazide_guanine_opt_freq E -822.761232416091
  N       5.062116     -1.449690      2.974467
  N       4.808545     -1.892538      1.665886
  C       5.696153     -2.722001      1.007318
  O       5.398862     -3.215902     -0.082909
  N       6.909779     -2.897808      1.618151
  H       4.961204     -0.441093      3.038764
  H       4.440317     -1.900134      3.632416
  H       3.889555     -1.856799      1.241998
  H       7.023747     -2.610067      2.579165
  H       7.503253     -3.619883      1.242070
  O       0.384110      2.505152     -1.263521
  N      -2.123715      1.205120      0.073527
  N       1.338972      0.434734     -0.887045
  N       0.252967     -1.409209      0.150565
  N      -2.043538     -0.915626      0.806184
  N       2.478456     -1.577573     -0.497434
  C      -0.859216      0.734128     -0.213735
  C      -0.832757     -0.582482      0.250958
  C       0.266031      1.360276     -0.829492
  C       1.298936     -0.865096     -0.410490
  C      -2.781767      0.174346      0.681366
  H      -2.476780      2.128258     -0.135482
  H       2.201196      0.809739     -1.266361
  H      -3.806296      0.266132      1.016465
  H       2.365333     -2.577527     -0.352413
  H       3.118476     -1.368682     -1.260415
26
Coordinates from ORCA-job semicarbazide_guanine_opt_freq E -822.761688029243
  N       5.122577     -1.457199      3.002472
  N       4.842642     -1.877848      1.690422
  C       5.695780     -2.707017      0.986413
  O       5.358780     -3.163574     -0.109913
  N       6.908052     -2.929989      1.570127
  H       5.014968     -0.451553      3.089330
  H       4.516738     -1.934522      3.663000
  H       3.913743     -1.820531      1.293011
  H       7.062607     -2.616439      2.516944
  H       7.504230     -3.623761      1.150374
  O       0.394943      2.494878     -1.262647
  N      -2.143961      1.210354      0.026063
  N       1.336420      0.424710     -0.855151
  N       0.224084     -1.408140      0.174691
  N      -2.083583     -0.905021      0.776676
  N       2.460331     -1.586563     -0.426478
  C      -0.876126      0.733364     -0.233677
  C      -0.862014     -0.579098      0.242715
  C       0.267386      1.351196     -0.825829
  C       1.284365     -0.871681     -0.368695
  C      -2.817244      0.186105      0.628705
  H      -2.489398      2.132569     -0.199236
  H       2.205495      0.794230     -1.224257
  H      -3.848065      0.283862      0.941758
  H       2.355231     -2.585842     -0.310432
  H       3.125962     -1.376714     -1.156385
26
Coordinates from ORCA-job semicarbazide_guanine_opt_freq E -822.730550759486
  N       5.217910     -1.682840      3.184866
  N       4.763528     -1.877113      1.872836
  C       5.573909     -2.459999      0.896243
  O       5.099855     -2.675635     -0.238210
  N       6.858205     -2.729323      1.254882
  H       5.055636     -0.709358      3.442482
  H       4.891501     -2.202861      3.809579
  H       3.804973     -1.777028      1.486009
  H       7.148032     -2.520668      2.201834
  H       7.464626     -3.185622      0.575595
  O       0.582931      2.369313     -1.319911
  N      -2.105306      1.264813     -0.156042
  N       1.393619      0.283733     -0.739181
  N       0.127781     -1.441666      0.297754
  N      -2.188964     -0.809035      0.709134
  N       2.393338     -1.748047     -0.137160
  C      -0.845421      0.720514     -0.307486
  C      -0.919715     -0.564774      0.240680
  C       0.369569      1.254128     -0.837056
  C       1.250846     -0.983111     -0.198299
  C      -2.863068      0.301472      0.449539
  H      -2.394986      2.184411     -0.461191
  H       2.297227      0.597770     -1.078080
  H      -3.908368      0.462141      0.682421
  H       2.228683     -2.804877      0.008513
  H       3.177600     -1.550564     -0.859747
26
Coordinates from ORCA-job semicarbazide_guanine_opt_freq E -822.652502608252
  N       5.313117     -1.402881      3.010128
  N       4.651268     -1.850368      1.851431
  C       5.370905     -2.566801      0.930456
  O       4.866092     -2.880009     -0.144913
  N       6.658544     -2.862262      1.240902
  H       5.370382     -0.395407      3.098531
  H       4.704212     -1.986197      4.253442
  H       3.791651     -1.800857      1.428901
  H       7.040281     -2.566193      2.126167
  H       7.187974     -3.371295      0.587548
  O       0.611998      2.443846     -1.072215
  N      -2.062633      1.188668     -0.086234
  N       1.461268      0.343092     -0.682503
  N       0.213440     -1.490149      0.156185
  N      -2.131907     -0.950316      0.573472
  N       2.492061     -1.724820     -0.238941
  C      -0.795972      0.688828     -0.258795
  C      -0.857509     -0.638220      0.160895
  C       0.416709      1.282990     -0.703638
  C       1.340553     -0.978923     -0.259460
  C      -2.815711      0.159908      0.406689
  H      -2.360880      2.125163     -0.310686
  H       2.336355      0.757856     -0.985972
  H      -3.865503      0.286471      0.625654
  H       2.319161     -2.615037     -0.151905
  H       3.218086     -1.481312     -0.775136
26
Coordinates from ORCA-job semicarbazide_guanine_opt_freq E -822.701452702083
  N       5.305992     -1.415758      2.971449
  N       4.683551     -1.884460      1.829980
  C       5.455628     -2.627994      0.948459
  O       4.999839     -2.993932     -0.136338
  N       6.737821     -2.896190      1.317417
  H       5.342404     -0.402668      3.034879
  H       4.765215     -1.919717      4.146201
  H       3.767327     -1.817286      1.415491
  H       7.087179     -2.580262      2.206504
  H       7.290144     -3.441513      0.689733
  O       0.576187      2.481077     -1.047745
  N      -2.102298      1.204746     -0.078381
  N       1.429415      0.374627     -0.677136
  N       0.184821     -1.472146      0.138025
  N      -2.161186     -0.945454      0.556836
  N       2.465491     -1.690390     -0.256211
  C      -0.830860      0.710041     -0.253723
  C      -0.887460     -0.624103      0.151094
  C       0.382334      1.315814     -0.691924
  C       1.308260     -0.949330     -0.270781
  C      -2.851024      0.167246      0.404062
  H      -2.406883      2.143220     -0.291715
  H       2.311184      0.781265     -0.971461
  H      -3.902668      0.287407      0.623910
  H       2.285990     -2.663370     -0.150498
  H       3.237541     -1.425094     -0.828124
26
Coordinates from ORCA-job semicarbazide_guanine_opt_freq E -822.726659876666
  N       5.284302     -1.446048      2.982580
  N       4.699638     -1.911815      1.828729
  C       5.494411     -2.642161      0.945416
  O       5.037500     -3.003407     -0.148200
  N       6.775003     -2.894059      1.336595
  H       5.293922     -0.431208      3.047386
  H       4.818013     -1.888276      4.076357
  H       3.755138     -1.834957      1.418271
  H       7.103564     -2.576104      2.235743
  H       7.354069     -3.432987      0.713724
  O       0.573313      2.491475     -1.057145
  N      -2.115735      1.218579     -0.080269
  N       1.415802      0.376778     -0.677800
  N       0.168372     -1.467490      0.143191
  N      -2.172119     -0.934716      0.559664
  N       2.447623     -1.687908     -0.253791
  C      -0.841123      0.719774     -0.255056
  C      -0.897783     -0.616827      0.153185
  C       0.370027      1.329591     -0.696974
  C       1.289024     -0.941614     -0.268945
  C      -2.862552      0.181504      0.403989
  H      -2.421062      2.157189     -0.294831
  H       2.308593      0.758450     -0.969626
  H      -3.915159      0.297934      0.625672
  H       2.275173     -2.688061     -0.145634
  H       3.235988     -1.417859     -0.842227
26
Coordinates from ORCA-job semicarbazide_guanine_opt_freq E -822.750021910614
  N       5.260542     -1.486031      3.002249
  N       4.719596     -1.948907      1.822593
  C       5.542681     -2.654163      0.942729
  O       5.096821     -3.013440     -0.160832
  N       6.820471     -2.879603      1.361323
  H       5.237235     -0.470695      3.065217
  H       4.864747     -1.863003      3.964658
  H       3.743886     -1.859809      1.424924
  H       7.123479     -2.563860      2.271608
  H       7.430713     -3.403278      0.748705
  O       0.571666      2.498614     -1.070391
  N      -2.127407      1.236959     -0.081165
  N       1.399511      0.375078     -0.679978
  N       0.145688     -1.464629      0.151156
  N      -2.188598     -0.916388      0.566409
  N       2.422962     -1.690624     -0.250603
  C      -0.851526      0.730625     -0.255517
  C      -0.912972     -0.606438      0.157658
  C       0.355969      1.343162     -0.703839
  C       1.265307     -0.936551     -0.267061
  C      -2.875843      0.203920      0.405256
  H      -2.431102      2.175753     -0.297742
  H       2.303721      0.728130     -0.970411
  H      -3.928611      0.318755      0.629243
  H       2.261153     -2.718226     -0.139726
  H       3.223856     -1.419575     -0.856462
26
Coordinates from ORCA-job semicarbazide_guanine_opt_freq E -822.756316162186
  N       5.249246     -1.524521      3.032658
  N       4.754751     -1.973816      1.812194
  C       5.585403     -2.653137      0.925236
  O       5.143703     -3.004599     -0.184357
  N       6.854457     -2.869690      1.358538
  H       5.221800     -0.507460      3.094760
  H       4.829174     -1.878019      3.836376
  H       3.761230     -1.855753      1.459238
  H       7.140558     -2.560334      2.276783
  H       7.493204     -3.360835      0.744321
  O       0.570432      2.490123     -1.097758
  N      -2.136047      1.249709     -0.099523
  N       1.388504      0.366765     -0.670313
  N       0.125939     -1.458956      0.185817
  N      -2.208362     -0.894372      0.577631
  N       2.405030     -1.693442     -0.208232
  C      -0.859445      0.735377     -0.258620
  C      -0.928865     -0.595407      0.172610
  C       0.346716      1.343763     -0.713427
  C       1.248424     -0.935144     -0.237496
  C      -2.890790      0.226384      0.394427
  H      -2.436284      2.185900     -0.332308
  H       2.302832      0.694755     -0.958067
  H      -3.944988      0.342535      0.611927
  H       2.255102     -2.726223     -0.119321
  H       3.202219     -1.427827     -0.823091
26
Coordinates from ORCA-job semicarbazide_guanine_opt_freq E -822.761586660193
  N       5.265222     -1.506435      3.023598
  N       4.784881     -1.952835      1.785531
  C       5.593095     -2.654436      0.898458
  O       5.143317     -3.008266     -0.205728
  N       6.850465     -2.897780      1.336059
  H       5.228133     -0.491072      3.096155
  H       4.770199     -1.908325      3.839954
  H       3.806749     -1.808461      1.473701
  H       7.142812     -2.563631      2.243358
  H       7.490593     -3.376944      0.716010
  O       0.573877      2.481761     -1.092137
  N      -2.139498      1.245601     -0.121036
  N       1.392260      0.364496     -0.642155
  N       0.122029     -1.455441      0.211880
  N      -2.220073     -0.893252      0.568322
  N       2.409003     -1.690024     -0.154794
  C      -0.861602      0.732425     -0.259188
  C      -0.935791     -0.594613      0.178918
  C       0.351059      1.336221     -0.702892
  C       1.250077     -0.935446     -0.200569
  C      -2.900890      0.224879      0.369299
  H      -2.437059      2.179676     -0.365529
  H       2.308677      0.695560     -0.920779
  H      -3.957809      0.342654      0.571522
  H       2.255096     -2.709215     -0.098712
  H       3.189117     -1.441320     -0.769246
26
Coordinates from ORCA-job semicarbazide_guanine_opt_freq E -822.762213535404
  N       5.339991     -1.483210      3.004459
  N       4.802021     -1.922707      1.813994
  C       5.558898     -2.674381      0.934593
  O       5.069444     -3.038704     -0.142251
  N       6.834738     -2.954849      1.325850
  H       5.332719     -0.466826      3.043316
  H       4.803363     -1.873751      3.795808
  H       3.823800     -1.772060      1.533893
  H       7.185488     -2.625072      2.213268
  H       7.420795     -3.466662      0.689151
  O       0.548978      2.501690     -1.055262
  N      -2.158606      1.224414     -0.140713
  N       1.390233      0.395191     -0.611073
  N       0.128894     -1.449402      0.200538
  N      -2.228264     -0.920431      0.521883
  N       2.424236     -1.654317     -0.126870
  C      -0.874278      0.731156     -0.258075
  C      -0.941271     -0.600232      0.161245
  C       0.339222      1.349125     -0.679198
  C       1.257203     -0.914927     -0.186792
  C      -2.918318      0.189440      0.323815
  H      -2.462379      2.157850     -0.378008
  H       2.301461      0.750617     -0.877591
  H      -3.979461      0.295081      0.506251
  H       2.276459     -2.646033     -0.091327
  H       3.198576     -1.415225     -0.740900
26
Coordinates from ORCA-job semicarbazide_guanine_opt_freq E -822.734163680730
  N       5.232125     -1.545660      3.103240
  N       4.846885     -1.927333      1.716727
  C       5.627062     -2.561699      0.800690
  O       5.248083     -2.801520     -0.346005
  N       6.874403     -2.898327      1.275211
  H       5.111884     -0.544018      3.238786
  H       4.718666     -1.937855      3.751533
  H       3.974793     -1.736061      1.495224
  H       7.149740     -2.539966      2.175071
  H       7.514782     -3.277176      0.601273
  O       0.637942      2.415579     -1.097505
  N      -2.114891      1.265873     -0.173784
  N       1.409218      0.307430     -0.576593
  N       0.074975     -1.467444      0.268637
  N      -2.265803     -0.850469      0.551615
  N       2.360289     -1.759172     -0.008210
  C      -0.851711      0.732984     -0.257894
  C      -0.968855     -0.580768      0.197259
  C       0.402165      1.277042     -0.686454
  C       1.225526     -0.994823     -0.122596
  C      -2.919989      0.272517      0.316192
  H      -2.385569      2.202051     -0.440570
  H       2.319756      0.645203     -0.870404
  H      -3.977254      0.433784      0.477553
  H       2.139444     -2.775402      0.051887
  H       3.090277     -1.638993     -0.660879
26
Coordinates from ORCA-job semicarbazide_guanine_opt_freq E -822.754376454944
  N       5.280501     -1.537745      3.096207
  N       4.872239     -1.932766      1.740023
  C       5.648505     -2.580902      0.817668
  O       5.241419     -2.826635     -0.323048
  N       6.891614     -2.921168      1.273870
  H       5.193207     -0.531452      3.225539
  H       4.731406     -1.946183      3.786239
  H       3.950248     -1.733610      1.504531
  H       7.182786     -2.566311      2.170361
  H       7.530435     -3.305791      0.597811
  O       0.620366      2.429784     -1.088690
  N      -2.135387      1.268209     -0.182708
  N       1.393326      0.317871     -0.573720
  N       0.059428     -1.463946      0.257798
  N      -2.284119     -0.854126      0.531714
  N       2.348988     -1.748116     -0.014028
  C      -0.868767      0.735940     -0.264446
  C      -0.984688     -0.581186      0.184664
  C       0.381801      1.289960     -0.684406
  C       1.210806     -0.983468     -0.125165
  C      -2.938423      0.270648      0.298859
  H      -2.406289      2.205247     -0.446513
  H       2.309921      0.648142     -0.855752
  H      -3.997333      0.425027      0.458043
  H       2.142497     -2.762059      0.049696
  H       3.099456     -1.599589     -0.654542
26
Coordinates from ORCA-job semicarbazide_guanine_opt_freq E -822.718565130313
  N       5.502512     -1.603989      3.007564
  N       4.943099     -1.937263      1.912760
  C       5.726773     -2.587456      0.967649
  O       5.192327     -2.825886     -0.128665
  N       7.002747     -2.946271      1.298336
  H       5.576205     -0.589865      3.054984
  H       4.830718     -2.063845      3.761484
  H       3.890630     -1.753015      1.592863
  H       7.408809     -2.740564      2.209889
  H       7.603876     -3.353433      0.595740
  O       0.541987      2.474912     -1.095389
  N      -2.227484      1.287210     -0.231551
  N       1.312288      0.352409     -0.574179
  N      -0.024495     -1.444281      0.220499
  N      -2.374238     -0.854579      0.451205
  N       2.274082     -1.717007     -0.034482
  C      -0.948526      0.752520     -0.294066
  C      -1.063779     -0.574890      0.137005
  C       0.281840      1.340003     -0.698535
  C       1.126076     -0.938045     -0.130182
  C      -3.022928      0.276770      0.219121
  H      -2.490198      2.229759     -0.479875
  H       2.246664      0.659777     -0.815095
  H      -4.087511      0.400339      0.368718
  H       2.112829     -2.639148      0.101813
  H       3.139640     -1.488385     -0.637606
26
Coordinates from ORCA-job semicarbazide_guanine_opt_freq E -822.751902201244
  N       5.292704     -1.578202      3.104883
  N       4.939923     -2.001518      1.716214
  C       5.802823     -2.619736      0.832660
  O       5.428047     -2.889631     -0.324426
  N       7.032296     -2.896632      1.348430
  H       5.265569     -0.558776      3.198356
  H       4.581598     -2.007328      3.800077
  H       4.014705     -1.827682      1.432041
  H       7.267463     -2.622458      2.299389
  H       7.758915     -3.246129      0.736632
  O       0.561991      2.444174     -1.163334
  N      -2.183528      1.309894     -0.158889
  N       1.325954      0.321966     -0.639222
  N       0.000862     -1.445225      0.247066
  N      -2.331770     -0.810484      0.571608
  N       2.281978     -1.751733     -0.103876
  C      -0.916826      0.760905     -0.267737
  C      -1.033464     -0.554943      0.192057
  C       0.305093      1.322083     -0.734723
  C       1.145044     -0.960805     -0.166737
  C      -2.977344      0.320276      0.341057
  H      -2.448229      2.250689     -0.413370
  H       2.253039      0.615147     -0.926205
  H      -4.033057      0.465558      0.531806
  H       2.088104     -2.756116      0.035339
  H       3.052051     -1.567517     -0.709093
26
Coordinates from ORCA-job semicarbazide_guanine_opt_freq E -822.710530821563
  N       5.430872     -1.681791      3.145635
  N       4.916273     -1.984751      1.887085
  C       5.702863     -2.541965      0.919179
  O       5.271078     -2.731043     -0.205676
  N       6.997779     -2.876623      1.259848
  H       5.361971     -0.682489      3.270620
  H       5.004466     -2.059027      3.746845
  H       3.904754     -1.779851      1.586087
  H       7.368082     -2.662983      2.153184
  H       7.572407     -3.188994      0.504844
  O       0.571113      2.422225     -1.155582
  N      -2.189362      1.296521     -0.249172
  N       1.332871      0.320446     -0.594850
  N      -0.020744     -1.440156      0.257784
  N      -2.364860     -0.807700      0.496062
  N       2.254287     -1.745913     -0.000433
  C      -0.928198      0.757028     -0.305028
  C      -1.061470     -0.548455      0.160932
  C       0.329759      1.292898     -0.729973
  C       1.136341     -0.972478     -0.120732
  C      -3.008644      0.315668      0.239908
  H      -2.450045      2.233629     -0.522184
  H       2.254577      0.645189     -0.865856
  H      -4.066932      0.483073      0.384653
  H       2.053020     -2.786101      0.137320
  H       3.101681     -1.560581     -0.620496
26
Coordinates from ORCA-job semicarbazide_guanine_opt_freq E -822.707366755295
  N       5.413759     -1.509785      3.098811
  N       4.885340     -1.964686      1.806972
  C       5.651245     -2.610726      0.853352
  O       5.162400     -2.860415     -0.279482
  N       6.915909     -2.919832      1.225015
  H       5.428005     -0.485814      3.168851
  H       4.593898     -1.974493      4.064729
  H       4.001802     -1.811144      1.497144
  H       7.272773     -2.631572      2.144656
  H       7.532374     -3.302490      0.515615
  O       0.598003      2.450489     -1.076195
  N      -2.165252      1.273213     -0.193915
  N       1.371590      0.329622     -0.581248
  N       0.035605     -1.463324      0.218738
  N      -2.311906     -0.865142      0.487519
  N       2.336100     -1.748580     -0.057517
  C      -0.892547      0.742842     -0.272128
  C      -1.006702     -0.585677      0.154488
  C       0.349730      1.305997     -0.682468
  C       1.192905     -0.975607     -0.148036
  C      -2.964575      0.263680      0.264433
  H      -2.431220      2.217094     -0.436969
  H       2.286236      0.678939     -0.846326
  H      -4.025754      0.407302      0.420600
  H       2.116233     -2.707776      0.055028
  H       3.127992     -1.536336     -0.621664
26
Coordinates from ORCA-job semicarbazide_guanine_opt_freq E -822.734751709649
  N       5.417807     -1.543288      3.076992
  N       4.899136     -1.963859      1.830229
  C       5.677692     -2.599798      0.881999
  O       5.195267     -2.842336     -0.239574
  N       6.944735     -2.916657      1.249374
  H       5.406713     -0.525111      3.146664
  H       4.692808     -1.997853      3.997445
  H       3.962880     -1.799977      1.503732
  H       7.302139     -2.645804      2.158574
  H       7.554284     -3.298519      0.542009
  O       0.588729      2.452411     -1.083410
  N      -2.174579      1.279421     -0.200273
  N       1.358279      0.332226     -0.582955
  N       0.020769     -1.458534      0.219969
  N      -2.325510     -0.855350      0.485447
  N       2.315701     -1.744448     -0.055999
  C      -0.903108      0.747184     -0.276738
  C      -1.020483     -0.578426      0.152747
  C       0.339105      1.311887     -0.688252
  C       1.175484     -0.969173     -0.147692
  C      -2.975997      0.273429      0.259902
  H      -2.439652      2.222850     -0.444988
  H       2.278912      0.667008     -0.844774
  H      -4.036963      0.417599      0.415711
  H       2.105802     -2.715197      0.061456
  H       3.113992     -1.533912     -0.637592
26
Coordinates from ORCA-job semicarbazide_guanine_opt_freq E -822.748997681441
  N       5.404368     -1.573364      3.067750
  N       4.905844     -1.967940      1.837244
  C       5.700492     -2.590495      0.894484
  O       5.232667     -2.824469     -0.227409
  N       6.968796     -2.908464      1.272080
  H       5.375504     -0.558433      3.145911
  H       4.743797     -2.015427      3.933440
  H       3.950302     -1.799565      1.506259
  H       7.318895     -2.648190      2.182633
  H       7.585540     -3.281984      0.568073
  O       0.584328      2.449540     -1.099962
  N      -2.179365      1.287104     -0.201044
  N       1.348699      0.329340     -0.591492
  N       0.009913     -1.454801      0.225148
  N      -2.332949     -0.843757      0.495330
  N       2.299879     -1.746732     -0.057664
  C      -0.909276      0.750894     -0.279371
  C      -1.028695     -0.571972      0.157004
  C       0.332125      1.313189     -0.698787
  C       1.162537     -0.968234     -0.149293
  C      -2.981334      0.285792      0.267107
  H      -2.443618      2.229849     -0.449241
  H       2.272118      0.653185     -0.856163
  H      -4.041503      0.432080      0.426575
  H       2.097886     -2.719611      0.062244
  H       3.096992     -1.541761     -0.650852
26
Coordinates from ORCA-job semicarbazide_guanine_opt_freq E -822.691439104135
  N       5.329036     -1.704101      3.078013
  N       4.928284     -1.999022      1.839745
  C       5.791662     -2.543146      0.911702
  O       5.398211     -2.733369     -0.234783
  N       7.055803     -2.854245      1.351997
  H       5.234940     -0.700937      3.218822
  H       4.907419     -2.069904      3.647580
  H       3.926439     -1.814976      1.508486
  H       7.353223     -2.634903      2.285833
  H       7.723019     -3.170839      0.672431
  O       0.576194      2.421804     -1.186350
  N      -2.187941      1.322889     -0.201881
  N       1.315423      0.302263     -0.632433
  N      -0.033836     -1.442456      0.260872
  N      -2.360716     -0.784530      0.555083
  N       2.238407     -1.772716     -0.059712
  C      -0.926812      0.763915     -0.289253
  C      -1.059327     -0.543393      0.186006
  C       0.310861      1.305538     -0.750059
  C       1.115014     -0.977111     -0.150458
  C      -2.995643      0.348889      0.308827
  H      -2.445066      2.261757     -0.470456
  H       2.247445      0.581309     -0.916911
  H      -4.050654      0.510716      0.486159
  H       2.060372     -2.757910      0.064677
  H       3.022183     -1.599743     -0.703934
26
Coordinates from ORCA-job semicarbazide_guanine_opt_freq E -822.755508211036
  N       5.376808     -1.560462      3.092334
  N       4.878283     -1.982288      1.822234
  C       5.668791     -2.574747      0.863134
  O       5.224026     -2.821290     -0.270349
  N       6.944853     -2.868356      1.251411
  H       5.295508     -0.547563      3.202045
  H       4.798692     -2.025951      3.927934
  H       3.946835     -1.817797      1.512826
  H       7.273086     -2.598999      2.165128
  H       7.560885     -3.236057      0.552412
  O       0.610259      2.439080     -1.098436
  N      -2.156926      1.287723     -0.199020
  N       1.368120      0.319773     -0.587165
  N       0.019870     -1.461440      0.232494
  N      -2.322760     -0.837223      0.500000
  N       2.301162     -1.764554     -0.049880
  C      -0.891511      0.749331     -0.277221
  C      -1.018367     -0.570311      0.161730
  C       0.356651      1.302264     -0.695987
  C       1.178051     -0.981114     -0.141953
  C      -2.967261      0.292380      0.271539
  H      -2.418117      2.230877     -0.448328
  H       2.289065      0.650325     -0.856038
  H      -4.026054      0.447208      0.429075
  H       2.088399     -2.776551      0.067306
  H       3.095592     -1.578480     -0.647221
26
Coordinates from ORCA-job semicarbazide_guanine_opt_freq E -822.760971362138
  N       5.365355     -1.572245      3.065294
  N       4.892495     -1.979735      1.823073
  C       5.700966     -2.583841      0.883238
  O       5.253650     -2.839725     -0.241922
  N       6.970597     -2.869588      1.282468
  H       5.285275     -0.562473      3.163261
  H       4.800876     -2.026036      3.867522
  H       3.936719     -1.816715      1.501018
  H       7.288504     -2.597538      2.199399
  H       7.605972     -3.253069      0.601317
  O       0.603065      2.443319     -1.096490
  N      -2.165182      1.294694     -0.191759
  N       1.355583      0.318399     -0.591392
  N       0.008807     -1.460542      0.228847
  N      -2.329768     -0.833658      0.505625
  N       2.294467     -1.763396     -0.062794
  C      -0.898984      0.751145     -0.274784
  C      -1.025278     -0.569947      0.163029
  C       0.344050      1.308634     -0.696233
  C       1.164112     -0.978329     -0.148837
  C      -2.972353      0.299256      0.279792
  H      -2.424935      2.239028     -0.439015
  H       2.282590      0.635153     -0.852311
  H      -4.031205      0.450195      0.443296
  H       2.092481     -2.739901      0.048762
  H       3.076082     -1.577310     -0.680399
26
Coordinates from ORCA-job semicarbazide_guanine_opt_freq E -822.761778590083
  N       5.379126     -1.611216      3.103972
  N       4.879590     -1.964511      1.841116
  C       5.681846     -2.536423      0.866589
  O       5.226705     -2.776145     -0.268566
  N       6.971371     -2.824306      1.251893
  H       5.284909     -0.604647      3.232747
  H       4.823765     -2.113307      3.838282
  H       3.910863     -1.795811      1.535294
  H       7.318077     -2.564484      2.193762
  H       7.594759     -3.181008      0.550827
  O       0.635450      2.430919     -1.136457
  N      -2.153765      1.303786     -0.207808
  N       1.369216      0.300651     -0.598512
  N      -0.006265     -1.472771      0.245264
  N      -2.346298     -0.824708      0.518266
  N       2.281558     -1.794301     -0.033530
  C      -0.890663      0.750087     -0.284579
  C      -1.034515     -0.570125      0.170475
  C       0.366213      1.296655     -0.718503
  C       1.159173     -0.998586     -0.137909
  C      -2.977601      0.314613      0.279899
  H      -2.402481      2.251369     -0.467021
  H       2.299577      0.619251     -0.870038
  H      -4.038107      0.476644      0.442247
  H       2.071169     -2.769814      0.092053
  H       3.070267     -1.626036     -0.659759
26
Coordinates from ORCA-job semicarbazide_guanine_opt_freq E -822.756505498782
  N       5.332441     -1.620252      3.102239
  N       4.851536     -1.978484      1.807326
  C       5.677950     -2.528429      0.870004
  O       5.251934     -2.762704     -0.237724
  N       6.961815     -2.797000      1.251727
  H       5.221841     -0.609663      3.256816
  H       4.842852     -2.098203      3.759710
  H       3.893293     -1.808350      1.537962
  H       7.274282     -2.530582      2.140719
  H       7.622845     -3.136899      0.587517
  O       0.635576      2.404290     -1.126638
  N      -2.137508      1.310453     -0.196647
  N       1.369513      0.279718     -0.598392
  N       0.003257     -1.469882      0.234326
  N      -2.328499     -0.805279      0.520006
  N       2.284045     -1.808568     -0.025020
  C      -0.878991      0.747216     -0.284686
  C      -1.021584     -0.564191      0.165246
  C       0.371066      1.281574     -0.717008
  C       1.161710     -1.006214     -0.143199
  C      -2.957327      0.334191      0.288390
  H      -2.384649      2.254272     -0.448434
  H       2.298405      0.576714     -0.861289
  H      -4.013703      0.503770      0.458758
  H       2.063943     -2.808488      0.096612
  H       3.077898     -1.643232     -0.658319
