26
Coordinates from ORCA-job semicarbazide_guanine_opt_freq E -822.756505498782
  N           5.33244084866958     -1.62025213642143      3.10223931667680
  N           4.85153598533697     -1.97848400074475      1.80732643367537
  C           5.67794995226378     -2.52842865890935      0.87000353017498
  O           5.25193420914121     -2.76270401996194     -0.23772350434533
  N           6.96181547305274     -2.79700014951106      1.25172741850977
  H           5.22184077275404     -0.60966311149564      3.25681565445327
  H           4.84285215657322     -2.09820316705431      3.75970978536905
  H           3.89329281461957     -1.80834988426287      1.53796169229179
  H           7.27428152268304     -2.53058202786022      2.14071883465463
  H           7.62284512691049     -3.13689874677412      0.58751726891954
  O           0.63557574447035      2.40429017396906     -1.12663798063914
  N          -2.13750809989248      1.31045258899779     -0.19664662495965
  N           1.36951341389752      0.27971830383806     -0.59839228292197
  N           0.00325687094112     -1.46988221355939      0.23432647433503
  N          -2.32849893842678     -0.80527921516368      0.52000607716863
  N           2.28404496025651     -1.80856822998884     -0.02501963457141
  C          -0.87899064219734      0.74721551781163     -0.28468629483056
  C          -1.02158361517854     -0.56419061103662      0.16524565731494
  C           0.37106580053938      1.28157411525727     -0.71700842647281
  C           1.16170963506901     -1.00621373300153     -0.14319877538627
  C          -2.95732667678766      0.33419122225743      0.28839020051035
  H          -2.38464943835868      2.25427152256585     -0.44843377871522
  H           2.29840460603558      0.57671362209037     -0.86128939220706
  H          -4.01370266871172      0.50376972067552      0.45875842836353
  H           2.06394342400457     -2.80848843778425      0.09661190766197
  H           3.07789776233429     -1.64323244393288     -0.65831898503028
