24
Coordinates from ORCA-job thiourea_guanine_opt_freq E -1090.016722629719
  S       3.755083     -3.941792      1.500797
  N       5.987497     -3.384841      1.500797
  N       4.393436     -1.731280      1.500797
  C       4.640178     -3.088689      1.500397
  H       6.692309     -2.655194      1.500497
  H       6.315258     -4.344977      1.500797
  H       3.446046     -1.368669      1.500897
  H       5.148393     -1.053718      1.500697
  O       0.192100      2.665900     -0.000400
  N      -2.071500      0.658800      0.000600
  N       1.574000      0.803100      0.000100
  N       0.756600     -1.453600     -0.000300
  N      -1.719400     -1.543200     -0.000600
  N       3.054900     -1.010000      0.000500
  C      -0.718000      0.488500     -0.000100
  C      -0.524500     -0.873100     -0.000400
  C       0.338300      1.448600     -0.000100
  C       1.748300     -0.592400      0.000000
  C      -2.630800     -0.592600      0.000500
  H      -2.570600      1.538600      0.001200
  H       2.407800      1.383500      0.000300
  H      -3.701500     -0.739200      0.001000
  H       3.290500     -1.996500      0.000600
  H       3.822300     -0.347100      0.000800
24
Coordinates from ORCA-job thiourea_guanine_opt_freq E -1090.170820128536
  S       3.684708     -3.965090      1.490325
  N       5.985773     -3.401785      1.507007
  N       4.418550     -1.728770      1.509422
  C       4.665775     -3.062437      1.501784
  H       6.706953     -2.690370      1.515852
  H       6.289265     -4.366473      1.501606
  H       3.464235     -1.363965      1.505329
  H       5.178944     -1.057867      1.517389
  O       0.186250      2.681246     -0.007618
  N      -2.081156      0.651349      0.003627
  N       1.568199      0.816827     -0.009086
  N       0.763361     -1.442061     -0.003550
  N      -1.701725     -1.551910      0.004558
  N       3.053353     -0.992811     -0.008697
  C      -0.721981      0.492165     -0.001278
  C      -0.512344     -0.872609     -0.000197
  C       0.328297      1.460355     -0.006110
  C       1.746142     -0.577002     -0.008128
  C      -2.623343     -0.606978      0.007184
  H      -2.588295      1.526094      0.004555
  H       2.396642      1.402969     -0.012369
  H      -3.692495     -0.766057      0.011400
  H       3.293696     -1.982477     -0.003910
  H       3.817896     -0.332202     -0.009720
24
Coordinates from ORCA-job thiourea_guanine_opt_freq E -1090.254905564316
  S       3.623126     -3.980584      1.475860
  N       5.996870     -3.436511      1.518876
  N       4.457169     -1.724454      1.524528
  C       4.700457     -3.047428      1.507101
  H       6.741312     -2.751614      1.541272
  H       6.264802     -4.408238      1.505168
  H       3.492523     -1.357286      1.512809
  H       5.223676     -1.060902      1.544818
  O       0.175935      2.701121     -0.019081
  N      -2.099132      0.643682      0.006229
  N       1.554977      0.835429     -0.022873
  N       0.764859     -1.424173     -0.009237
  N      -1.686292     -1.559225      0.009911
  N       3.047819     -0.967529     -0.022271
  C      -0.733547      0.499794     -0.004308
  C      -0.503428     -0.868209     -0.001394
  C       0.308867      1.476826     -0.015667
  C       1.738164     -0.554920     -0.020247
  C      -2.619588     -0.622542      0.014580
  H      -2.616032      1.512135      0.007584
  H       2.375502      1.430875     -0.031096
  H      -3.686474     -0.797854      0.023732
  H       3.296116     -1.959959     -0.011270
  H       3.809019     -0.308295     -0.025647
24
Coordinates from ORCA-job thiourea_guanine_opt_freq E -1090.314754443039
  S       3.567628     -4.006337      1.445151
  N       6.036825     -3.495548      1.551173
  N       4.529253     -1.725230      1.557461
  C       4.755452     -3.055559      1.522422
  H       6.810113     -2.845877      1.602917
  H       6.257017     -4.476944      1.520985
  H       3.554118     -1.358670      1.527591
  H       5.303363     -1.071298      1.604550
  O       0.154385      2.728392     -0.034447
  N      -2.133482      0.638719      0.013068
  N       1.526417      0.862843     -0.050069
  N       0.754393     -1.395656     -0.028275
  N      -1.681815     -1.560868      0.013247
  N       3.032751     -0.927269     -0.056362
  C      -0.761467      0.515447     -0.009914
  C      -0.506211     -0.854984     -0.008842
  C       0.270974      1.501444     -0.031255
  C       1.718905     -0.520864     -0.048867
  C      -2.627770     -0.636007      0.026114
  H      -2.661340      1.499955      0.018834
  H       2.333838      1.474611     -0.067209
  H      -3.691339     -0.832042      0.044858
  H       3.293141     -1.921199     -0.039158
  H       3.791548     -0.266920     -0.064597
24
Coordinates from ORCA-job thiourea_guanine_opt_freq E -1090.345801898830
  S       3.540654     -4.044138      1.401440
  N       6.085910     -3.538453      1.591928
  N       4.607992     -1.738538      1.596462
  C       4.811380     -3.078045      1.540025
  H       6.875230     -2.913486      1.680571
  H       6.271182     -4.526714      1.541444
  H       3.637473     -1.381641      1.546332
  H       5.384305     -1.092142      1.676443
  O       0.135158      2.750505     -0.046333
  N      -2.168398      0.641643      0.022027
  N       1.496174      0.883435     -0.078150
  N       0.735249     -1.371709     -0.052829
  N      -1.693568     -1.554158      0.012245
  N       3.011659     -0.895566     -0.098183
  C      -0.792982      0.532936     -0.014874
  C      -0.521583     -0.838578     -0.019618
  C       0.233439      1.522204     -0.045248
  C       1.696641     -0.493310     -0.080470
  C      -2.646393     -0.637902      0.036719
  H      -2.701857      1.499114      0.034778
  H       2.290617      1.511417     -0.105655
  H      -3.707300     -0.848318      0.065411
  H       3.275779     -1.883913     -0.080223
  H       3.769939     -0.234505     -0.114863
24
Coordinates from ORCA-job thiourea_guanine_opt_freq E -1090.360573634136
  S       3.553910     -4.093721      1.357683
  N       6.145164     -3.566840      1.633392
  N       4.685154     -1.764884      1.635995
  C       4.871064     -3.108682      1.557722
  H       6.938235     -2.954073      1.758163
  H       6.312168     -4.557823      1.564047
  H       3.724261     -1.420531      1.569975
  H       5.457669     -1.121319      1.746672
  O       0.114288      2.769260     -0.055056
  N      -2.201086      0.654229      0.028071
  N       1.465404      0.899167     -0.101498
  N       0.707932     -1.353225     -0.075707
  N      -1.718520     -1.539531      0.007330
  N       2.982673     -0.875260     -0.138796
  C      -0.824788      0.551535     -0.019707
  C      -0.547383     -0.820338     -0.030969
  C       0.199521      1.540392     -0.056533
  C       1.670042     -0.473304     -0.107538
  C      -2.673287     -0.626986      0.041906
  H      -2.735220      1.511096      0.047283
  H       2.250354      1.538711     -0.138795
  H      -3.732824     -0.843697      0.077788
  H       3.241427     -1.859235     -0.124196
  H       3.740542     -0.214800     -0.167853
24
Coordinates from ORCA-job thiourea_guanine_opt_freq E -1090.367622873679
  S       3.612291     -4.154133      1.312923
  N       6.217597     -3.590444      1.676155
  N       4.756118     -1.801023      1.674534
  C       4.939824     -3.145471      1.574150
  H       7.004994     -2.979724      1.838174
  H       6.382446     -4.581233      1.591043
  H       3.798437     -1.468705      1.595977
  H       5.518893     -1.153263      1.814668
  O       0.089408      2.787556     -0.061863
  N      -2.232928      0.675818      0.031455
  N       1.433375      0.913611     -0.122393
  N       0.672419     -1.336874     -0.098300
  N      -1.753316     -1.518061      0.000022
  N       2.946190     -0.863428     -0.177697
  C      -0.857113      0.571855     -0.025308
  C      -0.581296     -0.800167     -0.043218
  C       0.168298      1.558395     -0.067077
  C       1.637237     -0.457818     -0.133519
  C      -2.706746     -0.604891      0.043747
  H      -2.764648      1.534054      0.056608
  H       2.214205      1.557964     -0.167136
  H      -3.766134     -0.821256      0.085534
  H       3.192581     -1.848611     -0.168813
  H       3.704570     -0.204009     -0.220292
24
Coordinates from ORCA-job thiourea_guanine_opt_freq E -1090.371519280924
  S       3.706647     -4.218879      1.259792
  N       6.298432     -3.611389      1.718966
  N       4.818533     -1.842509      1.711871
  C       5.016289     -3.183994      1.586743
  H       7.072525     -2.996759      1.923459
  H       6.473720     -4.599155      1.618744
  H       3.859546     -1.523660      1.622615
  H       5.565762     -1.185104      1.883537
  O       0.063892      2.805391     -0.070553
  N      -2.264178      0.703753      0.032710
  N       1.401414      0.926558     -0.142154
  N       0.631284     -1.321567     -0.118724
  N      -1.794546     -1.492074     -0.006212
  N       2.905193     -0.858505     -0.213484
  C      -0.889419      0.593420     -0.031679
  C      -0.620125     -0.779096     -0.054508
  C       0.139858      1.575976     -0.078315
  C       1.599926     -0.445863     -0.158204
  C      -2.744127     -0.574924      0.044702
  H      -2.791569      1.564528      0.062459
  H       2.183179      1.569514     -0.192410
  H      -3.804231     -0.786356      0.091886
  H       3.133627     -1.847460     -0.211812
  H       3.665067     -0.201706     -0.270052
24
Coordinates from ORCA-job thiourea_guanine_opt_freq E -1090.374205047131
  S       3.832740     -4.283668      1.187544
  N       6.385722     -3.630393      1.763761
  N       4.874051     -1.889620      1.751101
  C       5.100713     -3.223277      1.594340
  H       7.138272     -3.009509      2.022664
  H       6.582060     -4.612018      1.644451
  H       3.912231     -1.587772      1.650490
  H       5.599333     -1.219500      1.962037
  O       0.038983      2.823419     -0.084981
  N      -2.295781      0.736608      0.033708
  N       1.369039      0.938495     -0.164655
  N       0.585609     -1.306142     -0.138502
  N      -1.840852     -1.462391     -0.008998
  N       2.860451     -0.858252     -0.247562
  C      -0.922488      0.616734     -0.039769
  C      -0.662816     -0.756824     -0.065131
  C       0.112601      1.593707     -0.093802
  C       1.558839     -0.435863     -0.184007
  C      -2.784466     -0.538945      0.048750
  H      -2.817566      1.600648      0.067261
  H       2.155458      1.575352     -0.219533
  H      -3.845694     -0.742583      0.103330
  H       3.066752     -1.851597     -0.255282
  H       3.623510     -0.206468     -0.317837
24
Coordinates from ORCA-job thiourea_guanine_opt_freq E -1090.376123767082
  S       3.987141     -4.342386      1.096038
  N       6.479863     -3.646177      1.807184
  N       4.925510     -1.941876      1.793284
  C       5.193944     -3.261737      1.596253
  H       7.201870     -3.020238      2.132878
  H       6.706454     -4.617527      1.661999
  H       3.960020     -1.661257      1.680997
  H       5.622633     -1.258726      2.051661
  O       0.017124      2.841502     -0.107844
  N      -2.328683      0.774639      0.031702
  N       1.335880      0.947736     -0.188517
  N       0.534525     -1.291366     -0.151867
  N      -1.893006     -1.428562     -0.006707
  N       2.811081     -0.864094     -0.276175
  C      -0.957071      0.642316     -0.049227
  C      -0.709786     -0.733123     -0.072273
  C       0.085876      1.611333     -0.112247
  C       1.513774     -0.428934     -0.206063
  C      -2.828441     -0.496601      0.053590
  H      -2.843413      1.642884      0.065915
  H       2.129629      1.574767     -0.249321
  H      -3.891162     -0.690064      0.115310
  H       2.993229     -1.861501     -0.294846
  H       3.579708     -0.220866     -0.362349
24
Coordinates from ORCA-job thiourea_guanine_opt_freq E -1090.377336775683
  S       4.156343     -4.387580      0.987225
  N       6.575409     -3.655890      1.846545
  N       4.970897     -1.996802      1.838356
  C       5.290211     -3.296281      1.592341
  H       7.258021     -3.030328      2.249348
  H       6.839080     -4.611989      1.667863
  H       4.001595     -1.741081      1.712694
  H       5.634686     -1.303775      2.152115
  O       0.001544      2.858482     -0.137304
  N      -2.361017      0.815407      0.027601
  N       1.303715      0.952703     -0.214270
  N       0.480950     -1.278622     -0.159320
  N      -1.947417     -1.392364      0.000804
  N       2.759875     -0.876071     -0.297325
  C      -0.991278      0.668923     -0.061034
  C      -0.757862     -0.709081     -0.076309
  C       0.060657      1.627725     -0.136703
  C       1.467791     -0.425940     -0.224388
  C      -2.873088     -0.450587      0.060908
  H      -2.867456      1.688595      0.059425
  H       2.105613      1.568509     -0.281013
  H      -3.937348     -0.632756      0.130262
  H       2.919580     -1.876172     -0.327742
  H       3.536199     -0.244883     -0.400704
24
Coordinates from ORCA-job thiourea_guanine_opt_freq E -1090.378085849039
  S       4.329707     -4.416095      0.869333
  N       6.671465     -3.658051      1.878243
  N       5.012454     -2.052598      1.885220
  C       5.387578     -3.324986      1.583742
  H       7.308034     -3.041331      2.362144
  H       6.975912     -4.593648      1.660585
  H       4.039373     -1.824085      1.745223
  H       5.639697     -1.355114      2.258446
  O      -0.006851      2.873241     -0.173885
  N      -2.392485      0.858286      0.018108
  N       1.273027      0.952084     -0.238044
  N       0.425385     -1.268917     -0.156471
  N      -2.003478     -1.354127      0.013358
  N       2.707189     -0.895040     -0.308616
  C      -1.024471      0.695853     -0.072134
  C      -0.806429     -0.685118     -0.075034
  C       0.037888      1.641999     -0.158524
  C       1.421557     -0.427929     -0.235320
  C      -2.918262     -0.401406      0.065920
  H      -2.889243      1.737243      0.042601
  H       2.082659      1.556595     -0.313426
  H      -3.984259     -0.571222      0.140137
  H       2.847820     -1.896760     -0.349874
  H       3.492433     -0.278736     -0.432357
24
Coordinates from ORCA-job thiourea_guanine_opt_freq E -1090.378661931961
  S       4.518555     -4.424467      0.730807
  N       6.771108     -3.651032      1.908541
  N       5.048601     -2.114765      1.939605
  C       5.490005     -3.347856      1.571348
  H       7.349684     -3.056430      2.484247
  H       7.123675     -4.557297      1.644303
  H       4.072322     -1.917554      1.779744
  H       5.631456     -1.420359      2.383632
  O      -0.008651      2.886012     -0.215044
  N      -2.422702      0.904701      0.011284
  N       1.242690      0.946311     -0.267606
  N       0.366000     -1.261531     -0.155552
  N      -2.062324     -1.312412      0.028332
  N       2.651581     -0.920699     -0.315600
  C      -1.057433      0.723757     -0.088752
  C      -0.856878     -0.660301     -0.075153
  C       0.016289      1.654405     -0.194403
  C       1.373484     -0.434460     -0.248009
  C      -2.964090     -0.347288      0.076980
  H      -2.907662      1.790372      0.029183
  H       2.060212      1.539336     -0.348906
  H      -4.031598     -0.503017      0.160178
  H       2.775636     -1.923562     -0.368877
  H       3.446741     -0.321723     -0.460907
24
Coordinates from ORCA-job thiourea_guanine_opt_freq E -1090.379159041225
  S       4.720928     -4.405339      0.581786
  N       6.879763     -3.632844      1.928855
  N       5.085858     -2.183890      2.000113
  C       5.601213     -3.361990      1.554849
  H       7.392176     -3.078436      2.599482
  H       7.285088     -4.499469      1.612111
  H       4.107104     -2.021051      1.819421
  H       5.618957     -1.502740      2.520527
  O      -0.003437      2.895042     -0.268129
  N      -2.453739      0.957303     -0.007771
  N       1.212124      0.932832     -0.291559
  N       0.299269     -1.257136     -0.138356
  N      -2.128492     -1.264406      0.049538
  N       2.589137     -0.957781     -0.310569
  C      -1.090945      0.753388     -0.101105
  C      -0.912477     -0.633809     -0.066849
  C      -0.002041      1.664269     -0.216639
  C       1.320728     -0.448193     -0.249391
  C      -3.014713     -0.284394      0.080300
  H      -2.924034      1.851017     -0.005793
  H       2.037943      1.512317     -0.386246
  H      -4.084469     -0.422441      0.166048
  H       2.696383     -1.961973     -0.374707
  H       3.394374     -0.380136     -0.486540
24
Coordinates from ORCA-job thiourea_guanine_opt_freq E -1090.379609686413
  S       4.921407     -4.350320      0.430316
  N       6.982845     -3.598444      1.944332
  N       5.111111     -2.257814      2.065234
  C       5.706851     -3.362063      1.537979
  H       7.422901     -3.105189      2.707672
  H       7.443822     -4.414687      1.573848
  H       4.132210     -2.130301      1.859390
  H       5.588702     -1.602350      2.666300
  O       0.011214      2.898229     -0.316625
  N      -2.477658      1.010498     -0.018772
  N       1.186279      0.911904     -0.319722
  N       0.233065     -1.257205     -0.128555
  N      -2.192878     -1.215637      0.068157
  N       2.528063     -1.003317     -0.301729
  C      -1.119455      0.780234     -0.120579
  C      -0.965770     -0.609413     -0.063146
  C      -0.014795      1.668260     -0.257826
  C       1.270061     -0.468821     -0.253673
  C      -3.060769     -0.219174      0.089517
  H      -2.930816      1.912975     -0.027620
  H       2.021451      1.477013     -0.420027
  H      -4.132334     -0.336952      0.182640
  H       2.618936     -2.008755     -0.377200
  H       3.342256     -0.448529     -0.510535
24
Coordinates from ORCA-job thiourea_guanine_opt_freq E -1090.380051719099
  S       5.107222     -4.260533      0.290297
  N       7.081614     -3.541784      1.944662
  N       5.127274     -2.335718      2.130590
  C       5.804279     -3.345749      1.519677
  H       7.451965     -3.129413      2.788794
  H       7.596422     -4.298681      1.522052
  H       4.149915     -2.243284      1.901730
  H       5.548341     -1.717502      2.808506
  O       0.037817      2.892879     -0.363671
  N      -2.494148      1.065503     -0.038585
  N       1.166979      0.880470     -0.337363
  N       0.166002     -1.263170     -0.109692
  N      -2.257959     -1.164417      0.085950
  N       2.466731     -1.062350     -0.281089
  C      -1.141183      0.804085     -0.135624
  C      -1.017851     -0.587370     -0.055318
  C      -0.017059      1.665135     -0.285161
  C       1.220646     -0.499736     -0.247914
  C      -3.103920     -0.149025      0.091223
  H      -2.927014      1.977576     -0.064085
  H       2.013328      1.427719     -0.443761
  H      -4.177752     -0.242074      0.186062
  H       2.537854     -2.069123     -0.366370
  H       3.287198     -0.533298     -0.531533
24
Coordinates from ORCA-job thiourea_guanine_opt_freq E -1090.380622874998
  S       5.270423     -4.131953      0.160173
  N       7.169263     -3.440777      1.926916
  N       5.121517     -2.422027      2.194967
  C       5.884340     -3.305856      1.497861
  H       7.473474     -3.131122      2.839022
  H       7.738509     -4.126029      1.454032
  H       4.147289     -2.367093      1.945382
  H       5.481813     -1.853443      2.947407
  O       0.088172      2.873947     -0.400107
  N      -2.494498      1.124225     -0.058305
  N       1.160455      0.830945     -0.344237
  N       0.098242     -1.280084     -0.089758
  N      -2.322490     -1.109476      0.098943
  N       2.406176     -1.145208     -0.247779
  C      -1.149620      0.822730     -0.148499
  C      -1.066363     -0.569847     -0.047721
  C      -0.000596      1.649424     -0.305576
  C       1.174527     -0.548748     -0.235104
  C      -3.139416     -0.070511      0.086040
  H      -2.900757      2.047923     -0.099192
  H       2.022038      1.354313     -0.449479
  H      -4.215702     -0.131129      0.178982
  H       2.450540     -2.152842     -0.343148
  H       3.229364     -0.647221     -0.551444
24
Coordinates from ORCA-job thiourea_guanine_opt_freq E -1090.381408443444
  S       5.369688     -3.983365      0.052996
  N       7.218792     -3.270487      1.878109
  N       5.077533     -2.508716      2.244348
  C       5.919490     -3.235982      1.466634
  H       7.474127     -3.069195      2.835258
  H       7.838075     -3.878094      1.362779
  H       4.105829     -2.493856      1.985307
  H       5.379498     -1.993099      3.058453
  O       0.177025      2.834385     -0.407201
  N      -2.464505      1.181585     -0.079509
  N       1.179475      0.756064     -0.325122
  N       0.039485     -1.314422     -0.068730
  N      -2.376259     -1.055639      0.097266
  N       2.355753     -1.260750     -0.194050
  C      -1.131458      0.829995     -0.153732
  C      -1.100541     -0.562730     -0.041023
  C       0.049149      1.613931     -0.304655
  C       1.141833     -0.623410     -0.207132
  C      -3.154562      0.012522      0.070081
  H      -2.836551      2.118939     -0.134116
  H       2.061520      1.247402     -0.414954
  H      -4.233096     -0.006509      0.153780
  H       2.361354     -2.267243     -0.299991
  H       3.175046     -0.801188     -0.565421
24
Coordinates from ORCA-job thiourea_guanine_opt_freq E -1090.382131608538
  S       5.397741     -3.838305     -0.028860
  N       7.213195     -3.065550      1.811503
  N       5.009766     -2.579152      2.272126
  C       5.904714     -3.147866      1.427957
  H       7.445423     -2.957733      2.790564
  H       7.870358     -3.600205      1.262136
  H       4.037426     -2.603523      2.016138
  H       5.267575     -2.110355      3.129199
  O       0.287987      2.781437     -0.388897
  N      -2.408844      1.227199     -0.095854
  N       1.219328      0.669941     -0.286358
  N       0.000876     -1.358242     -0.048005
  N      -2.407489     -1.011285      0.088786
  N       2.323292     -1.386826     -0.129829
  C      -1.089935      0.825190     -0.151264
  C      -1.113243     -0.566277     -0.034446
  C       0.121972      1.565437     -0.286052
  C       1.128052     -0.708559     -0.170092
  C      -3.145142      0.084945      0.044381
  H      -2.745503      2.177404     -0.158504
  H       2.122806      1.125294     -0.348954
  H      -4.224635      0.108277      0.112847
  H       2.279346     -2.390640     -0.246129
  H       3.131634     -0.970467     -0.573019
24
Coordinates from ORCA-job thiourea_guanine_opt_freq E -1090.382638351396
  S       5.386335     -3.713654     -0.089112
  N       7.177535     -2.902463      1.753992
  N       4.952419     -2.623197      2.285792
  C       5.868121     -3.069220      1.392458
  H       7.405680     -2.858937      2.739994
  H       7.856289     -3.376217      1.174856
  H       3.977469     -2.678433      2.038239
  H       5.188483     -2.190654      3.168103
  O       0.382590      2.734853     -0.366848
  N      -2.354828      1.254776     -0.112926
  N       1.258570      0.599926     -0.245950
  N      -0.017833     -1.394659     -0.027570
  N      -2.419022     -0.982484      0.076411
  N       2.307625     -1.485669     -0.071432
  C      -1.047438      0.815928     -0.147817
  C      -1.111496     -0.573616     -0.027781
  C       0.186899      1.522993     -0.265491
  C       1.127102     -0.776278     -0.132961
  C      -3.124786      0.134184      0.023616
  H      -2.664874      2.213473     -0.183535
  H       2.178020      1.025178     -0.281535
  H      -4.203953      0.188789      0.078035
  H       2.214827     -2.485666     -0.196540
  H       3.102967     -1.108811     -0.572625
24
Coordinates from ORCA-job thiourea_guanine_opt_freq E -1090.383066892177
  S       5.349311     -3.630213     -0.127702
  N       7.129727     -2.804731      1.706836
  N       4.905279     -2.632766      2.288284
  C       5.819423     -3.011824      1.362174
  H       7.361165     -2.781478      2.693152
  H       7.816084     -3.237325      1.104817
  H       3.926550     -2.708103      2.052836
  H       5.139690     -2.214966      3.178010
  O       0.451909      2.701571     -0.341105
  N      -2.311049      1.264932     -0.123526
  N       1.292249      0.552639     -0.209558
  N      -0.018093     -1.421262     -0.010763
  N      -2.414050     -0.970743      0.067378
  N       2.309236     -1.549953     -0.025061
  C      -1.010700      0.804989     -0.143195
  C      -1.098909     -0.583583     -0.023161
  C       0.236358      1.492688     -0.244032
  C       1.137191     -0.821233     -0.101557
  C      -3.100850      0.156803      0.000628
  H      -2.605130      2.228507     -0.195954
  H       2.221598      0.957104     -0.221683
  H      -4.179633      0.228731      0.041194
  H       2.173941     -2.544292     -0.154972
  H       3.095403     -1.205353     -0.563662
24
Coordinates from ORCA-job thiourea_guanine_opt_freq E -1090.383456038850
  S       5.320693     -3.548023     -0.163012
  N       7.092216     -2.763279      1.682413
  N       4.873729     -2.627075      2.291469
  C       5.780176     -2.967211      1.341143
  H       7.329875     -2.752580      2.666721
  H       7.777565     -3.162023      1.057460
  H       3.892882     -2.716301      2.062972
  H       5.116241     -2.219093      3.183117
  O       0.496696      2.681549     -0.326278
  N      -2.283622      1.266741     -0.133318
  N       1.314176      0.524526     -0.187746
  N      -0.013077     -1.437660      0.002271
  N      -2.405314     -0.967662      0.059782
  N       2.314765     -1.587177      0.006191
  C      -0.986265      0.797301     -0.141666
  C      -1.086050     -0.591227     -0.019285
  C       0.266454      1.475340     -0.232115
  C       1.147853     -0.846661     -0.080206
  C      -3.082342      0.165429     -0.008755
  H      -2.569596      2.232544     -0.208366
  H       2.248676      0.917093     -0.186086
  H      -4.160910      0.244492      0.024425
  H       2.143919     -2.577848     -0.126811
  H       3.097960     -1.271055     -0.554943
24
Coordinates from ORCA-job thiourea_guanine_opt_freq E -1090.383740524281
  S       5.292219     -3.522876     -0.179667
  N       7.059170     -2.772787      1.674872
  N       4.845892     -2.597791      2.283303
  C       5.745214     -2.948157      1.329593
  H       7.305028     -2.743619      2.655909
  H       7.739641     -3.163387      1.040368
  H       3.864624     -2.690836      2.059902
  H       5.100761     -2.177318      3.165079
  O       0.515203      2.675639     -0.310354
  N      -2.270169      1.258252     -0.129715
  N       1.328244      0.517115     -0.177802
  N       0.002150     -1.445542      0.004390
  N      -2.389185     -0.976482      0.058765
  N       2.329814     -1.595608      0.016065
  C      -0.971689      0.790826     -0.137386
  C      -1.069862     -0.598910     -0.018705
  C       0.279958      1.470313     -0.221604
  C       1.163557     -0.852985     -0.073313
  C      -3.067527      0.155442     -0.013474
  H      -2.556370      2.224353     -0.199779
  H       2.262652      0.909973     -0.172932
  H      -4.146431      0.231446      0.016274
  H       2.144450     -2.582712     -0.116658
  H       3.119357     -1.294210     -0.543756
24
Coordinates from ORCA-job thiourea_guanine_opt_freq E -1090.383950819139
  S       5.289673     -3.465036     -0.206044
  N       7.037679     -2.767951      1.685404
  N       4.822622     -2.589521      2.280051
  C       5.727305     -2.922383      1.325171
  H       7.292974     -2.750162      2.663697
  H       7.719969     -3.131694      1.037328
  H       3.844089     -2.691313      2.052206
  H       5.079818     -2.171929      3.162330
  O       0.535215      2.666381     -0.311325
  N      -2.258424      1.257804     -0.123862
  N       1.337780      0.504220     -0.182470
  N       0.006114     -1.453629      0.005071
  N      -2.382393     -0.976448      0.064511
  N       2.331402     -1.612246      0.016234
  C      -0.960789      0.787269     -0.135180
  C      -1.062022     -0.602399     -0.015581
  C       0.292107      1.462961     -0.222494
  C       1.170028     -0.864108     -0.075287
  C      -3.058004      0.157417     -0.002530
  H      -2.541234      2.224992     -0.192730
  H       2.272038      0.897609     -0.184320
  H      -4.136675      0.235181      0.030692
  H       2.139338     -2.600348     -0.119294
  H       3.128092     -1.324527     -0.542201
24
Coordinates from ORCA-job thiourea_guanine_opt_freq E -1090.384096163287
  S       5.259232     -3.508887     -0.206303
  N       6.995925     -2.777275      1.683562
  N       4.778756     -2.552644      2.250404
  C       5.688664     -2.922709      1.316052
  H       7.260556     -2.707670      2.656942
  H       7.681776     -3.145515      1.041609
  H       3.800310     -2.654631      2.027899
  H       5.039727     -2.100361      3.114349
  O       0.548683      2.661172     -0.284324
  N      -2.242687      1.246275     -0.109333
  N       1.355165      0.499572     -0.172335
  N       0.026827     -1.462376     -0.001724
  N      -2.362329     -0.989754      0.058956
  N       2.351050     -1.616599      0.011668
  C      -0.944140      0.778234     -0.123419
  C      -1.042697     -0.612230     -0.016342
  C       0.307526      1.456809     -0.204518
  C       1.190231     -0.869778     -0.075514
  C      -3.040321      0.143386      0.002305
  H      -2.526580      2.213708     -0.169886
  H       2.286912      0.898995     -0.178604
  H      -4.119145      0.218808      0.035340
  H       2.171932     -2.602244     -0.125059
  H       3.161326     -1.324144     -0.522351
24
Coordinates from ORCA-job thiourea_guanine_opt_freq E -1090.384201114739
  S       5.277860     -3.427039     -0.238540
  N       6.984612     -2.722962      1.692992
  N       4.756945     -2.580587      2.250889
  C       5.685442     -2.889117      1.312383
  H       7.253857     -2.687330      2.667052
  H       7.683590     -3.038938      1.037246
  H       3.781912     -2.699298      2.018360
  H       5.002649     -2.148874      3.130092
  O       0.583025      2.639439     -0.296139
  N      -2.222867      1.260537     -0.103036
  N       1.365330      0.469081     -0.178755
  N       0.013016     -1.475820      0.004699
  N      -2.370100     -0.973190      0.074593
  N       2.334282     -1.657394      0.012878
  C      -0.930693      0.775669     -0.121432
  C      -1.046405     -0.612454     -0.009485
  C       0.329409      1.437939     -0.210350
  C       1.183614     -0.898073     -0.075704
  C      -3.034332      0.167882      0.011614
  H      -2.494435      2.231352     -0.166029
  H       2.300519      0.860233     -0.194193
  H      -4.111932      0.257749      0.047728
  H       2.154999     -2.646342     -0.132646
  H       3.146405     -1.372322     -0.524841
24
Coordinates from ORCA-job thiourea_guanine_opt_freq E -1090.384274432884
  S       5.281668     -3.423080     -0.243468
  N       6.977176     -2.700450      1.690295
  N       4.745960     -2.589551      2.244537
  C       5.681254     -2.884345      1.308364
  H       7.244647     -2.658262      2.664613
  H       7.682908     -3.003547      1.035820
  H       3.770874     -2.712207      2.010380
  H       4.983534     -2.158273      3.126416
  O       0.595472      2.630831     -0.293976
  N      -2.213733      1.264880     -0.102101
  N       1.370774      0.457800     -0.174523
  N       0.009325     -1.481266      0.008146
  N      -2.372396     -0.968357      0.074121
  N       2.330600     -1.671991      0.013991
  C      -0.924208      0.773451     -0.118355
  C      -1.046928     -0.613794     -0.006592
  C       0.339434      1.429620     -0.207298
  C       1.182199     -0.909310     -0.072398
  C      -3.030737      0.176329      0.014264
  H      -2.480998      2.236741     -0.167144
  H       2.308068      0.843773     -0.191094
  H      -4.107812      0.272449      0.049940
  H       2.155787     -2.660421     -0.136140
  H       3.143833     -1.380880     -0.518421
24
Coordinates from ORCA-job thiourea_guanine_opt_freq E -1090.384408674950
  S       5.300579     -3.386395     -0.260752
  N       6.966964     -2.656213      1.690817
  N       4.730659     -2.614816      2.236717
  C       5.678829     -2.868968      1.301355
  H       7.228503     -2.610556      2.666488
  H       7.686166     -2.924353      1.036154
  H       3.757095     -2.745938      1.994946
  H       4.950179     -2.194079      3.128537
  O       0.621721      2.612269     -0.299110
  N      -2.196699      1.276456     -0.099698
  N       1.378822      0.432900     -0.172091
  N      -0.002851     -1.491836      0.017642
  N      -2.380358     -0.954722      0.082067
  N       2.318045     -1.704517      0.014838
  C      -0.913078      0.770518     -0.114133
  C      -1.051191     -0.614808      0.000696
  C       0.357979      1.412566     -0.207383
  C       1.175075     -0.933318     -0.067235
  C      -3.025806      0.197131      0.019737
  H      -2.454364      2.250558     -0.169520
  H       2.321255      0.805739     -0.193217
  H      -4.101610      0.306648      0.055476
  H       2.147254     -2.691005     -0.145443
  H       3.133531     -1.403122     -0.507514
24
Coordinates from ORCA-job thiourea_guanine_opt_freq E -1090.384509083680
  S       5.326929     -3.306889     -0.289494
  N       6.954597     -2.603962      1.698223
  N       4.715283     -2.647864      2.230894
  C       5.676430     -2.840274      1.293776
  H       7.209606     -2.565646      2.675798
  H       7.687474     -2.819956      1.039790
  H       3.745894     -2.789875      1.976212
  H       4.914057     -2.248847      3.137498
  O       0.657651      2.587794     -0.311116
  N      -2.175377      1.291766     -0.095905
  N       1.387733      0.399550     -0.175542
  N      -0.019735     -1.505398      0.029016
  N      -2.390325     -0.936019      0.094873
  N       2.299258     -1.748695      0.014257
  C      -0.899257      0.767688     -0.110446
  C      -1.056645     -0.615097      0.010318
  C       0.380606      1.391318     -0.211797
  C       1.164937     -0.964331     -0.063848
  C      -3.019365      0.224695      0.030445
  H      -2.420410      2.268669     -0.171480
  H       2.336315      0.755727     -0.204558
  H      -4.093339      0.350384      0.068192
  H       2.125364     -2.731962     -0.157392
  H       3.119018     -1.442636     -0.498339
24
Coordinates from ORCA-job thiourea_guanine_opt_freq E -1090.384739975677
  S       5.367023     -3.173523     -0.328773
  N       6.937882     -2.535286      1.716552
  N       4.698204     -2.693839      2.221520
  C       5.674353     -2.794537      1.285381
  H       7.182639     -2.507975      2.696819
  H       7.686560     -2.673100      1.055354
  H       3.736932     -2.848235      1.944470
  H       4.868017     -2.330377      3.148589
  O       0.710457      2.551664     -0.329994
  N      -2.145034      1.314069     -0.086552
  N       1.398462      0.350194     -0.187539
  N      -0.045538     -1.524884      0.041424
  N      -2.404186     -0.907968      0.116400
  N       2.268567     -1.814478      0.006772
  C      -0.879963      0.764266     -0.105493
  C      -1.064674     -0.614723      0.022525
  C       0.411505      1.361097     -0.220832
  C       1.148727     -1.009101     -0.064560
  C      -3.009775      0.264902      0.049123
  H      -2.371584      2.294961     -0.167762
  H       2.355080      0.682548     -0.230670
  H      -4.080709      0.412973      0.092304
  H       2.084690     -2.792121     -0.178208
  H       3.099066     -1.506387     -0.487474
24
Coordinates from ORCA-job thiourea_guanine_opt_freq E -1090.385057611014
  S       5.393784     -3.054269     -0.358412
  N       6.920216     -2.476489      1.731786
  N       4.684633     -2.725822      2.210553
  C       5.668192     -2.750513      1.277572
  H       7.155715     -2.455776      2.714264
  H       7.677821     -2.551384      1.070847
  H       3.731581     -2.887125      1.914379
  H       4.832512     -2.391386      3.151959
  O       0.761032      2.518906     -0.337151
  N      -2.116438      1.332399     -0.075469
  N       1.408561      0.305149     -0.197483
  N      -0.067029     -1.543434      0.045635
  N      -2.413405     -0.884471      0.130060
  N       2.240602     -1.875121     -0.001780
  C      -0.861066      0.760806     -0.100348
  C      -1.069262     -0.615064      0.029164
  C       0.439683      1.334724     -0.224408
  C       1.135838     -1.049084     -0.068037
  C      -2.998757      0.298609      0.063303
  H      -2.326308      2.316992     -0.156767
  H       2.371238      0.618027     -0.250767
  H      -4.066838      0.464780      0.111119
  H       2.039601     -2.846519     -0.192931
  H       3.084794     -1.573797     -0.477709
24
Coordinates from ORCA-job thiourea_guanine_opt_freq E -1090.385520306435
  S       5.413285     -2.979068     -0.377843
  N       6.909838     -2.435320      1.742250
  N       4.678267     -2.733836      2.199173
  C       5.664284     -2.715454      1.270055
  H       7.133848     -2.411476      2.727253
  H       7.672344     -2.478671      1.083918
  H       3.732422     -2.893610      1.888751
  H       4.813587     -2.411701      3.146459
  O       0.804932      2.494203     -0.321553
  N      -2.095147      1.345989     -0.062826
  N       1.415138      0.269192     -0.201597
  N      -0.085182     -1.559686      0.034517
  N      -2.419944     -0.867815      0.127496
  N       2.214446     -1.925752     -0.011998
  C      -0.846665      0.758808     -0.095212
  C      -1.072399     -0.615689      0.024477
  C       0.460485      1.316632     -0.217237
  C       1.125537     -1.079964     -0.076003
  C      -2.990438      0.322896      0.067553
  H      -2.291151      2.334201     -0.134560
  H       2.381356      0.570976     -0.257178
  H      -4.056570      0.500293      0.118093
  H       1.986833     -2.890501     -0.196438
  H       3.077593     -1.644507     -0.468174
24
Coordinates from ORCA-job thiourea_guanine_opt_freq E -1090.386010459112
  S       5.414698     -2.889057     -0.400030
  N       6.890242     -2.372509      1.744405
  N       4.667013     -2.742380      2.184817
  C       5.652644     -2.667805      1.258468
  H       7.107871     -2.360992      2.730964
  H       7.654364     -2.376719      1.086366
  H       3.726654     -2.905598      1.863095
  H       4.792867     -2.436199      3.138643
  O       0.861215      2.461149     -0.295352
  N      -2.064520      1.360976     -0.053121
  N       1.427539      0.224002     -0.194919
  N      -0.104200     -1.580194      0.024131
  N      -2.425233     -0.848472      0.117915
  N       2.185858     -1.986932     -0.014298
  C      -0.825105      0.753973     -0.088771
  C      -1.073367     -0.617835      0.019086
  C       0.490690      1.291333     -0.202445
  C       1.116211     -1.118815     -0.077812
  C      -2.976449      0.351784      0.066040
  H      -2.242729      2.353217     -0.115097
  H       2.397640      0.514068     -0.248012
  H      -4.039991      0.544235      0.115765
  H       1.927823     -2.946587     -0.191600
  H       3.064965     -1.734504     -0.458861
24
Coordinates from ORCA-job thiourea_guanine_opt_freq E -1090.386784814146
  S       5.415324     -2.764818     -0.429607
  N       6.863397     -2.273293      1.746642
  N       4.653930     -2.750239      2.156253
  C       5.640911     -2.595119      1.240469
  H       7.071560     -2.286159      2.735093
  H       7.629756     -2.220970      1.093124
  H       3.718762     -2.919764      1.818649
  H       4.766350     -2.465791      3.118788
  O       0.945231      2.406304     -0.248207
  N      -2.016578      1.384198     -0.040440
  N       1.444996      0.152590     -0.176889
  N      -0.137029     -1.611181      0.007538
  N      -2.436063     -0.816910      0.098315
  N       2.137259     -2.080293     -0.017872
  C      -0.792798      0.744874     -0.077945
  C      -1.077784     -0.621203      0.009809
  C       0.536905      1.248423     -0.174790
  C       1.098213     -1.180066     -0.078195
  C      -2.955298      0.398240      0.059514
  H      -2.165972      2.381990     -0.087686
  H       2.420633      0.425428     -0.224426
  H      -4.014015      0.616394      0.105636
  H       1.839454     -3.032819     -0.182424
  H       3.039557     -1.869673     -0.441973
24
Coordinates from ORCA-job thiourea_guanine_opt_freq E -1090.387813122492
  S       5.371578     -2.513882     -0.474186
  N       6.791459     -2.093955      1.740744
  N       4.627430     -2.779821      2.103135
  C       5.596009     -2.464090      1.207442
  H       6.997546     -2.163613      2.727167
  H       7.548723     -1.924379      1.096565
  H       3.699487     -2.966741      1.746285
  H       4.720981     -2.553424      3.083368
  O       1.087004      2.305793     -0.188629
  N      -1.922717      1.417503     -0.027046
  N       1.481624      0.030666     -0.143101
  N      -0.181285     -1.661186     -0.000709
  N      -2.442016     -0.764163      0.076922
  N       2.067091     -2.232384     -0.007114
  C      -0.728187      0.723816     -0.060799
  C      -1.075161     -0.628984      0.005449
  C       0.623467      1.167977     -0.135804
  C       1.074756     -1.284479     -0.065829
  C      -2.905612      0.473765      0.050342
  H      -2.025105      2.421726     -0.060978
  H       2.467639      0.265929     -0.182205
  H      -3.954101      0.738005      0.088454
  H       1.712500     -3.171408     -0.163112
  H       2.993591     -2.072532     -0.406984
24
Coordinates from ORCA-job thiourea_guanine_opt_freq E -1090.388679783845
  S       5.330330     -2.301501     -0.506594
  N       6.721540     -1.908323      1.740819
  N       4.612060     -2.788751      2.029737
  C       5.563868     -2.331925      1.174675
  H       6.924026     -2.044552      2.721029
  H       7.470070     -1.634099      1.123155
  H       3.687942     -2.996132      1.657907
  H       4.686801     -2.615804      3.023474
  O       1.221275      2.192348     -0.117047
  N      -1.823239      1.449722     -0.012798
  N       1.512124     -0.099357     -0.096981
  N      -0.235070     -1.709977     -0.013074
  N      -2.452428     -0.705300      0.047837
  N       1.984134     -2.385178     -0.004929
  C      -0.664878      0.696732     -0.040242
  C      -1.079473     -0.637133     -0.000686
  C       0.708733      1.073616     -0.088162
  C       1.038996     -1.394690     -0.053653
  C      -2.852903      0.554806      0.038707
  H      -1.874941      2.458127     -0.032172
  H       2.508057      0.093251     -0.127699
  H      -3.886748      0.872662      0.067129
  H       1.593459     -3.311809     -0.148621
  H       2.932967     -2.256592     -0.372435
24
Coordinates from ORCA-job thiourea_guanine_opt_freq E -1090.389404836552
  S       5.178452     -1.913421     -0.486998
  N       6.600497     -1.735648      1.759139
  N       4.597732     -2.853501      1.965853
  C       5.466767     -2.182487      1.165493
  H       6.839464     -1.957288      2.715135
  H       7.292951     -1.291156      1.176392
  H       3.682990     -3.078164      1.576516
  H       4.674194     -2.807697      2.973085
  O       1.361621      2.082160     -0.153239
  N      -1.708509      1.471911     -0.001970
  N       1.554788     -0.219669     -0.110505
  N      -0.258947     -1.752923      0.017098
  N      -2.430497     -0.652553      0.088406
  N       1.931612     -2.522934      0.006968
  C      -0.584479      0.669463     -0.033392
  C      -1.056381     -0.644875      0.024225
  C       0.803743      0.985933     -0.103788
  C       1.025643     -1.493817     -0.043046
  C      -2.775779      0.623454      0.068312
  H      -1.717825      2.481294     -0.033581
  H       2.559140     -0.081617     -0.163339
  H      -3.794321      0.986751      0.104002
  H       1.497740     -3.435355     -0.147857
  H       2.886104     -2.407724     -0.353533
24
Coordinates from ORCA-job thiourea_guanine_opt_freq E -1090.389882759584
  S       5.027882     -1.701869     -0.453649
  N       6.459423     -1.565435      1.783370
  N       4.571065     -2.879844      1.904449
  C       5.367871     -2.069357      1.160829
  H       6.737903     -1.875233      2.704198
  H       7.111475     -1.014584      1.246995
  H       3.673705     -3.135220      1.516969
  H       4.652592     -2.924593      2.911567
  O       1.462438      1.991522     -0.194407
  N      -1.600550      1.482604      0.013817
  N       1.599425     -0.315186     -0.116142
  N      -0.265698     -1.786492      0.049746
  N      -2.403731     -0.611676      0.139853
  N       1.911657     -2.624596      0.000172
  C      -0.510823      0.638063     -0.021604
  C      -1.031624     -0.655444      0.058225
  C       0.890120      0.901376     -0.119329
  C       1.018164     -1.574410     -0.036912
  C      -2.699472      0.676008      0.111897
  H      -1.577455      2.491075     -0.034687
  H       2.611162     -0.242201     -0.188429
  H      -3.700210      1.084826      0.158212
  H       1.487446     -3.536504     -0.179552
  H       2.833936     -2.482693     -0.406213
24
Coordinates from ORCA-job thiourea_guanine_opt_freq E -1090.390154599654
  S       5.101445     -1.656855     -0.421526
  N       6.531295     -1.601293      1.818139
  N       4.618644     -2.879453      1.910803
  C       5.430192     -2.069207      1.183854
  H       6.799349     -1.923309      2.737466
  H       7.190417     -1.045571      1.295567
  H       3.715523     -3.120693      1.509300
  H       4.695705     -2.946185      2.916821
  O       1.438577      1.989949     -0.232404
  N      -1.626696      1.490354      0.008673
  N       1.567861     -0.317064     -0.146513
  N      -0.299728     -1.782481      0.049833
  N      -2.432807     -0.601241      0.151111
  N       1.870796     -2.626863     -0.018992
  C      -0.538588      0.643609     -0.032929
  C      -1.061409     -0.648571      0.057504
  C       0.861749      0.903596     -0.146240
  C       0.984463     -1.572777     -0.051457
  C      -2.726432      0.686882      0.118628
  H      -1.601340      2.498548     -0.044471
  H       2.580022     -0.249638     -0.234321
  H      -3.726371      1.096848      0.171314
  H       1.449925     -3.525790     -0.185454
  H       2.804107     -2.472658     -0.405331
24
Coordinates from ORCA-job thiourea_guanine_opt_freq E -1090.390408362352
  S       5.091394     -1.730072     -0.477223
  N       6.516436     -1.595022      1.768790
  N       4.589250     -2.846482      1.904699
  C       5.409667     -2.072035      1.148902
  H       6.786602     -1.905168      2.691375
  H       7.183456     -1.072912      1.221752
  H       3.682589     -3.093048      1.519152
  H       4.671990     -2.868501      2.912409
  O       1.453245      1.993789     -0.122489
  N      -1.621826      1.484121      0.006380
  N       1.582080     -0.314902     -0.079983
  N      -0.287063     -1.787362      0.024288
  N      -2.423819     -0.612074      0.085771
  N       1.883046     -2.628034      0.011569
  C      -0.529431      0.641160     -0.018338
  C      -1.050082     -0.653741      0.032349
  C       0.872557      0.907928     -0.079245
  C       1.001479     -1.570945     -0.030318
  C      -2.721364      0.675741      0.067905
  H      -1.595873      2.493304     -0.023351
  H       2.596451     -0.235240     -0.121027
  H      -3.724647      1.079740      0.097453
  H       1.444962     -3.521917     -0.147194
  H       2.815600     -2.498188     -0.384252
24
Coordinates from ORCA-job thiourea_guanine_opt_freq E -1090.390606008410
  S       5.031162     -1.634421     -0.449588
  N       6.493182     -1.561648      1.775902
  N       4.592871     -2.854950      1.897582
  C       5.382882     -2.033900      1.157729
  H       6.799807     -1.920919      2.669030
  H       7.139021     -1.006943      1.235193
  H       3.688747     -3.105800      1.513542
  H       4.694802     -2.913240      2.902033
  O       1.478136      1.973949     -0.130556
  N      -1.600436      1.487402      0.002292
  N       1.589766     -0.336037     -0.080564
  N      -0.290600     -1.794425      0.028804
  N      -2.418011     -0.602235      0.090779
  N       1.874112     -2.651681      0.021745
  C      -0.514445      0.636148     -0.020839
  C      -1.044784     -0.654379      0.035171
  C       0.889523      0.893014     -0.083500
  C       0.999764     -1.586324     -0.026558
  C      -2.705989      0.687797      0.069113
  H      -1.566150      2.496273     -0.030371
  H       2.605037     -0.266825     -0.119735
  H      -3.706361      1.098886      0.098835
  H       1.420863     -3.543822     -0.139810
  H       2.793800     -2.535780     -0.406852
24
Coordinates from ORCA-job thiourea_guanine_opt_freq E -1090.390819428165
  S       5.044026     -1.652910     -0.450740
  N       6.495662     -1.570700      1.777024
  N       4.579016     -2.835745      1.914071
  C       5.378559     -2.034749      1.163432
  H       6.815304     -1.938312      2.662259
  H       7.145171     -1.029952      1.226717
  H       3.680140     -3.092988      1.532634
  H       4.680409     -2.880648      2.919031
  O       1.472774      1.979180     -0.128646
  N      -1.603149      1.484029      0.006648
  N       1.590971     -0.331146     -0.083425
  N      -0.285830     -1.794790      0.022098
  N      -2.415888     -0.607490      0.091729
  N       1.880305     -2.649002      0.017626
  C      -0.515422      0.635398     -0.019953
  C      -1.042825     -0.656126      0.033564
  C       0.887921      0.896648     -0.083272
  C       1.003405     -1.581777     -0.032746
  C      -2.706914      0.681949      0.073171
  H      -1.570585      2.493095     -0.022399
  H       2.606780     -0.264912     -0.121791
  H      -3.708333      1.090218      0.105390
  H       1.431965     -3.539003     -0.152711
  H       2.783237     -2.530127     -0.440335
24
Coordinates from ORCA-job thiourea_guanine_opt_freq E -1090.390968237148
  S       4.976799     -1.530993     -0.457968
  N       6.413436     -1.478683      1.772672
  N       4.528715     -2.790864      1.874394
  C       5.304625     -1.948034      1.147538
  H       6.760809     -1.868102      2.637942
  H       7.040388     -0.899109      1.235844
  H       3.639132     -3.074574      1.492235
  H       4.630432     -2.849085      2.878540
  O       1.562753      1.903800     -0.079146
  N      -1.523455      1.484891      0.031654
  N       1.623183     -0.409993     -0.061650
  N      -0.291612     -1.826901      0.009168
  N      -2.390836     -0.585600      0.082217
  N       1.851718     -2.736513      0.016264
  C      -0.458156      0.608598      0.000251
  C      -1.019297     -0.668826      0.032123
  C       0.951793      0.835915     -0.050567
  C       1.002469     -1.643195     -0.032070
  C      -2.648272      0.711208      0.078279
  H      -1.463156      2.493043      0.019384
  H       2.641460     -0.376306     -0.099424
  H      -3.639283      1.144133      0.109313
  H       1.390068     -3.614087     -0.168266
  H       2.742988     -2.610581     -0.459351
24
Coordinates from ORCA-job thiourea_guanine_opt_freq E -1090.391223337768
  S       5.046675     -1.591595     -0.462573
  N       6.458014     -1.512358      1.782395
  N       4.538315     -2.772172      1.898661
  C       5.342461     -1.970436      1.156973
  H       6.792296     -1.904868      2.651796
  H       7.109109     -0.975895      1.229010
  H       3.645177     -3.051559      1.513624
  H       4.635456     -2.811299      2.904206
  O       1.531447      1.924848     -0.082909
  N      -1.553979      1.483233      0.030339
  N       1.607192     -0.388243     -0.067691
  N      -0.295965     -1.818977      0.002464
  N      -2.404615     -0.594344      0.078636
  N       1.854683     -2.714538      0.008878
  C      -0.481461      0.615323     -0.003577
  C      -1.032421     -0.666903      0.027616
  C       0.926053      0.853911     -0.055056
  C       0.997333     -1.625544     -0.038941
  C      -2.672208      0.700400      0.078150
  H      -1.501162      2.491825      0.020456
  H       2.625125     -0.343893     -0.108420
  H      -3.666967      1.124559      0.111255
  H       1.386442     -3.588089     -0.181257
  H       2.739700     -2.593246     -0.484658
24
Coordinates from ORCA-job thiourea_guanine_opt_freq E -1090.391419116896
  S       5.060183     -1.602514     -0.471937
  N       6.443631     -1.501840      1.789064
  N       4.518614     -2.754810      1.897456
  C       5.333851     -1.965228      1.156161
  H       6.764913     -1.886466      2.666759
  H       7.104700     -0.980943      1.232650
  H       3.626160     -3.039200      1.507574
  H       4.607347     -2.784491      2.904222
  O       1.541909      1.917050     -0.089547
  N      -1.544442      1.480449      0.040176
  N       1.613722     -0.395808     -0.074405
  N      -0.290604     -1.823076      0.006076
  N      -2.397757     -0.596096      0.091595
  N       1.860418     -2.722657     -0.000362
  C      -0.473206      0.611074      0.001217
  C      -1.025841     -0.670688      0.034306
  C       0.934218      0.847189     -0.058290
  C       1.002420     -1.632825     -0.042947
  C      -2.663396      0.698928      0.093233
  H      -1.490563      2.488985      0.029807
  H       2.631362     -0.349527     -0.127369
  H      -3.657360      1.124614      0.131229
  H       1.384416     -3.591537     -0.205569
  H       2.742006     -2.600445     -0.501725
24
Coordinates from ORCA-job thiourea_guanine_opt_freq E -1090.391738068185
  S       5.080461     -1.632480     -0.506947
  N       6.373009     -1.455842      1.802769
  N       4.439727     -2.699402      1.882425
  C       5.287326     -1.943445      1.145991
  H       6.653439     -1.803240      2.709401
  H       7.059739     -0.969712      1.246096
  H       3.554578     -3.003071      1.478727
  H       4.497122     -2.696001      2.892201
  O       1.588477      1.884549     -0.106565
  N      -1.498505      1.469929      0.076530
  N       1.644841     -0.427927     -0.093405
  N      -0.266595     -1.840411      0.020168
  N      -2.365617     -0.600911      0.136271
  N       1.880370     -2.757735     -0.030160
  C      -0.434098      0.593562      0.021185
  C      -0.995188     -0.684709      0.059697
  C       0.973970      0.818186     -0.064283
  C       1.024818     -1.662403     -0.054103
  C      -2.622039      0.695634      0.144045
  H      -1.439184      2.478154      0.064460
  H       2.660561     -0.381127     -0.180325
  H      -3.611911      1.129285      0.196795
  H       1.388961     -3.612330     -0.281856
  H       2.752438     -2.628413     -0.549740
24
Coordinates from ORCA-job thiourea_guanine_opt_freq E -1090.391852768997
  S       5.075867     -1.632498     -0.519429
  N       6.336964     -1.431802      1.806816
  N       4.405580     -2.679392      1.871955
  C       5.263138     -1.930914      1.140290
  H       6.599517     -1.759856      2.725880
  H       7.030171     -0.948255      1.256066
  H       3.525397     -2.990714      1.461344
  H       4.449138     -2.666263      2.882422
  O       1.613495      1.866578     -0.113901
  N      -1.473179      1.465887      0.092717
  N       1.660242     -0.446059     -0.103483
  N      -0.256678     -1.849554      0.025527
  N      -2.349528     -0.600900      0.156479
  N       1.885540     -2.777694     -0.044033
  C      -0.413367      0.584944      0.030011
  C      -0.980159     -0.690618      0.070556
  C       0.995474      0.802361     -0.067270
  C       1.034196     -1.677947     -0.060003
  C      -2.600025      0.696748      0.166992
  H      -1.410118      2.473889      0.079433
  H       2.675400     -0.403227     -0.200281
  H      -3.587201      1.135572      0.226694
  H       1.390093     -3.625715     -0.310681
  H       2.756742     -2.644430     -0.564725
24
Coordinates from ORCA-job thiourea_guanine_opt_freq E -1090.392011097519
  S       5.057179     -1.620374     -0.533730
  N       6.285091     -1.392895      1.811110
  N       4.356820     -2.646458      1.857811
  C       5.227271     -1.906747      1.132891
  H       6.526075     -1.697463      2.744014
  H       6.984124     -0.905062      1.271904
  H       3.486520     -2.968901      1.435454
  H       4.382366     -2.623115      2.868724
  O       1.654139      1.835830     -0.117485
  N      -1.431960      1.460399      0.117476
  N       1.682869     -0.477550     -0.117657
  N      -0.245182     -1.865011      0.028444
  N      -2.325932     -0.598681      0.180946
  N       1.886919     -2.812756     -0.066652
  C      -0.380761      0.570889      0.043122
  C      -0.958391     -0.699341      0.083629
  C       1.029802      0.775674     -0.068325
  C       1.045582     -1.703406     -0.070655
  C      -2.565335      0.701084      0.197804
  H      -1.361343      2.467931      0.105007
  H       2.698216     -0.445597     -0.220233
  H      -3.547672      1.149152      0.267025
  H       1.384459     -3.649567     -0.349942
  H       2.755845     -2.677897     -0.591305
24
Coordinates from ORCA-job thiourea_guanine_opt_freq E -1090.392147075159
  S       5.055957     -1.635134     -0.542139
  N       6.265581     -1.381661      1.812338
  N       4.324341     -2.615121      1.857274
  C       5.213889     -1.900103      1.130462
  H       6.484880     -1.658588      2.759058
  H       6.972626     -0.897750      1.280357
  H       3.462873     -2.943171      1.424482
  H       4.334684     -2.574824      2.867780
  O       1.673446      1.821313     -0.115746
  N      -1.411794      1.455756      0.135718
  N       1.693892     -0.492626     -0.131512
  N      -0.238740     -1.874024      0.023205
  N      -2.313048     -0.600148      0.194455
  N       1.886867     -2.830443     -0.089087
  C      -0.364500      0.562892      0.050798
  C      -0.946678     -0.705045      0.088081
  C       1.046452      0.763030     -0.068878
  C       1.052209     -1.715211     -0.083616
  C      -2.547782      0.700492      0.218749
  H      -1.338052      2.463121      0.126583
  H       2.709604     -0.467018     -0.234803
  H      -3.527855      1.152094      0.296098
  H       1.380752     -3.659898     -0.377744
  H       2.757096     -2.697795     -0.612537
24
Coordinates from ORCA-job thiourea_guanine_opt_freq E -1090.392283870103
  S       5.055622     -1.647400     -0.546162
  N       6.257484     -1.369232      1.811792
  N       4.296793     -2.571439      1.861606
  C       5.206216     -1.886654      1.129675
  H       6.460126     -1.627813      2.767432
  H       6.973738     -0.893730      1.284647
  H       3.445507     -2.906175      1.417354
  H       4.295913     -2.514402      2.871116
  O       1.694328      1.802689     -0.095077
  N      -1.392338      1.451747      0.154811
  N       1.701353     -0.511675     -0.138341
  N      -0.239317     -1.884139      0.006207
  N      -2.305294     -0.599420      0.193936
  N       1.878782     -2.852454     -0.113892
  C      -0.350357      0.553610      0.058323
  C      -0.939731     -0.711122      0.084268
  C       1.061448      0.747844     -0.059964
  C       1.053241     -1.729529     -0.099861
  C      -2.532532      0.702351      0.231956
  H      -1.312578      2.458681      0.156225
  H       2.718039     -0.495019     -0.237460
  H      -3.510022      1.158392      0.315659
  H       1.363274     -3.674751     -0.402982
  H       2.747004     -2.730223     -0.641893
24
Coordinates from ORCA-job thiourea_guanine_opt_freq E -1090.392362385119
  S       5.067866     -1.670321     -0.542326
  N       6.272375     -1.380126      1.812820
  N       4.289171     -2.544180      1.873560
  C       5.214573     -1.888580      1.134518
  H       6.462195     -1.618073      2.776296
  H       6.995561     -0.915146      1.285949
  H       3.444202     -2.880895      1.421426
  H       4.280912     -2.472317      2.881840
  O       1.695335      1.799077     -0.085229
  N      -1.392423      1.449993      0.164704
  N       1.698433     -0.514949     -0.146537
  N      -0.243658     -1.886536     -0.009670
  N      -2.307414     -0.600538      0.191334
  N       1.872280     -2.856072     -0.134409
  C      -0.351431      0.551107      0.058891
  C      -0.942082     -0.713391      0.077282
  C       1.059779      0.745598     -0.058194
  C       1.049850     -1.732253     -0.114736
  C      -2.532950      0.701189      0.239025
  H      -1.310881      2.456720      0.174109
  H       2.714822     -0.499252     -0.249777
  H      -3.510099      1.156973      0.328266
  H       1.355493     -3.679028     -0.414879
  H       2.744789     -2.738862     -0.654885
24
Coordinates from ORCA-job thiourea_guanine_opt_freq E -1090.392422607568
  S       5.069848     -1.677953     -0.543990
  N       6.269414     -1.369320      1.810830
  N       4.274229     -2.512465      1.877122
  C       5.208553     -1.874506      1.133797
  H       6.454296     -1.601748      2.776604
  H       6.998265     -0.915652      1.281806
  H       3.435575     -2.856147      1.419181
  H       4.261361     -2.431125      2.884460
  O       1.710412      1.784044     -0.060389
  N      -1.380426      1.448087      0.176147
  N       1.701915     -0.529223     -0.141151
  N      -0.247263     -1.892271     -0.025889
  N      -2.305498     -0.598208      0.182746
  N       1.865144     -2.870568     -0.149576
  C      -0.343509      0.544730      0.063737
  C      -0.940347     -0.717200      0.070209
  C       1.068441      0.734051     -0.045602
  C       1.047614     -1.743765     -0.124397
  C      -2.524428      0.704086      0.241763
  H      -1.292933      2.454142      0.196308
  H       2.718410     -0.516833     -0.245490
  H      -3.499872      1.163179      0.333104
  H       1.342856     -3.693981     -0.427017
  H       2.734640     -2.761211     -0.674938
24
Coordinates from ORCA-job thiourea_guanine_opt_freq E -1090.392459729978
  S       5.074370     -1.686178     -0.541008
  N       6.274540     -1.372099      1.812094
  N       4.274745     -2.506951      1.883019
  C       5.210620     -1.874277      1.137114
  H       6.456452     -1.596367      2.780225
  H       7.004199     -0.923177      1.280193
  H       3.438165     -2.851840      1.422029
  H       4.259553     -2.424651      2.890150
  O       1.710346      1.782338     -0.059608
  N      -1.381300      1.448328      0.178818
  N       1.699906     -0.530260     -0.142661
  N      -0.249916     -1.891930     -0.031100
  N      -2.307557     -0.597511      0.182625
  N       1.862863     -2.869830     -0.159587
  C      -0.344966      0.544467      0.063053
  C      -0.942492     -0.717383      0.068163
  C       1.066751      0.732992     -0.046241
  C       1.044777     -1.745568     -0.130318
  C      -2.525456      0.704716      0.244347
  H      -1.292621      2.454218      0.201338
  H       2.715502     -0.515367     -0.253399
  H      -3.500697      1.163930      0.337509
  H       1.343557     -3.698142     -0.428373
  H       2.735362     -2.759319     -0.679006
24
Coordinates from ORCA-job thiourea_guanine_opt_freq E -1090.392507282309
  S       5.078239     -1.699568     -0.543533
  N       6.263363     -1.364957      1.813981
  N       4.262278     -2.497974      1.884249
  C       5.201333     -1.870560      1.138182
  H       6.438642     -1.576371      2.786091
  H       6.995337     -0.923480      1.279053
  H       3.429081     -2.846580      1.419102
  H       4.240815     -2.413106      2.890993
  O       1.717893      1.777031     -0.062373
  N      -1.373994      1.447015      0.185508
  N       1.704348     -0.534936     -0.145495
  N      -0.246726     -1.893754     -0.032691
  N      -2.302497     -0.597792      0.190281
  N       1.865388     -2.873162     -0.171840
  C      -0.339040      0.542199      0.065602
  C      -0.937984     -0.719046      0.070890
  C       1.072694      0.728447     -0.047750
  C       1.047327     -1.750506     -0.135820
  C      -2.518738      0.704562      0.254026
  H      -1.283734      2.452754      0.208787
  H       2.719012     -0.517588     -0.263061
  H      -3.493193      1.164714      0.350715
  H       1.348354     -3.705340     -0.435477
  H       2.738506     -2.761861     -0.690045
24
Coordinates from ORCA-job thiourea_guanine_opt_freq E -1090.392555603903
  S       5.077152     -1.705878     -0.546012
  N       6.239939     -1.347759      1.819169
  N       4.245024     -2.493340      1.881955
  C       5.184768     -1.862818      1.139875
  H       6.405995     -1.545078      2.795791
  H       6.972614     -0.907930      1.283809
  H       3.415956     -2.845490      1.410611
  H       4.215719     -2.412676      2.888823
  O       1.731074      1.768502     -0.075502
  N      -1.359568      1.445506      0.194983
  N       1.712595     -0.543179     -0.155523
  N      -0.240710     -1.897269     -0.030445
  N      -2.292300     -0.597272      0.206480
  N       1.868511     -2.880739     -0.187241
  C      -0.327427      0.538725      0.068895
  C      -0.928967     -0.721130      0.078384
  C       1.084404      0.720794     -0.055029
  C       1.052325     -1.757993     -0.143179
  C      -2.505584      0.705571      0.271147
  H      -1.267137      2.451103      0.216569
  H       2.726427     -0.525850     -0.279602
  H      -3.478271      1.168078      0.373953
  H       1.352031     -3.715119     -0.444389
  H       2.742128     -2.768619     -0.704145
24
Coordinates from ORCA-job thiourea_guanine_opt_freq E -1090.392603726709
  S       5.080085     -1.719012     -0.548004
  N       6.209427     -1.329298      1.828162
  N       4.219831     -2.486769      1.878714
  C       5.164300     -1.856295      1.143321
  H       6.361749     -1.507224      2.810679
  H       6.944418     -0.891293      1.294545
  H       3.396230     -2.842109      1.399662
  H       4.180126     -2.408995      2.885460
  O       1.745042      1.761439     -0.099484
  N      -1.342228      1.442675      0.207634
  N       1.723484     -0.550379     -0.175607
  N      -0.230131     -1.901732     -0.025466
  N      -2.277106     -0.598903      0.232384
  N       1.875045     -2.888388     -0.206216
  C      -0.312667      0.534758      0.072163
  C      -0.915567     -0.724122      0.089588
  C       1.098399      0.714018     -0.069407
  C       1.061555     -1.764250     -0.153434
  C      -2.488468      0.704365      0.297319
  H      -1.248825      2.448269      0.225681
  H       2.736511     -0.534083     -0.307043
  H      -3.459207      1.168528      0.410232
  H       1.356648     -3.722737     -0.456820
  H       2.748049     -2.778324     -0.724686
24
Coordinates from ORCA-job thiourea_guanine_opt_freq E -1090.392650620076
  S       5.081445     -1.721872     -0.546197
  N       6.180063     -1.309727      1.840160
  N       4.199139     -2.485112      1.874238
  C       5.146168     -1.848228      1.148461
  H       6.320232     -1.474334      2.826850
  H       6.915528     -0.866433      1.311603
  H       3.380227     -2.841480      1.387645
  H       4.152444     -2.416367      2.881393
  O       1.757565      1.755078     -0.128518
  N      -1.325010      1.440545      0.218904
  N       1.732863     -0.557288     -0.201116
  N      -0.220506     -1.906173     -0.019224
  N      -2.262079     -0.599720      0.259997
  N       1.879061     -2.896746     -0.224042
  C      -0.298394      0.531102      0.073278
  C      -0.902612     -0.726729      0.101104
  C       1.111226      0.708001     -0.087853
  C       1.069908     -1.769433     -0.164571
  C      -2.471201      0.704066      0.324350
  H      -1.230813      2.446137      0.232548
  H       2.745503     -0.544847     -0.337380
  H      -3.439655      1.170130      0.448314
  H       1.354863     -3.729059     -0.465538
  H       2.750734     -2.791370     -0.745032
24
Coordinates from ORCA-job thiourea_guanine_opt_freq E -1090.392685565275
  S       5.087068     -1.723912     -0.541699
  N       6.161920     -1.300675      1.852642
  N       4.184937     -2.484584      1.871360
  C       5.136045     -1.844562      1.154331
  H       6.292887     -1.456683      2.842034
  H       6.898439     -0.851944      1.330251
  H       3.369086     -2.840222      1.379758
  H       4.135416     -2.422557      2.878863
  O       1.762430      1.754048     -0.157419
  N      -1.315251      1.438880      0.225898
  N       1.737918     -0.559026     -0.226328
  N      -0.212472     -1.908700     -0.012518
  N      -2.250954     -0.601611      0.284822
  N       1.882913     -2.900152     -0.237021
  C      -0.289973      0.529225      0.071450
  C      -0.893302     -0.728678      0.110676
  C       1.117348      0.706824     -0.107035
  C       1.076709     -1.770211     -0.173833
  C      -2.459833      0.702348      0.347096
  H      -1.221845      2.444586      0.234898
  H       2.750333     -0.549896     -0.366425
  H      -3.426894      1.168600      0.480882
  H       1.351886     -3.729928     -0.470087
  H       2.751888     -2.801030     -0.763217
24
Coordinates from ORCA-job thiourea_guanine_opt_freq E -1090.392711573032
  S       5.088961     -1.714101     -0.536869
  N       6.155424     -1.297403      1.861714
  N       4.182065     -2.487579      1.868368
  C       5.133503     -1.841055      1.157824
  H       6.283282     -1.454630      2.851374
  H       6.891499     -0.840681      1.345679
  H       3.366689     -2.841658      1.375161
  H       4.135880     -2.433811      2.876535
  O       1.763355      1.754045     -0.175403
  N      -1.311579      1.438782      0.226803
  N       1.738771     -0.559535     -0.241341
  N      -0.209634     -1.909540     -0.007802
  N      -2.246464     -0.601757      0.298818
  N       1.883177     -2.901805     -0.242302
  C      -0.287132      0.528593      0.067800
  C      -0.889886     -0.729405      0.115544
  C       1.118509      0.707050     -0.119590
  C       1.078862     -1.770027     -0.178439
  C      -2.454937      0.702317      0.358485
  H      -1.218507      2.444523      0.232500
  H       2.751346     -0.553474     -0.381853
  H      -3.421204      1.168733      0.497561
  H       1.345964     -3.729929     -0.467227
  H       2.748755     -2.807514     -0.773964
24
Coordinates from ORCA-job thiourea_guanine_opt_freq E -1090.392735080927
  S       5.092730     -1.706567     -0.533467
  N       6.153097     -1.300076      1.869015
  N       4.178878     -2.487552      1.865649
  C       5.132798     -1.839699      1.159578
  H       6.277226     -1.456987      2.859183
  H       6.890617     -0.839151      1.358866
  H       3.363483     -2.841069      1.372256
  H       4.136765     -2.437788      2.874183
  O       1.762182      1.755435     -0.190181
  N      -1.310835      1.438402      0.226220
  N       1.738922     -0.558409     -0.251613
  N      -0.206802     -1.909625     -0.003126
  N      -2.243471     -0.602787      0.310520
  N       1.885152     -2.901200     -0.245443
  C      -0.286423      0.528362      0.063833
  C      -0.887703     -0.730196      0.119776
  C       1.117692      0.708522     -0.129629
  C       1.080843     -1.769108     -0.180982
  C      -2.452496      0.701219      0.367054
  H      -1.218487      2.444204      0.228899
  H       2.751466     -0.553277     -0.393499
  H      -3.418555      1.166992      0.509917
  H       1.343442     -3.728853     -0.462909
  H       2.746180     -2.810653     -0.784725
24
Coordinates from ORCA-job thiourea_guanine_opt_freq E -1090.392758920978
  S       5.092586     -1.692520     -0.531871
  N       6.151896     -1.303059      1.873867
  N       4.177457     -2.487882      1.861640
  C       5.132047     -1.836956      1.158928
  H       6.272394     -1.461088      2.864280
  H       6.890422     -0.837357      1.369546
  H       3.361276     -2.841728      1.369151
  H       4.140972     -2.443567      2.870612
  O       1.762082      1.755344     -0.199557
  N      -1.310215      1.438340      0.223909
  N       1.739261     -0.558500     -0.255618
  N      -0.205230     -1.909552      0.000356
  N      -2.241716     -0.602974      0.318410
  N       1.886577     -2.901187     -0.246335
  C      -0.286050      0.528050      0.059985
  C      -0.886618     -0.730685      0.122420
  C       1.117369      0.708726     -0.135931
  C       1.081667     -1.769487     -0.181431
  C      -2.450803      0.701051      0.371853
  H      -1.217868      2.444143      0.223979
  H       2.751848     -0.553445     -0.397645
  H      -3.416667      1.166622      0.516847
  H       1.341678     -3.729655     -0.454365
  H       2.742334     -2.812493     -0.793653
24
Coordinates from ORCA-job thiourea_guanine_opt_freq E -1090.392782474318
  S       5.093017     -1.683560     -0.532783
  N       6.149134     -1.307181      1.876646
  N       4.171004     -2.483328      1.858021
  C       5.128941     -1.834988      1.157116
  H       6.262992     -1.461266      2.868391
  H       6.889987     -0.840766      1.376453
  H       3.354831     -2.839277      1.366136
  H       4.137103     -2.440770      2.867100
  O       1.763201      1.754626     -0.206848
  N      -1.308413      1.437335      0.223666
  N       1.741299     -0.559060     -0.257164
  N      -0.202083     -1.910009      0.003137
  N      -2.238545     -0.604221      0.325552
  N       1.890128     -2.901298     -0.248040
  C      -0.284374      0.527273      0.058071
  C      -0.884062     -0.731625      0.125569
  C       1.118816      0.707982     -0.140061
  C       1.083917     -1.770557     -0.181655
  C      -2.448129      0.699802      0.376917
  H      -1.216120      2.443150      0.221711
  H       2.753709     -0.552413     -0.400747
  H      -3.413905      1.164990      0.523676
  H       1.343904     -3.731269     -0.447356
  H       2.740349     -2.813431     -0.804132
24
Coordinates from ORCA-job thiourea_guanine_opt_freq E -1090.392791925870
  S       5.090196     -1.673706     -0.534139
  N       6.147263     -1.308852      1.877056
  N       4.166754     -2.479711      1.855606
  C       5.126060     -1.832394      1.155520
  H       6.256312     -1.461102      2.869586
  H       6.888465     -0.840968      1.378781
  H       3.350728     -2.837650      1.363999
  H       4.133757     -2.440291      2.864816
  O       1.765194      1.752862     -0.209129
  N      -1.306154      1.436662      0.223677
  N       1.743268     -0.560714     -0.256036
  N      -0.200552     -1.910733      0.003504
  N      -2.236387     -0.604642      0.328291
  N       1.891834     -2.902539     -0.248853
  C      -0.282503      0.526528      0.057804
  C      -0.882328     -0.732083      0.126672
  C       1.121153      0.706061     -0.141062
  C       1.085061     -1.772154     -0.181633
  C      -2.445918      0.699501      0.379014
  H      -1.213504      2.442467      0.220597
  H       2.755703     -0.552982     -0.399738
  H      -3.411421      1.164947      0.526574
  H       1.345411     -3.733924     -0.441205
  H       2.738307     -2.814445     -0.810324
24
Coordinates from ORCA-job thiourea_guanine_opt_freq E -1090.392788520936
  S       5.089724     -1.670688     -0.535400
  N       6.147876     -1.311360      1.876277
  N       4.162990     -2.474735      1.855078
  C       5.124854     -1.831587      1.154916
  H       6.253624     -1.461805      2.869411
  H       6.889178     -0.843890      1.377831
  H       3.347483     -2.834211      1.363455
  H       4.128791     -2.435910      2.864267
  O       1.765838      1.752288     -0.208820
  N      -1.305174      1.435876      0.224762
  N       1.744492     -0.561317     -0.254944
  N      -0.199499     -1.911405      0.003123
  N      -2.235279     -0.605493      0.327995
  N       1.893070     -2.903050     -0.249276
  C      -0.281492      0.526074      0.058898
  C      -0.881208     -0.732460      0.127109
  C       1.122552      0.705065     -0.140329
  C       1.086086     -1.772597     -0.181589
  C      -2.445137      0.698680      0.379192
  H      -1.212572      2.441693      0.221648
  H       2.757021     -0.552741     -0.398605
  H      -3.410639      1.164112      0.526658
  H       1.346707     -3.735077     -0.438223
  H       2.737414     -2.815326     -0.814057
24
Coordinates from ORCA-job thiourea_guanine_opt_freq E -1090.392803153153
  S       5.088719     -1.666022     -0.534799
  N       6.150433     -1.313350      1.876242
  N       4.162805     -2.472622      1.855425
  C       5.125516     -1.830743      1.155691
  H       6.255806     -1.465673      2.869131
  H       6.890458     -0.844240      1.377494
  H       3.347564     -2.832465      1.363656
  H       4.128152     -2.436373      2.864720
  O       1.765270      1.752352     -0.209045
  N      -1.305369      1.435707      0.224725
  N       1.744346     -0.561397     -0.255244
  N      -0.199803     -1.911687      0.002536
  N      -2.235465     -0.605681      0.327260
  N       1.892739     -2.903187     -0.249078
  C      -0.281618      0.526033      0.059357
  C      -0.881355     -0.732440      0.126773
  C       1.122536      0.704800     -0.140472
  C       1.085934     -1.772389     -0.181904
  C      -2.445465      0.698506      0.378621
  H      -1.212923      2.441543      0.221324
  H       2.757059     -0.553014     -0.398286
  H      -3.410905      1.164048      0.526032
  H       1.346091     -3.735491     -0.435741
  H       2.736178     -2.816077     -0.815041
24
Coordinates from ORCA-job thiourea_guanine_opt_freq E -1090.392803078800
  S       5.089184     -1.662967     -0.533770
  N       6.153006     -1.315773      1.876944
  N       4.162256     -2.470226      1.855669
  C       5.126428     -1.830164      1.156757
  H       6.258579     -1.470249      2.869478
  H       6.892234     -0.845504      1.378153
  H       3.347374     -2.830254      1.363630
  H       4.127223     -2.435969      2.865040
  O       1.764163      1.752948     -0.210690
  N      -1.305933      1.435485      0.224800
  N       1.743950     -0.560958     -0.256642
  N      -0.199806     -1.911851      0.002852
  N      -2.235644     -0.606088      0.327386
  N       1.892709     -2.902870     -0.248955
  C      -0.281996      0.525993      0.059534
  C      -0.881447     -0.732593      0.127083
  C       1.121917      0.705154     -0.141438
  C       1.085981     -1.771821     -0.182189
  C      -2.445908      0.698052      0.378592
  H      -1.213829      2.441351      0.221071
  H       2.756796     -0.553008     -0.399449
  H      -3.411385      1.163522      0.526022
  H       1.345462     -3.735168     -0.434319
  H       2.735384     -2.816903     -0.816184
24
Coordinates from ORCA-job thiourea_guanine_opt_freq E -1090.392806584930
  S       5.089384     -1.658960     -0.532393
  N       6.156332     -1.318570      1.877784
  N       4.163333     -2.469475      1.855763
  C       5.128104     -1.829768      1.157713
  H       6.263324     -1.476668      2.869600
  H       6.894740     -0.846853      1.379153
  H       3.348460     -2.829266      1.363679
  H       4.128844     -2.438121      2.865261
  O       1.762264      1.754102     -0.212658
  N      -1.307475      1.435562      0.223662
  N       1.742983     -0.559934     -0.257608
  N      -0.200194     -1.911575      0.003575
  N      -2.236506     -0.606283      0.327482
  N       1.892548     -2.901878     -0.247913
  C      -0.283190      0.526262      0.059014
  C      -0.882214     -0.732520      0.127152
  C       1.120409      0.706128     -0.142670
  C       1.085602     -1.770890     -0.181889
  C      -2.447150      0.697783      0.377911
  H      -1.215823      2.441458      0.219295
  H       2.755965     -0.552437     -0.399836
  H      -3.412748      1.163071      0.525184
  H       1.344939     -3.734317     -0.432108
  H       2.734768     -2.816713     -0.815777
24
Coordinates from ORCA-job thiourea_guanine_opt_freq E -1090.392808631013
  S       5.089765     -1.654196     -0.530998
  N       6.159210     -1.321611      1.879124
  N       4.163374     -2.467683      1.855352
  C       5.129321     -1.828786      1.158541
  H       6.267738     -1.483732      2.870116
  H       6.897409     -0.849084      1.380950
  H       3.348768     -2.827558      1.362909
  H       4.129448     -2.439830      2.864976
  O       1.760457      1.755147     -0.215728
  N      -1.308847      1.435507      0.222554
  N       1.742160     -0.558979     -0.258895
  N      -0.200231     -1.911351      0.004920
  N      -2.237079     -0.606622      0.328464
  N       1.892766     -2.900895     -0.246844
  C      -0.284234      0.526376      0.058309
  C      -0.882741     -0.732625      0.127760
  C       1.118944      0.707076     -0.144439
  C       1.085430     -1.770136     -0.181472
  C      -2.448119      0.697364      0.377815
  H      -1.217644      2.441433      0.217412
  H       2.755218     -0.551903     -0.400915
  H      -3.413845      1.162428      0.525059
  H       1.344963     -3.733574     -0.429997
  H       2.734469     -2.816625     -0.815598
24
Coordinates from ORCA-job thiourea_guanine_opt_freq E -1090.392813045841
  S       5.090209     -1.648383     -0.529411
  N       6.163407     -1.326280      1.880604
  N       4.164524     -2.466866      1.854859
  C       5.131426     -1.828341      1.159251
  H       6.274247     -1.493917      2.870412
  H       6.901977     -0.853781      1.382914
  H       3.349950     -2.826518      1.362130
  H       4.132075     -2.444337      2.864660
  O       1.757023      1.757424     -0.220261
  N      -1.311830      1.435600      0.219926
  N       1.740783     -0.556776     -0.259648
  N      -0.200186     -1.910518      0.007313
  N      -2.238211     -0.607177      0.329806
  N       1.893571     -2.898498     -0.244450
  C      -0.286452      0.527021      0.056795
  C      -0.883822     -0.732424      0.128626
  C       1.116303      0.709043     -0.146918
  C       1.085176     -1.768487     -0.180017
  C      -2.450307      0.696672      0.377024
  H      -1.221525      2.441596      0.213292
  H       2.753904     -0.549555     -0.401239
  H      -3.416397      1.161107      0.523933
  H       1.346145     -3.731798     -0.426144
  H       2.734711     -2.814665     -0.814081
24
Coordinates from ORCA-job thiourea_guanine_opt_freq E -1090.392816258546
  S       5.090587     -1.642486     -0.528311
  N       6.166098     -1.330127      1.882254
  N       4.164131     -2.464853      1.853794
  C       5.132495     -1.827210      1.159545
  H       6.278779     -1.502972      2.870940
  H       6.906252     -0.859381      1.385214
  H       3.350037     -2.824758      1.360198
  H       4.133227     -2.448519      2.863734
  O       1.754209      1.759235     -0.225177
  N      -1.314169      1.435503      0.217552
  N       1.739897     -0.554996     -0.260335
  N      -0.199685     -1.909878      0.010001
  N      -2.238714     -0.607852      0.331933
  N       1.894775     -2.896493     -0.242099
  C      -0.288139      0.527481      0.055228
  C      -0.884403     -0.732338      0.129847
  C       1.114314      0.710561     -0.149560
  C       1.085276     -1.767238     -0.178478
  C      -2.451857      0.695895      0.376969
  H      -1.224641      2.441557      0.209444
  H       2.753014     -0.547279     -0.401839
  H      -3.418264      1.159691      0.523804
  H       1.348119     -3.730550     -0.422585
  H       2.735361     -2.812853     -0.812696
24
Coordinates from ORCA-job thiourea_guanine_opt_freq E -1090.392816742347
  S       5.091302     -1.636782     -0.527255
  N       6.168560     -1.334235      1.884181
  N       4.163466     -2.462872      1.852766
  C       5.133549     -1.826414      1.159845
  H       6.282736     -1.512393      2.871742
  H       6.911608     -0.867279      1.387821
  H       3.350122     -2.822962      1.357770
  H       4.135019     -2.454794      2.862829
  O       1.750557      1.761698     -0.231605
  N      -1.317133      1.435365      0.214612
  N       1.738942     -0.552557     -0.261304
  N      -0.198778     -1.908989      0.013350
  N      -2.239034     -0.608808      0.334943
  N       1.896623     -2.893738     -0.239235
  C      -0.290231      0.528260      0.053075
  C      -0.884913     -0.732053      0.131421
  C       1.112005      0.712474     -0.153095
  C       1.085632     -1.765457     -0.176624
  C      -2.453742      0.694819      0.377280
  H      -1.228672      2.441503      0.204567
  H       2.752020     -0.543617     -0.402816
  H      -3.420586      1.157659      0.524207
  H       1.351202     -3.728836     -0.418067
  H       2.736448     -2.809854     -0.811031
24
Coordinates from ORCA-job thiourea_guanine_opt_freq E -1090.392822185762
  S       5.092273     -1.632489     -0.526570
  N       6.170039     -1.337109      1.885804
  N       4.162105     -2.460387      1.851973
  C       5.134144     -1.825732      1.160138
  H       6.284805     -1.519280      2.872572
  H       6.916580     -0.875098      1.390026
  H       3.349872     -2.820756      1.355118
  H       4.136677     -2.460740      2.862088
  O       1.747512      1.763692     -0.236999
  N      -1.319495      1.435154      0.212206
  N       1.738314     -0.550593     -0.262177
  N      -0.197851     -1.908354      0.016188
  N      -2.239021     -0.609732      0.337753
  N       1.898309     -2.891547     -0.236813
  C      -0.291861      0.528942      0.051175
  C      -0.885128     -0.731776      0.132826
  C       1.110325      0.713855     -0.156116
  C       1.086119     -1.763922     -0.175074
  C      -2.455172      0.693807      0.377838
  H      -1.231944      2.441369      0.200449
  H       2.751350     -0.540186     -0.403709
  H      -3.422380      1.155781      0.524972
  H       1.354017     -3.727560     -0.414157
  H       2.737110     -2.807197     -0.810134
