24
Coordinates from ORCA-job thiourea_guanine_opt_freq E -1090.392822185762
  S           5.09227292054510     -1.63248919698924     -0.52656952876746
  N           6.17003929296894     -1.33710923431303      1.88580372330826
  N           4.16210541363068     -2.46038693301932      1.85197254992080
  C           5.13414445634693     -1.82573196172886      1.16013756826094
  H           6.28480536430282     -1.51928022641318      2.87257222084784
  H           6.91657978075984     -0.87509792299908      1.39002579396404
  H           3.34987153461079     -2.82075587708436      1.35511803114674
  H           4.13667699382278     -2.46073967871828      2.86208828537491
  O           1.74751228113859      1.76369182176879     -0.23699939146583
  N          -1.31949549316765      1.43515387165916      0.21220633610195
  N           1.73831411596155     -0.55059342284817     -0.26217663073699
  N          -0.19785095688205     -1.90835369493669      0.01618829366363
  N          -2.23902055683631     -0.60973218541981      0.33775290745467
  N           1.89830925238800     -2.89154700264957     -0.23681278142159
  C          -0.29186139908900      0.52894180816928      0.05117484250351
  C          -0.88512804371123     -0.73177648163907      0.13282611835439
  C           1.11032493851424      0.71385504697499     -0.15611587234019
  C           1.08611905755580     -1.76392236669517     -0.17507445367511
  C          -2.45517202997831      0.69380672225954      0.37783834663661
  H          -1.23194410677689      2.44136888630785      0.20044871720407
  H           2.75135024775620     -0.54018550581556     -0.40370948032217
  H          -3.42237997083934      1.15578084692113      0.52497183604535
  H           1.35401679951296     -3.72755991926814     -0.41415712967415
  H           2.73711010746542     -2.80719739352314     -0.81013430238424
