24
Coordinates from ORCA-job urea_guanine_opt_freq E -767.479073447734
  O           4.53684676139359     -1.56531743798230     -0.02241289399978
  N           6.14212223268673     -1.14808365560099      1.54213980820837
  N           4.31876879648652     -2.50619503573317      2.05141998447139
  C           4.97300944766098     -1.73399473463789      1.12768481817557
  H           6.65076014288255     -1.50020820741583      2.33920156970343
  H           6.67906806123705     -0.69292402843630      0.81879836221733
  H           3.39425446202263     -2.83074578198903      1.78620688404252
  H           4.51468017035405     -2.41287512816870      3.03673843127417
  O           1.78117100744481      1.70839993654799     -0.16718127117143
  N          -1.31620616484083      1.41938836338126      0.03274533277691
  N           1.74871900067267     -0.60450092875024     -0.11438022154945
  N          -0.21914073528559     -1.93852493069049      0.04774118137010
  N          -2.26513512728206     -0.61260353661977      0.14784698287708
  N           1.88332575255578     -2.93963261831573      0.00461372797071
  C          -0.28808286501458      0.50007749680230     -0.00855821458939
  C          -0.89955312182222     -0.75291698959649      0.06424575000981
  C           1.12863519483283      0.66516018454893     -0.10378181522068
  C           1.07934857648212     -1.80897448608394     -0.03744419360983
  C          -2.46976634667792      0.69321985489119      0.12553917432060
  H          -1.21661610191845      2.42380989346497     -0.00283680003543
  H           2.77003649736373     -0.61862943372740     -0.16961872981916
  H          -3.44100141762065      1.16749183789409      0.17407014144053
  H           1.35917968379496     -3.78097109364351     -0.20050531335627
  H           2.78227609259114     -2.86030954013886     -0.46289669550714
