24
Coordinates from ORCA-job urea_guanine_opt_freq E -767.380775489703
  O       3.755083     -3.941792      1.500797
  N       5.987497     -3.384841      1.500797
  N       4.393436     -1.731280      1.500797
  C       4.640178     -3.088689      1.500397
  H       6.692309     -2.655194      1.500497
  H       6.315258     -4.344977      1.500797
  H       3.446046     -1.368669      1.500897
  H       5.148393     -1.053718      1.500697
  O       0.192100      2.665900     -0.000400
  N      -2.071500      0.658800      0.000600
  N       1.574000      0.803100      0.000100
  N       0.756600     -1.453600     -0.000300
  N      -1.719400     -1.543200     -0.000600
  N       3.054900     -1.010000      0.000500
  C      -0.718000      0.488500     -0.000100
  C      -0.524500     -0.873100     -0.000400
  C       0.338300      1.448600     -0.000100
  C       1.748300     -0.592400      0.000000
  C      -2.630800     -0.592600      0.000500
  H      -2.570600      1.538600      0.001200
  H       2.407800      1.383500      0.000300
  H      -3.701500     -0.739200      0.001000
  H       3.290500     -1.996500      0.000600
  H       3.822300     -0.347100      0.000800
24
Coordinates from ORCA-job urea_guanine_opt_freq E -767.404959633815
  O       3.778727     -3.931834      1.496282
  N       6.023671     -3.452445      1.542808
  N       4.454983     -1.747378      1.521737
  C       4.687165     -3.106616      1.521355
  H       6.756421     -2.759024      1.562827
  H       6.302168     -4.422361      1.538832
  H       3.480545     -1.368606      1.502851
  H       5.217507     -1.084338      1.545062
  O       0.163252      2.704345     -0.003540
  N      -2.107506      0.656364      0.011896
  N       1.544165      0.839649     -0.026886
  N       0.750163     -1.421130     -0.029307
  N      -1.705324     -1.547474     -0.003522
  N       3.033808     -0.967420     -0.043893
  C      -0.744264      0.506357     -0.003986
  C      -0.520898     -0.860337     -0.012837
  C       0.300753      1.481449     -0.010603
  C       1.725017     -0.552674     -0.036291
  C      -2.634776     -0.607913      0.011576
  H      -2.621062      1.526897      0.021870
  H       2.367059      1.431747     -0.032825
  H      -3.702461     -0.777815      0.022574
  H       3.280911     -1.958841     -0.043079
  H       3.796676     -0.310462     -0.043525
24
Coordinates from ORCA-job urea_guanine_opt_freq E -767.421113644677
  O       3.797123     -3.921281      1.480743
  N       6.047833     -3.509726      1.584203
  N       4.512046     -1.759237      1.538698
  C       4.725952     -3.120103      1.536407
  H       6.809018     -2.851375      1.630465
  H       6.273757     -4.491176      1.574958
  H       3.538226     -1.377025      1.501680
  H       5.282768     -1.108133      1.587814
  O       0.145870      2.734711     -0.006943
  N      -2.140926      0.650644      0.023837
  N       1.518070      0.868161     -0.051663
  N       0.741554     -1.390834     -0.054741
  N      -1.695407     -1.550735     -0.005159
  N       3.017199     -0.928712     -0.085424
  C      -0.769759      0.522502     -0.006333
  C      -0.519127     -0.847749     -0.023302
  C       0.265157      1.507954     -0.019665
  C       1.705555     -0.517036     -0.068501
  C      -2.639208     -0.623266      0.023101
  H      -2.666452      1.513107      0.042470
  H       2.328404      1.475988     -0.064582
  H      -3.703353     -0.815741      0.043804
  H       3.271695     -1.914624     -0.084963
  H       3.780705     -0.276174     -0.087525
24
Coordinates from ORCA-job urea_guanine_opt_freq E -767.436650206277
  O       3.835059     -3.921456      1.450649
  N       6.085273     -3.575219      1.642965
  N       4.595452     -1.779580      1.561051
  C       4.782083     -3.143818      1.553100
  H       6.874411     -2.955330      1.732846
  H       6.252101     -4.568637      1.625234
  H       3.638358     -1.401735      1.504191
  H       5.373405     -1.141497      1.645601
  O       0.120912      2.762926     -0.009708
  N      -2.183833      0.647944      0.038726
  N       1.482135      0.898028     -0.082122
  N       0.723085     -1.357173     -0.088269
  N      -1.703733     -1.546617     -0.010402
  N       2.995636     -0.881986     -0.141259
  C      -0.807653      0.543185     -0.008982
  C      -0.533266     -0.828394     -0.038118
  C       0.217223      1.534814     -0.029719
  C       1.682311     -0.476362     -0.108670
  C      -2.658198     -0.632614      0.035325
  H      -2.718614      1.504092      0.069111
  H       2.274843      1.528501     -0.104525
  H      -3.718357     -0.846419      0.067375
  H       3.255648     -1.860986     -0.145233
  H       3.762418     -0.231527     -0.149791
24
Coordinates from ORCA-job urea_guanine_opt_freq E -767.447082293601
  O       3.896191     -3.935372      1.402532
  N       6.137805     -3.641820      1.709695
  N       4.694971     -1.809936      1.581893
  C       4.852931     -3.178448      1.562183
  H       6.942264     -3.054646      1.860786
  H       6.257381     -4.642325      1.684286
  H       3.757503     -1.440154      1.511024
  H       5.475237     -1.182395      1.703223
  O       0.082772      2.789393     -0.016593
  N      -2.227889      0.652674      0.050266
  N       1.439448      0.928676     -0.110829
  N       0.697665     -1.325744     -0.118651
  N      -1.725617     -1.534888     -0.015902
  N       2.965645     -0.835944     -0.196640
  C      -0.850406      0.565756     -0.012834
  C      -0.560120     -0.804709     -0.052457
  C       0.165224      1.561554     -0.041479
  C       1.654330     -0.436844     -0.143988
  C      -2.687228     -0.632145      0.044999
  H      -2.768401      1.504854      0.090621
  H       2.214343      1.580930     -0.144221
  H      -3.743982     -0.861276      0.087262
  H       3.223714     -1.811176     -0.208780
  H       3.732919     -0.185874     -0.217019
24
Coordinates from ORCA-job urea_guanine_opt_freq E -767.452480282497
  O       3.972165     -3.957804      1.344520
  N       6.198825     -3.700862      1.767584
  N       4.790238     -1.845926      1.601027
  C       4.928515     -3.217427      1.566036
  H       7.002131     -3.134062      1.986626
  H       6.294984     -4.703979      1.731745
  H       3.857360     -1.480158      1.519290
  H       5.567887     -1.223613      1.755198
  O       0.037952      2.813774     -0.030854
  N      -2.266700      0.664682      0.053885
  N       1.398087      0.957177     -0.134357
  N       0.668150     -1.299862     -0.137134
  N      -1.752678     -1.519014     -0.017045
  N       2.931435     -0.799890     -0.237167
  C      -0.889544      0.586529     -0.018567
  C      -0.591378     -0.781961     -0.061284
  C       0.119793      1.586266     -0.055282
  C       1.622584     -0.404850     -0.169232
  C      -2.719053     -0.622684      0.050796
  H      -2.810195      1.514811      0.098176
  H       2.161877      1.622366     -0.177269
  H      -3.773833     -0.859308      0.100168
  H       3.181155     -1.776261     -0.256180
  H       3.696941     -0.147806     -0.271302
24
Coordinates from ORCA-job urea_guanine_opt_freq E -767.455844740860
  O       4.067756     -3.988407      1.271169
  N       6.269633     -3.755309      1.823670
  N       4.882159     -1.888261      1.619272
  C       5.013779     -3.260429      1.561148
  H       7.052783     -3.200542      2.128438
  H       6.361854     -4.758227      1.777804
  H       3.945920     -1.527301      1.525695
  H       5.650700     -1.266063      1.811397
  O      -0.010633      2.837705     -0.047805
  N      -2.304164      0.683245      0.055790
  N       1.356815      0.985039     -0.158430
  N       0.633490     -1.275666     -0.154224
  N      -1.785338     -1.499436     -0.016520
  N       2.893278     -0.770098     -0.272673
  C      -0.927781      0.607238     -0.025958
  C      -0.627083     -0.759436     -0.069597
  C       0.078405      1.610452     -0.071925
  C       1.585350     -0.377106     -0.194577
  C      -2.754335     -0.605507      0.057255
  H      -2.848941      1.532416      0.102799
  H       2.116559      1.654526     -0.208354
  H      -3.808229     -0.843987      0.114315
  H       3.129789     -1.750144     -0.299349
  H       3.654935     -0.114563     -0.319963
24
Coordinates from ORCA-job urea_guanine_opt_freq E -767.457926191119
  O       4.180626     -4.024052      1.191282
  N       6.351176     -3.799837      1.864841
  N       4.965754     -1.933885      1.644568
  C       5.105406     -3.303843      1.556638
  H       7.095318     -3.252944      2.266170
  H       6.456549     -4.800382      1.804113
  H       4.025676     -1.581857      1.539019
  H       5.718876     -1.307661      1.878929
  O      -0.055932      2.859357     -0.072533
  N      -2.340659      0.708776      0.051829
  N       1.317368      1.008447     -0.181045
  N       0.593172     -1.254386     -0.164101
  N      -1.825776     -1.475749     -0.012936
  N       2.851665     -0.750390     -0.297401
  C      -0.965184      0.628422     -0.035572
  C      -0.667816     -0.737619     -0.075056
  C       0.042160      1.632273     -0.090874
  C       1.543746     -0.356279     -0.213672
  C      -2.793804     -0.579548      0.061155
  H      -2.884431      1.558633      0.097684
  H       2.080334      1.673589     -0.237730
  H      -3.848122     -0.814163      0.124352
  H       3.070975     -1.734817     -0.331410
  H       3.609623     -0.091944     -0.358875
24
Coordinates from ORCA-job urea_guanine_opt_freq E -767.459144462391
  O       4.306891     -4.061825      1.108522
  N       6.440062     -3.835427      1.897185
  N       5.043085     -1.980256      1.666725
  C       5.205583     -3.344338      1.538719
  H       7.122399     -3.300265      2.409366
  H       6.559156     -4.834231      1.836428
  H       4.098725     -1.641737      1.549821
  H       5.774501     -1.348574      1.949638
  O      -0.096204      2.879720     -0.095564
  N      -2.376367      0.737253      0.048015
  N       1.279610      1.028768     -0.203085
  N       0.550293     -1.234358     -0.173852
  N      -1.869774     -1.450138     -0.010022
  N       2.808825     -0.736347     -0.317641
  C      -1.001933      0.650280     -0.046412
  C      -0.710380     -0.716180     -0.080973
  C       0.008549      1.652694     -0.111769
  C       1.500806     -0.339179     -0.231252
  C      -2.834469     -0.549605      0.065466
  H      -2.918005      1.588484      0.093085
  H       2.049596      1.685018     -0.264164
  H      -3.889660     -0.778254      0.135127
  H       3.010986     -1.724403     -0.361287
  H       3.564423     -0.076958     -0.392700
24
Coordinates from ORCA-job urea_guanine_opt_freq E -767.459896643923
  O       4.442232     -4.095774      1.031112
  N       6.543809     -3.855013      1.901664
  N       5.109101     -2.026372      1.705731
  C       5.304097     -3.381208      1.535868
  H       7.151940     -3.345144      2.522689
  H       6.678459     -4.851333      1.829814
  H       4.161193     -1.704091      1.576335
  H       5.814963     -1.389708      2.038255
  O      -0.126561      2.897996     -0.131115
  N      -2.411900      0.771459      0.033451
  N       1.244462      1.041462     -0.222710
  N       0.502486     -1.218547     -0.170428
  N      -1.920163     -1.420159     -0.002225
  N       2.763241     -0.735122     -0.321673
  C      -1.038250      0.673850     -0.059472
  C      -0.756457     -0.694435     -0.081582
  C      -0.021223      1.670594     -0.133150
  C       1.456594     -0.329950     -0.238188
  C      -2.878748     -0.512111      0.063956
  H      -2.948997      1.625946      0.070420
  H       2.023727      1.685682     -0.290395
  H      -3.935691     -0.731710      0.136216
  H       2.947951     -1.726640     -0.371152
  H       3.520434     -0.079531     -0.414045
24
Coordinates from ORCA-job urea_guanine_opt_freq E -767.460460821176
  O       4.588280     -4.126536      0.954185
  N       6.654881     -3.867108      1.907872
  N       5.176003     -2.070880      1.735115
  C       5.415895     -3.410016      1.511387
  H       7.158886     -3.399787      2.646271
  H       6.781757     -4.865995      1.848548
  H       4.223092     -1.768908      1.593642
  H       5.850322     -1.432397      2.124860
  O      -0.153215      2.916650     -0.158818
  N      -2.447353      0.804867      0.024531
  N       1.209525      1.053072     -0.243257
  N       0.454546     -1.202779     -0.172757
  N      -1.969424     -1.390284      0.002543
  N       2.717482     -0.734749     -0.327595
  C      -1.074680      0.697946     -0.073298
  C      -0.801536     -0.672400     -0.085102
  C      -0.051914      1.688665     -0.157636
  C       1.412971     -0.320744     -0.248279
  C      -2.921891     -0.475468      0.065487
  H      -2.979833      1.662399      0.057273
  H       1.997006      1.686619     -0.313582
  H      -3.980086     -0.687520      0.142329
  H       2.887845     -1.728579     -0.386702
  H       3.478141     -0.085928     -0.437639
24
Coordinates from ORCA-job urea_guanine_opt_freq E -767.460761856248
  O       4.707496     -4.147516      0.901938
  N       6.756194     -3.856467      1.894668
  N       5.214142     -2.107846      1.775165
  C       5.499113     -3.428704      1.506077
  H       7.179490     -3.438584      2.711599
  H       6.883163     -4.856170      1.823300
  H       4.257750     -1.825044      1.623220
  H       5.859196     -1.469264      2.211798
  O      -0.161282      2.928965     -0.188603
  N      -2.474403      0.837668      0.008204
  N       1.185109      1.053021     -0.256153
  N       0.411062     -1.195445     -0.165783
  N      -2.014594     -1.361268      0.007737
  N       2.677889     -0.748725     -0.319287
  C      -1.102379      0.718996     -0.085778
  C      -0.840493     -0.653979     -0.085052
  C      -0.071446      1.700276     -0.175335
  C       1.377335     -0.322081     -0.248184
  C      -2.959390     -0.438089      0.060726
  H      -2.999951      1.699780      0.032022
  H       1.979368      1.677699     -0.329365
  H      -4.019337     -0.641199      0.137799
  H       2.836812     -1.744755     -0.383876
  H       3.445857     -0.111129     -0.447462
24
Coordinates from ORCA-job urea_guanine_opt_freq E -767.461004261289
  O       4.771025     -4.162629      0.880918
  N       6.813920     -3.832195      1.882355
  N       5.214918     -2.130094      1.804228
  C       5.538033     -3.434109      1.503671
  H       7.207770     -3.437041      2.726811
  H       6.958887     -4.828997      1.786788
  H       4.255789     -1.862980      1.647120
  H       5.837946     -1.490078      2.270014
  O      -0.149284      2.932755     -0.199965
  N      -2.485491      0.861244     -0.001672
  N       1.176988      1.043073     -0.259463
  N       0.383185     -1.197283     -0.162836
  N      -2.043315     -1.340897      0.006285
  N       2.654191     -0.771276     -0.308892
  C      -1.114158      0.731825     -0.093338
  C      -0.862985     -0.643626     -0.086912
  C      -0.075283      1.703397     -0.183517
  C       1.358221     -0.332035     -0.245671
  C      -2.980712     -0.410188      0.053996
  H      -3.003514      1.728021      0.018125
  H       1.975034      1.663314     -0.330698
  H      -4.042204     -0.605639      0.129665
  H       2.807081     -1.768670     -0.378538
  H       3.430660     -0.145750     -0.449098
24
Coordinates from ORCA-job urea_guanine_opt_freq E -767.461360754614
  O       4.856171     -4.181566      0.850446
  N       6.884149     -3.773375      1.860545
  N       5.189886     -2.162421      1.849603
  C       5.579908     -3.432723      1.497892
  H       7.260069     -3.396227      2.721762
  H       7.079235     -4.755906      1.713675
  H       4.225051     -1.924121      1.687513
  H       5.775927     -1.519390      2.357501
  O      -0.109651      2.931226     -0.206828
  N      -2.492536      0.900067     -0.017333
  N       1.175315      1.014519     -0.255660
  N       0.341419     -1.209276     -0.157874
  N      -2.086121     -1.308295     -0.000892
  N       2.620275     -0.824370     -0.287293
  C      -1.122628      0.748940     -0.101274
  C      -0.893406     -0.631071     -0.089977
  C      -0.067415      1.701077     -0.186091
  C       1.333813     -0.360356     -0.237173
  C      -3.008456     -0.362675      0.039830
  H      -2.995023      1.776079     -0.003310
  H       1.979560      1.627770     -0.320708
  H      -4.073018     -0.542626      0.110606
  H       2.762606     -1.822841     -0.367240
  H       3.411569     -0.222301     -0.448342
24
Coordinates from ORCA-job urea_guanine_opt_freq E -767.461697696094
  O       4.950494     -4.182678      0.798471
  N       6.944740     -3.703384      1.842467
  N       5.160165     -2.195775      1.895320
  C       5.622469     -3.422236      1.485662
  H       7.299389     -3.345835      2.720129
  H       7.194517     -4.663935      1.644776
  H       4.188504     -1.991640      1.728396
  H       5.704726     -1.553451      2.448369
  O      -0.063123      2.924219     -0.208451
  N      -2.493574      0.940878     -0.028487
  N       1.177851      0.979555     -0.250862
  N       0.298623     -1.225638     -0.155542
  N      -2.129768     -1.274509     -0.008355
  N       2.585643     -0.887055     -0.265747
  C      -1.126362      0.763619     -0.108917
  C      -0.923473     -0.620801     -0.093733
  C      -0.052493      1.693787     -0.190425
  C       1.309511     -0.396023     -0.229627
  C      -3.033980     -0.311473      0.026995
  H      -2.978018      1.827051     -0.017668
  H       1.990805      1.582450     -0.306691
  H      -4.101903     -0.471982      0.093650
  H       2.712397     -1.886293     -0.358959
  H       3.389561     -0.308715     -0.451396
24
Coordinates from ORCA-job urea_guanine_opt_freq E -767.462368234202
  O       5.081319     -4.146730      0.701232
  N       7.008819     -3.573075      1.811628
  N       5.096115     -2.243703      1.960456
  C       5.671451     -3.383272      1.456807
  H       7.344773     -3.232978      2.701993
  H       7.353410     -4.482136      1.534028
  H       4.113786     -2.101192      1.791645
  H       5.575341     -1.607825      2.577767
  O       0.028730      2.899424     -0.198855
  N      -2.478971      1.004610     -0.046729
  N       1.194567      0.909330     -0.231337
  N       0.235188     -1.261653     -0.147576
  N      -2.193548     -1.221935     -0.022665
  N       2.534662     -1.005563     -0.226870
  C      -1.117839      0.779342     -0.112544
  C      -0.963909     -0.611340     -0.096105
  C      -0.010539      1.669997     -0.179614
  C       1.277028     -0.468077     -0.210826
  C      -3.063723     -0.227803      0.004262
  H      -2.930774      1.907915     -0.042300
  H       2.024649      1.490087     -0.271821
  H      -4.137138     -0.351340      0.060377
  H       2.629190     -2.005995     -0.345360
  H       3.354114     -0.465946     -0.458217
24
Coordinates from ORCA-job urea_guanine_opt_freq E -767.463136498444
  O       5.126827     -4.084334      0.630302
  N       7.012200     -3.485605      1.785582
  N       5.041635     -2.258136      1.997045
  C       5.676566     -3.337357      1.433416
  H       7.351700     -3.143447      2.671944
  H       7.414145     -4.352592      1.460201
  H       4.052594     -2.158799      1.833288
  H       5.486162     -1.626566      2.643895
  O       0.097801      2.871722     -0.181526
  N      -2.453134      1.037779     -0.052890
  N       1.218188      0.855067     -0.211934
  N       0.206183     -1.292860     -0.142829
  N      -2.222253     -1.195473     -0.033702
  N       2.513095     -1.091187     -0.195897
  C      -1.097743      0.778926     -0.112622
  C      -0.977962     -0.614533     -0.097315
  C       0.031829      1.643125     -0.171447
  C       1.266589     -0.524604     -0.194713
  C      -3.068263     -0.180365     -0.010399
  H      -2.882911      1.951746     -0.049281
  H       2.062004      1.416578     -0.237646
  H      -4.144803     -0.276841      0.038215
  H       2.580505     -2.090083     -0.332810
  H       3.335744     -0.572024     -0.459500
24
Coordinates from ORCA-job urea_guanine_opt_freq E -767.464068019636
  O       5.120605     -3.985021      0.561493
  N       6.992642     -3.417799      1.742219
  N       4.999021     -2.247748      2.032727
  C       5.664183     -3.275098      1.405739
  H       7.345923     -3.083216      2.625153
  H       7.427814     -4.250363      1.375727
  H       4.003279     -2.189122      1.883609
  H       5.426296     -1.620495      2.695072
  O       0.155788      2.839472     -0.171034
  N      -2.421241      1.058404     -0.070732
  N       1.245948      0.804342     -0.183201
  N       0.190337     -1.324564     -0.123301
  N      -2.239447     -1.180166     -0.041867
  N       2.503820     -1.168047     -0.149195
  C      -1.071699      0.768991     -0.109481
  C      -0.983028     -0.625646     -0.091397
  C       0.077830      1.610833     -0.153643
  C       1.263907     -0.579427     -0.165387
  C      -3.063358     -0.146419     -0.031122
  H      -2.832832      1.980685     -0.075992
  H       2.106256      1.340273     -0.197181
  H      -4.142450     -0.216485      0.004514
  H       2.536953     -2.164716     -0.303374
  H       3.320153     -0.658527     -0.449970
24
Coordinates from ORCA-job urea_guanine_opt_freq E -767.464700620598
  O       5.116251     -3.892451      0.504533
  N       6.984170     -3.326052      1.693246
  N       4.949624     -2.252924      2.075443
  C       5.648740     -3.214929      1.384185
  H       7.345386     -3.010371      2.580503
  H       7.454911     -4.114315      1.275491
  H       3.950876     -2.236668      1.936817
  H       5.356030     -1.635890      2.760131
  O       0.223403      2.806171     -0.157807
  N      -2.387509      1.083723     -0.083009
  N       1.273005      0.748993     -0.159526
  N       0.169669     -1.356480     -0.111455
  N      -2.258587     -1.158767     -0.053226
  N       2.488389     -1.251182     -0.103139
  C      -1.045273      0.762646     -0.111887
  C      -0.989528     -0.633238     -0.090746
  C       0.124159      1.578577     -0.147638
  C       1.258940     -0.636618     -0.140970
  C      -3.058086     -0.105944     -0.050524
  H      -2.778434      2.014925     -0.091748
  H       2.148838      1.259069     -0.155999
  H      -4.138869     -0.149456     -0.024908
  H       2.487489     -2.247868     -0.277156
  H       3.303107     -0.760812     -0.441235
24
Coordinates from ORCA-job urea_guanine_opt_freq E -767.465448567832
  O       5.100157     -3.758629      0.431739
  N       6.969126     -3.170314      1.613021
  N       4.879695     -2.268679      2.135076
  C       5.619321     -3.120951      1.349862
  H       7.340284     -2.891750      2.508846
  H       7.480171     -3.887214      1.120551
  H       3.879506     -2.314432      2.013063
  H       5.260698     -1.673199      2.852476
  O       0.332737      2.753362     -0.137333
  N      -2.333571      1.121771     -0.108077
  N       1.313211      0.661830     -0.117961
  N       0.137684     -1.404400     -0.087702
  N      -2.283868     -1.123914     -0.070522
  N       2.461183     -1.379184     -0.030616
  C      -1.003328      0.754115     -0.110918
  C      -0.996861     -0.642913     -0.086973
  C       0.194571      1.529246     -0.124414
  C       1.250953     -0.723481     -0.099079
  C      -3.045830     -0.043730     -0.084485
  H      -2.692216      2.065766     -0.125908
  H       2.209217      1.134589     -0.090364
  H      -4.127773     -0.048864     -0.077799
  H       2.408887     -2.371343     -0.234756
  H       3.272745     -0.927542     -0.428352
24
Coordinates from ORCA-job urea_guanine_opt_freq E -767.466009138878
  O       5.073320     -3.583731      0.347346
  N       6.937336     -2.942995      1.514214
  N       4.799226     -2.304536      2.206246
  C       5.573713     -2.997349      1.309186
  H       7.318581     -2.734779      2.425203
  H       7.483910     -3.558344      0.930340
  H       3.802545     -2.426164      2.102827
  H       5.156241     -1.747684      2.965561
  O       0.480369      2.679681     -0.107971
  N      -2.257461      1.169596     -0.134741
  N       1.363476      0.545192     -0.069155
  N       0.096338     -1.465210     -0.063011
  N      -2.310018     -1.075761     -0.093996
  N       2.421076     -1.544942      0.057236
  C      -0.945409      0.742853     -0.112487
  C      -1.002405     -0.653384     -0.085049
  C       0.286164      1.463215     -0.102415
  C       1.239436     -0.835405     -0.050303
  C      -3.021985      0.037557     -0.123071
  H      -2.572839      2.128801     -0.160347
  H       2.280753      0.971851     -0.007438
  H      -4.103014      0.080604     -0.137210
  H       2.301800     -2.525834     -0.184117
  H       3.225547     -1.153092     -0.417472
24
Coordinates from ORCA-job urea_guanine_opt_freq E -767.466200958208
  O       5.087485     -3.516100      0.313941
  N       6.941227     -2.855408      1.487884
  N       4.791131     -2.327387      2.231407
  C       5.574691     -2.953323      1.295595
  H       7.317424     -2.708269      2.413146
  H       7.492040     -3.437628      0.874149
  H       3.796232     -2.471759      2.133117
  H       5.144813     -1.793103      3.008170
  O       0.527905      2.654909     -0.103949
  N      -2.237360      1.190680     -0.147725
  N       1.371727      0.504855     -0.055312
  N       0.071537     -1.483353     -0.052179
  N      -2.327119     -1.053083     -0.100098
  N       2.396678     -1.601722      0.084248
  C      -0.932587      0.742806     -0.114567
  C      -1.012668     -0.652421     -0.084094
  C       0.310307      1.442754     -0.095451
  C       1.225319     -0.872115     -0.033985
  C      -3.020527      0.071498     -0.139029
  H      -2.536221      2.155050     -0.177588
  H       2.295546      0.916070      0.015021
  H      -4.100622      0.131287     -0.161179
  H       2.252195     -2.577465     -0.161891
  H       3.197548     -1.236634     -0.420259
24
Coordinates from ORCA-job urea_guanine_opt_freq E -767.466433320821
  O       5.098638     -3.443926      0.280849
  N       6.944859     -2.767356      1.461616
  N       4.789486     -2.342367      2.251918
  C       5.574768     -2.906792      1.280783
  H       7.314258     -2.709682      2.400437
  H       7.489222     -3.325730      0.819072
  H       3.795686     -2.501516      2.164633
  H       5.149528     -1.826530      3.038014
  O       0.573000      2.629629     -0.092967
  N      -2.218197      1.209839     -0.163503
  N       1.377545      0.464809     -0.036799
  N       0.046484     -1.501532     -0.043625
  N      -2.343756     -1.031741     -0.113754
  N       2.372604     -1.656454      0.111967
  C      -0.920935      0.741898     -0.117664
  C      -1.023263     -0.651956     -0.086000
  C       0.332269      1.422400     -0.086689
  C       1.209718     -0.907696     -0.016094
  C      -3.019197      0.103363     -0.158362
  H      -2.500767      2.179025     -0.196596
  H       2.307378      0.860507      0.044926
  H      -4.098056      0.178807     -0.189925
  H       2.203892     -2.626994     -0.125168
  H       3.171535     -1.319864     -0.417692
24
Coordinates from ORCA-job urea_guanine_opt_freq E -767.466670131406
  O       5.089967     -3.365309      0.244596
  N       6.925155     -2.669801      1.433298
  N       4.768326     -2.349733      2.263398
  C       5.555329     -2.850747      1.260536
  H       7.296619     -2.679955      2.373756
  H       7.468431     -3.192937      0.759772
  H       3.776735     -2.526422      2.193093
  H       5.133368     -1.841617      3.052279
  O       0.633383      2.594798     -0.070169
  N      -2.185346      1.227537     -0.173588
  N       1.393789      0.414153     -0.011727
  N       0.027062     -1.526691     -0.038241
  N      -2.352812     -1.011034     -0.127970
  N       2.350988     -1.723799      0.138878
  C      -0.897464      0.735785     -0.115701
  C      -1.025834     -0.655804     -0.088074
  C       0.367552      1.393382     -0.068720
  C       1.200486     -0.953423      0.001811
  C      -3.006843      0.136146     -0.179908
  H      -2.448749      2.202146     -0.206155
  H       2.329479      0.793168      0.083097
  H      -4.083793      0.230636     -0.222542
  H       2.159604     -2.692472     -0.084024
  H       3.151269     -1.417863     -0.408318
24
Coordinates from ORCA-job urea_guanine_opt_freq E -767.467172322073
  O       5.054749     -3.217669      0.181670
  N       6.877415     -2.521113      1.391352
  N       4.728629     -2.356721      2.276173
  C       5.510599     -2.753227      1.225239
  H       7.263021     -2.634398      2.320221
  H       7.418678     -2.968384      0.662494
  H       3.740380     -2.557663      2.236191
  H       5.104090     -1.853946      3.063903
  O       0.733984      2.532443     -0.028414
  N      -2.124585      1.252516     -0.189444
  N       1.424128      0.328442      0.032500
  N       0.000146     -1.569890     -0.033351
  N      -2.360826     -0.979771     -0.157079
  N       2.316263     -1.834707      0.181250
  C      -0.853453      0.721299     -0.112374
  C      -1.024629     -0.665280     -0.093329
  C       0.430094      1.340750     -0.039006
  C       1.188924     -1.031004      0.030899
  C      -2.979186      0.186931     -0.212128
  H      -2.356217      2.235222     -0.220289
  H       2.368015      0.680509      0.148915
  H      -4.051977      0.313712     -0.271677
  H       2.092987     -2.802782     -0.007017
  H       3.125473     -1.575129     -0.377326
24
Coordinates from ORCA-job urea_guanine_opt_freq E -767.467953902268
  O       5.028158     -3.000147      0.103919
  N       6.832665     -2.364309      1.372329
  N       4.698611     -2.386053      2.290286
  C       5.473523     -2.632671      1.190244
  H       7.238041     -2.606217      2.267899
  H       7.375007     -2.685590      0.580200
  H       3.714574     -2.611808      2.274677
  H       5.081172     -1.900487      3.086008
  O       0.844425      2.456894     -0.004774
  N      -2.057612      1.284421     -0.203298
  N       1.451494      0.228658      0.065769
  N      -0.041196     -1.616385     -0.029176
  N      -2.377130     -0.937524     -0.174380
  N       2.260097     -1.961050      0.213550
  C      -0.808069      0.705472     -0.112718
  C      -1.030941     -0.672976     -0.096911
  C       0.496971      1.277505     -0.020983
  C       1.165702     -1.120545      0.053144
  C      -2.951055      0.251448     -0.239069
  H      -2.250557      2.275438     -0.233548
  H       2.404215      0.551152      0.195434
  H      -4.017519      0.418249     -0.311665
  H       2.006426     -2.931914      0.078214
  H       3.089696     -1.751419     -0.335778
24
Coordinates from ORCA-job urea_guanine_opt_freq E -767.469003329074
  O       5.040406     -2.785674      0.050380
  N       6.826757     -2.282817      1.398097
  N       4.698090     -2.439462      2.299221
  C       5.475672     -2.541327      1.176631
  H       7.240501     -2.622247      2.256952
  H       7.385101     -2.461239      0.573274
  H       3.714749     -2.671725      2.281101
  H       5.076201     -1.982996      3.114760
  O       0.909681      2.403311     -0.031925
  N      -2.021025      1.312225     -0.208433
  N       1.459093      0.160568      0.057346
  N      -0.086851     -1.643555     -0.027560
  N      -2.404191     -0.899921     -0.164776
  N       2.200290     -2.045948      0.206807
  C      -0.788240      0.697009     -0.120765
  C      -1.050521     -0.673690     -0.094332
  C       0.533633      1.231906     -0.038852
  C       1.134679     -1.182419      0.050117
  C      -2.943994      0.305183     -0.231202
  H      -2.184985      2.308217     -0.243818
  H       2.419940      0.461746      0.176454
  H      -4.005301      0.503933     -0.299004
  H       1.934328     -3.020273      0.127373
  H       3.062687     -1.860665     -0.298467
24
Coordinates from ORCA-job urea_guanine_opt_freq E -767.470116661099
  O       4.937593     -2.533338      0.038265
  N       6.766440     -2.179287      1.374897
  N       4.679778     -2.506700      2.323950
  C       5.419100     -2.431997      1.170887
  H       7.222741     -2.584621      2.180923
  H       7.316202     -2.196331      0.526842
  H       3.699391     -2.753292      2.297212
  H       5.055125     -2.096887      3.165370
  O       0.990596      2.343098     -0.060480
  N      -1.958312      1.329584     -0.217906
  N       1.489759      0.089159      0.056536
  N      -0.106310     -1.674379     -0.012852
  N      -2.405291     -0.871044     -0.153386
  N       2.165842     -2.135773      0.222864
  C      -0.743845      0.679375     -0.127189
  C      -1.045278     -0.682970     -0.086829
  C       0.593469      1.176743     -0.054335
  C       1.127927     -1.250165      0.061631
  C      -2.909528      0.348987     -0.229548
  H      -2.095734      2.329160     -0.262493
  H       2.461060      0.356380      0.168739
  H      -3.964262      0.580602     -0.296877
  H       1.873250     -3.102797      0.158187
  H       3.056988     -1.963366     -0.235033
24
Coordinates from ORCA-job urea_guanine_opt_freq E -767.471403916991
  O       5.031780     -2.473096      0.056967
  N       6.821776     -2.208976      1.453885
  N       4.715040     -2.600768      2.331293
  C       5.491244     -2.443248      1.205440
  H       7.255993     -2.582468      2.284459
  H       7.416798     -2.159914      0.640845
  H       3.731299     -2.821841      2.240197
  H       5.044958     -2.245180      3.215383
  O       0.954163      2.355718     -0.200456
  N      -1.990050      1.342401     -0.200871
  N       1.467313      0.107582     -0.044363
  N      -0.132786     -1.654977      0.004583
  N      -2.437281     -0.855785     -0.063281
  N       2.138987     -2.117992      0.151604
  C      -0.773576      0.691784     -0.145297
  C      -1.074528     -0.669642     -0.058330
  C       0.565742      1.185177     -0.145085
  C       1.106258     -1.237248      0.016432
  C      -2.941300      0.363513     -0.150116
  H      -2.131410      2.340139     -0.266919
  H       2.445488      0.367123      0.007760
  H      -3.997099      0.598839     -0.179031
  H       1.855552     -3.086522      0.085526
  H       3.062340     -1.924482     -0.231245
24
Coordinates from ORCA-job urea_guanine_opt_freq E -767.472674649504
  O       4.982169     -2.161007      0.091509
  N       6.762081     -1.995867      1.504658
  N       4.728814     -2.744616      2.308564
  C       5.455252     -2.301517      1.226010
  H       7.244211     -2.439417      2.271435
  H       7.332950     -1.745183      0.711904
  H       3.753134     -2.996335      2.192309
  H       5.040735     -2.506325      3.237667
  O       1.081881      2.259095     -0.288067
  N      -1.911217      1.387467     -0.194368
  N       1.488017     -0.007375     -0.100586
  N      -0.190821     -1.689365      0.032934
  N      -2.454777     -0.784304     -0.001426
  N       2.057971     -2.257599      0.126162
  C      -0.724092      0.683183     -0.153518
  C      -1.084293     -0.661820     -0.030980
  C       0.635160      1.111664     -0.196324
  C       1.069099     -1.331099      0.002983
  C      -2.904308      0.455265     -0.095947
  H      -2.008059      2.388869     -0.280884
  H       2.478154      0.210086     -0.090209
  H      -3.948896      0.737643     -0.103218
  H       1.736800     -3.222102      0.068222
  H       3.006731     -2.119205     -0.229458
24
Coordinates from ORCA-job urea_guanine_opt_freq E -767.474041195374
  O       4.901888     -2.111883      0.094469
  N       6.658058     -1.838742      1.517240
  N       4.705964     -2.839749      2.270563
  C       5.382648     -2.258159      1.223300
  H       7.160061     -2.194873      2.318101
  H       7.208521     -1.516767      0.733802
  H       3.736803     -3.087838      2.127159
  H       4.982786     -2.657794      3.222983
  O       1.175325      2.202933     -0.340060
  N      -1.844514      1.404368     -0.172277
  N       1.519760     -0.071901     -0.143960
  N      -0.191493     -1.708339      0.071192
  N      -2.431738     -0.751668      0.053031
  N       2.048560     -2.335320      0.104168
  C      -0.671555      0.677180     -0.141909
  C      -1.058648     -0.660325     -0.000096
  C       0.694344      1.072930     -0.217760
  C       1.076253     -1.378466      0.000287
  C      -2.855869      0.495518     -0.047431
  H      -1.922274      2.406287     -0.270923
  H       2.517539      0.108566     -0.183773
  H      -3.894992      0.797325     -0.040520
  H       1.709621     -3.281831      0.015225
  H       3.019650     -2.201313     -0.183436
24
Coordinates from ORCA-job urea_guanine_opt_freq E -767.474718415610
  O       4.823935     -1.943196      0.139996
  N       6.590744     -1.699219      1.556217
  N       4.727239     -2.912170      2.226436
  C       5.338611     -2.173700      1.240410
  H       7.131593     -2.107323      2.304156
  H       7.101420     -1.270554      0.798430
  H       3.757287     -3.157439      2.074561
  H       5.006621     -2.797622      3.189516
  O       1.256649      2.134856     -0.379286
  N      -1.782043      1.424957     -0.159137
  N       1.537252     -0.148709     -0.175975
  N      -0.217693     -1.734409      0.083446
  N      -2.428458     -0.711254      0.090187
  N       2.001559     -2.418968      0.084728
  C      -0.630532      0.663554     -0.142533
  C      -1.054509     -0.660944      0.013290
  C       0.745420      1.020143     -0.246257
  C       1.056496     -1.437979     -0.011132
  C      -2.818214      0.546280     -0.021942
  H      -1.831912      2.428249     -0.262297
  H       2.539242     -0.005220     -0.244990
  H      -3.848227      0.877424     -0.005059
  H       1.635883     -3.352198      0.012993
  H       2.988338     -2.294416     -0.156385
24
Coordinates from ORCA-job urea_guanine_opt_freq E -767.475402657081
  O       4.728342     -1.852468      0.143119
  N       6.475111     -1.531038      1.569048
  N       4.728649     -2.946834      2.166776
  C       5.267144     -2.097805      1.229096
  H       7.056694     -1.946060      2.280314
  H       6.941487     -1.039745      0.821936
  H       3.760797     -3.203888      2.022302
  H       5.015983     -2.868996      3.132309
  O       1.365995      2.054817     -0.349698
  N      -1.695512      1.441395     -0.143366
  N       1.570816     -0.239493     -0.163622
  N      -0.236753     -1.771800      0.086079
  N      -2.411856     -0.673781      0.087610
  N       1.960012     -2.518868      0.081072
  C      -0.569537      0.642220     -0.125982
  C      -1.037305     -0.667365      0.018751
  C       0.818450      0.958278     -0.227598
  C       1.045013     -1.508973     -0.006598
  C      -2.760908      0.596758     -0.015794
  H      -1.710707      2.446402     -0.241212
  H       2.577185     -0.129388     -0.237458
  H      -3.780151      0.959590     -0.002000
  H       1.567945     -3.443933      0.016693
  H       2.949808     -2.388886     -0.132400
24
Coordinates from ORCA-job urea_guanine_opt_freq E -767.475988956129
  O       4.595873     -1.697181      0.167489
  N       6.343117     -1.348833      1.585049
  N       4.739750     -2.963664      2.082308
  C       5.182755     -1.987841      1.217920
  H       6.982350     -1.785343      2.231864
  H       6.748889     -0.770410      0.864424
  H       3.774673     -3.247621      1.956148
  H       5.050891     -2.931621      3.043558
  O       1.495407      1.947435     -0.302991
  N      -1.587047      1.459961     -0.129526
  N       1.607308     -0.356023     -0.132609
  N      -0.268996     -1.816385      0.080883
  N      -2.395338     -0.624518      0.074091
  N       1.897818     -2.648071      0.080444
  C      -0.496805      0.611774     -0.106472
  C      -1.021775     -0.676076      0.019637
  C       0.905096      0.873015     -0.193104
  C       1.023588     -1.603021      0.002537
  C      -2.689172      0.661182     -0.020693
  H      -1.556057      2.465427     -0.217904
  H       2.618906     -0.282815     -0.195480
  H      -3.692022      1.067189     -0.013783
  H       1.479735     -3.566309      0.034961
  H       2.887753     -2.510111     -0.119375
24
Coordinates from ORCA-job urea_guanine_opt_freq E -767.476250135054
  O       4.499195     -1.645033      0.151520
  N       6.246378     -1.237563      1.553891
  N       4.727518     -2.941214      2.035260
  C       5.116196     -1.924835      1.188051
  H       6.915513     -1.653884      2.184692
  H       6.618107     -0.632657      0.835592
  H       3.767985     -3.254660      1.927214
  H       5.055985     -2.913676      2.991141
  O       1.585513      1.876596     -0.206171
  N      -1.508827      1.467606     -0.117999
  N       1.637247     -0.432056     -0.072926
  N      -0.283200     -1.845715      0.059951
  N      -2.377519     -0.597545      0.028773
  N       1.864455     -2.734833      0.094900
  C      -0.442803      0.588974     -0.084321
  C      -1.005075     -0.685187      0.005642
  C       0.967330      0.814551     -0.131822
  C       1.015944     -1.665713      0.018082
  C      -2.634242      0.697499     -0.048565
  H      -1.447289      2.473198     -0.186386
  H       2.653559     -0.379930     -0.090573
  H      -3.625507      1.131017     -0.056513
  H       1.434606     -3.650008      0.047838
  H       2.845632     -2.584793     -0.117895
24
Coordinates from ORCA-job urea_guanine_opt_freq E -767.476546345974
  O       4.527049     -1.669963      0.143888
  N       6.272985     -1.252583      1.545287
  N       4.734668     -2.933160      2.048859
  C       5.139417     -1.935064      1.186871
  H       6.930305     -1.650703      2.200475
  H       6.658158     -0.661001      0.822427
  H       3.776160     -3.251200      1.935297
  H       5.061898     -2.908320      3.004876
  O       1.570896      1.884903     -0.196525
  N      -1.521945      1.469334     -0.121713
  N       1.628817     -0.423095     -0.066144
  N      -0.288031     -1.838965      0.053417
  N      -2.386755     -0.598445      0.018214
  N       1.860560     -2.731200      0.100550
  C      -0.453916      0.593404     -0.086371
  C      -1.013529     -0.682789      0.000462
  C       0.955175      0.819661     -0.126056
  C       1.010904     -1.659935      0.018937
  C      -2.645436      0.696308     -0.054028
  H      -1.462945      2.475163     -0.188355
  H       2.645885     -0.369112     -0.069007
  H      -3.637382      1.128385     -0.062740
  H       1.428350     -3.645001      0.039911
  H       2.835412     -2.586481     -0.139157
24
Coordinates from ORCA-job urea_guanine_opt_freq E -767.477025418450
  O       4.473898     -1.604947      0.161644
  N       6.229361     -1.182796      1.547647
  N       4.745295     -2.918869      2.020155
  C       5.111658     -1.882658      1.186259
  H       6.881927     -1.534712      2.233286
  H       6.595681     -0.546481      0.853505
  H       3.798068     -3.268595      1.903671
  H       5.085814     -2.938641      2.971077
  O       1.627802      1.827897     -0.192229
  N      -1.472390      1.479721     -0.113747
  N       1.637851     -0.479178     -0.065791
  N      -0.305555     -1.849219      0.050039
  N      -2.381208     -0.570024      0.024889
  N       1.823842     -2.797766      0.106906
  C      -0.422609      0.582805     -0.084440
  C      -1.008721     -0.683336      0.003024
  C       0.989229      0.773052     -0.121251
  C       0.996534     -1.704508      0.018102
  C      -2.611127      0.729750     -0.040716
  H      -1.393467      2.484290     -0.178473
  H       2.657016     -0.452594     -0.058238
  H      -3.593278      1.183974     -0.043312
  H       1.371592     -3.699700      0.015829
  H       2.789487     -2.677325     -0.188459
24
Coordinates from ORCA-job urea_guanine_opt_freq E -767.477425878962
  O       4.474649     -1.648455      0.115862
  N       6.217081     -1.161675      1.501020
  N       4.722481     -2.869113      2.035634
  C       5.099846     -1.876631      1.159687
  H       6.849815     -1.459646      2.229068
  H       6.591303     -0.548742      0.790664
  H       3.788627     -3.245385      1.917193
  H       5.065693     -2.879682      2.985167
  O       1.654960      1.807893     -0.099510
  N      -1.450184      1.480082     -0.100785
  N       1.645649     -0.500176     -0.019455
  N      -0.305438     -1.856418      0.025562
  N      -2.374308     -0.565879     -0.014222
  N       1.816146     -2.824903      0.131304
  C      -0.406397      0.577710     -0.069306
  C      -1.001788     -0.687397     -0.015143
  C       1.007009      0.755752     -0.067363
  C       0.995963     -1.720576      0.028034
  C      -2.594655      0.735467     -0.068220
  H      -1.364600      2.485362     -0.143519
  H       2.664599     -0.488455      0.025336
  H      -3.573848      1.195879     -0.083211
  H       1.348299     -3.708799     -0.015232
  H       2.755800     -2.726074     -0.239188
24
Coordinates from ORCA-job urea_guanine_opt_freq E -767.477743747794
  O       4.437580     -1.611219      0.119258
  N       6.176890     -1.108219      1.503325
  N       4.717165     -2.849618      2.021758
  C       5.070863     -1.841163      1.158186
  H       6.815728     -1.400782      2.227377
  H       6.530929     -0.472120      0.804037
  H       3.790932     -3.240980      1.897933
  H       5.071688     -2.878396      2.966798
  O       1.698350      1.768737     -0.080428
  N      -1.410270      1.481579     -0.091091
  N       1.657999     -0.540297     -0.012771
  N      -0.312227     -1.872226      0.024891
  N      -2.362816     -0.551259     -0.016760
  N       1.796028     -2.865917      0.139569
  C      -0.379456      0.565121     -0.061938
  C      -0.992608     -0.691440     -0.013618
  C       1.038205      0.725022     -0.056626
  C       0.989556     -1.749121      0.030951
  C      -2.565633      0.753237     -0.062681
  H      -1.311010      2.485830     -0.129777
  H       2.677991     -0.552553      0.022351
  H      -3.538379      1.226986     -0.078557
  H       1.306877     -3.731484     -0.040297
  H       2.722317     -2.779578     -0.262514
24
Coordinates from ORCA-job urea_guanine_opt_freq E -767.478002437024
  O       4.449721     -1.612402      0.110919
  N       6.179845     -1.111823      1.505287
  N       4.697192     -2.827896      2.033257
  C       5.068801     -1.837507      1.160517
  H       6.812083     -1.411323      2.230791
  H       6.532928     -0.474113      0.808682
  H       3.773966     -3.215588      1.894540
  H       5.041730     -2.845448      2.982058
  O       1.701635      1.766169     -0.084516
  N      -1.403739      1.476677     -0.080208
  N       1.663523     -0.545463     -0.018744
  N      -0.310483     -1.882106      0.029764
  N      -2.357830     -0.554437     -0.007743
  N       1.794816     -2.870961      0.134395
  C      -0.374767      0.558350     -0.054527
  C      -0.989301     -0.695560     -0.007559
  C       1.046143      0.722519     -0.057226
  C       0.990799     -1.751486      0.028603
  C      -2.560910      0.750620     -0.052005
  H      -1.303638      2.480905     -0.118381
  H       2.684314     -0.566867     -0.019691
  H      -3.533157      1.225125     -0.067185
  H       1.298826     -3.721374     -0.075347
  H       2.724203     -2.785872     -0.266306
24
Coordinates from ORCA-job urea_guanine_opt_freq E -767.478137624477
  O       4.426553     -1.605970      0.078874
  N       6.137903     -1.073412      1.481036
  N       4.661331     -2.790625      2.022771
  C       5.036713     -1.811109      1.139016
  H       6.765466     -1.356315      2.216903
  H       6.483389     -0.435388      0.781112
  H       3.744808     -3.190803      1.877478
  H       5.000191     -2.790214      2.973517
  O       1.740767      1.733721     -0.029205
  N      -1.363393      1.473533     -0.064000
  N       1.682408     -0.579827      0.014068
  N      -0.307934     -1.899124      0.022191
  N      -2.339685     -0.547579     -0.027024
  N       1.785269     -2.910987      0.137039
  C      -0.345397      0.542704     -0.033765
  C      -0.973802     -0.702925     -0.009721
  C       1.078140      0.695791     -0.019380
  C       0.994922     -1.778585      0.036440
  C      -2.529015      0.760429     -0.059813
  H      -1.251284      2.476864     -0.090355
  H       2.703602     -0.611363      0.017539
  H      -3.495762      1.245549     -0.083144
  H       1.279704     -3.752345     -0.102982
  H       2.711806     -2.821879     -0.269218
24
Coordinates from ORCA-job urea_guanine_opt_freq E -767.478290537594
  O       4.461902     -1.641509      0.054208
  N       6.162497     -1.105083      1.467502
  N       4.628704     -2.760633      2.043927
  C       5.048951     -1.825070      1.132229
  H       6.772763     -1.381701      2.220478
  H       6.531452     -0.497300      0.752419
  H       3.712120     -3.155950      1.884001
  H       4.943851     -2.724424      3.001898
  O       1.726356      1.745941     -0.018018
  N      -1.374281      1.467978     -0.053887
  N       1.682378     -0.568777      0.019001
  N      -0.300701     -1.899135      0.016121
  N      -2.339753     -0.558866     -0.031244
  N       1.797322     -2.902015      0.126642
  C      -0.351660      0.541452     -0.024812
  C      -0.973337     -0.706767     -0.010244
  C       1.070387      0.704003     -0.010984
  C       1.002101     -1.772039      0.032448
  C      -2.535995      0.748654     -0.056204
  H      -1.267206      2.471956     -0.075300
  H       2.703364     -0.591481      0.014176
  H      -3.505214      1.228827     -0.078846
  H       1.299478     -3.742846     -0.131988
  H       2.731219     -2.805075     -0.264147
24
Coordinates from ORCA-job urea_guanine_opt_freq E -767.478437756455
  O       4.477597     -1.647130      0.042576
  N       6.181984     -1.128396      1.460120
  N       4.590543     -2.721633      2.059696
  C       5.051023     -1.822515      1.130033
  H       6.780974     -1.409336      2.221161
  H       6.573140     -0.546184      0.734936
  H       3.674683     -3.114994      1.881179
  H       4.880169     -2.651836      3.023763
  O       1.724198      1.744752     -0.015486
  N      -1.375878      1.462492     -0.039244
  N       1.683902     -0.569695      0.017165
  N      -0.294952     -1.901048      0.009644
  N      -2.338027     -0.566920     -0.028909
  N       1.805897     -2.904293      0.111304
  C      -0.351359      0.537238     -0.014934
  C      -0.970702     -0.712570     -0.009312
  C       1.068505      0.701493     -0.006254
  C       1.007977     -1.775392      0.024971
  C      -2.535702      0.740474     -0.047416
  H      -1.270604      2.466731     -0.054461
  H       2.704561     -0.586917      0.000220
  H      -3.505798      1.219178     -0.066146
  H       1.315520     -3.743909     -0.167754
  H       2.749048     -2.799451     -0.257476
24
Coordinates from ORCA-job urea_guanine_opt_freq E -767.478465578027
  O       4.483979     -1.650823      0.032525
  N       6.184270     -1.131413      1.456665
  N       4.567799     -2.694803      2.066351
  C       5.046612     -1.816981      1.126601
  H       6.779301     -1.416076      2.219473
  H       6.589415     -0.568155      0.724103
  H       3.654499     -3.090687      1.879434
  H       4.844159     -2.609303      3.033092
  O       1.731127      1.738153     -0.005459
  N      -1.372196      1.459593     -0.030270
  N       1.686420     -0.575148      0.017174
  N      -0.291375     -1.903448      0.004910
  N      -2.334711     -0.569843     -0.030801
  N       1.809208     -2.909856      0.105689
  C      -0.347299      0.534854     -0.008839
  C      -0.966799     -0.716051     -0.009801
  C       1.071673      0.696468     -0.000308
  C       1.011299     -1.780593      0.021363
  C      -2.531717      0.737323     -0.042380
  H      -1.266849      2.463901     -0.040727
  H       2.707181     -0.590937     -0.000512
  H      -3.501973      1.215887     -0.059356
  H       1.320084     -3.747081     -0.187821
  H       2.752594     -2.804837     -0.261732
24
Coordinates from ORCA-job urea_guanine_opt_freq E -767.478497776991
  O       4.483835     -1.645624      0.029762
  N       6.184762     -1.131896      1.457517
  N       4.554190     -2.678867      2.069331
  C       5.041936     -1.810978      1.125552
  H       6.786188     -1.437193      2.207404
  H       6.599830     -0.583393      0.719141
  H       3.640583     -3.072940      1.878451
  H       4.819788     -2.582036      3.038180
  O       1.735773      1.733870      0.001681
  N      -1.371253      1.457388     -0.025285
  N       1.687812     -0.578104      0.015401
  N      -0.289087     -1.905203      0.001848
  N      -2.332726     -0.572398     -0.032592
  N       1.811419     -2.911865      0.099372
  C      -0.345415      0.533986     -0.005374
  C      -0.964329     -0.718409     -0.010643
  C       1.073261      0.693650      0.003194
  C       1.013261     -1.783735      0.018505
  C      -2.530117      0.734323     -0.040718
  H      -1.266404      2.461792     -0.032294
  H       2.708628     -0.591393     -0.001028
  H      -3.500812      1.212090     -0.057269
  H       1.326302     -3.749834     -0.194590
  H       2.759278     -2.803090     -0.256170
24
Coordinates from ORCA-job urea_guanine_opt_freq E -767.478519559894
  O       4.483253     -1.643684      0.028645
  N       6.178631     -1.123752      1.461907
  N       4.545190     -2.666552      2.073542
  C       5.036808     -1.804812      1.126863
  H       6.785774     -1.444772      2.200708
  H       6.601423     -0.588660      0.717986
  H       3.633115     -3.061740      1.879166
  H       4.804120     -2.567281      3.043934
  O       1.741993      1.729145      0.003345
  N      -1.367659      1.455860     -0.020924
  N       1.690730     -0.582033      0.010496
  N      -0.287106     -1.907607      0.000658
  N      -2.329541     -0.573364     -0.028980
  N       1.812219     -2.915811      0.095860
  C      -0.341864      0.532849     -0.003876
  C      -0.961174     -0.719949     -0.009822
  C       1.077439      0.690296      0.003261
  C       1.015150     -1.787057      0.015300
  C      -2.526770      0.733181     -0.036266
  H      -1.262608      2.460273     -0.026176
  H       2.711492     -0.595245     -0.006996
  H      -3.497429      1.211056     -0.051326
  H       1.325540     -3.751804     -0.204130
  H       2.757976     -2.808397     -0.263798
24
Coordinates from ORCA-job urea_guanine_opt_freq E -767.478542261099
  O       4.483478     -1.642725      0.029604
  N       6.175390     -1.119675      1.466599
  N       4.542672     -2.663555      2.076081
  C       5.035190     -1.802758      1.128880
  H       6.787367     -1.454689      2.195499
  H       6.602576     -0.592335      0.719407
  H       3.630437     -3.057588      1.881615
  H       4.798106     -2.563793      3.047329
  O       1.742019      1.729751      0.000517
  N      -1.367509      1.454980     -0.020475
  N       1.692180     -0.581600      0.006584
  N      -0.285844     -1.908558      0.000797
  N      -2.328130     -0.574615     -0.025707
  N       1.813398     -2.915531      0.092645
  C      -0.341350      0.532535     -0.005199
  C      -0.959986     -0.720332     -0.008966
  C       1.078567      0.690566      0.000474
  C       1.016551     -1.786829      0.013261
  C      -2.526494      0.731884     -0.032489
  H      -1.263001      2.459459     -0.026056
  H       2.712859     -0.593881     -0.011169
  H      -3.497324      1.209389     -0.045998
  H       1.326928     -3.751540     -0.205329
  H       2.758618     -2.808420     -0.268528
24
Coordinates from ORCA-job urea_guanine_opt_freq E -767.478562478208
  O       4.485636     -1.643462      0.028958
  N       6.171267     -1.115370      1.471989
  N       4.538111     -2.660296      2.077893
  C       5.033636     -1.800689      1.130764
  H       6.783145     -1.457684      2.197994
  H       6.603647     -0.594281      0.723119
  H       3.625658     -3.053071      1.882480
  H       4.788744     -2.559424      3.050275
  O       1.742157      1.730145     -0.007520
  N      -1.365637      1.453973     -0.019006
  N       1.694472     -0.581969      0.000906
  N      -0.284190     -1.909882      0.002411
  N      -2.326073     -0.575686     -0.017443
  N       1.814766     -2.916622      0.087146
  C      -0.339738      0.531146     -0.006909
  C      -0.958262     -0.720979     -0.006318
  C       1.080681      0.690126     -0.004826
  C       1.018546     -1.787148      0.010309
  C      -2.524918      0.731029     -0.025453
  H      -1.261232      2.458452     -0.025878
  H       2.715090     -0.594096     -0.019398
  H      -3.495560      1.208901     -0.035917
  H       1.327934     -3.752508     -0.208905
  H       2.758820     -2.810468     -0.277293
24
Coordinates from ORCA-job urea_guanine_opt_freq E -767.478599076893
  O       4.489838     -1.644420      0.025838
  N       6.165102     -1.110172      1.479380
  N       4.526992     -2.652583      2.079505
  C       5.030247     -1.796762      1.132460
  H       6.771661     -1.456261      2.208439
  H       6.606036     -0.596659      0.730025
  H       3.613893     -3.043019      1.881506
  H       4.768523     -2.546638      3.053712
  O       1.744463      1.728630     -0.021638
  N      -1.360626      1.452164     -0.015033
  N       1.698644     -0.584560     -0.008940
  N      -0.281121     -1.912361      0.004850
  N      -2.322279     -0.577086     -0.002868
  N       1.817269     -2.920145      0.076223
  C      -0.335662      0.527993     -0.008932
  C      -0.954825     -0.722745     -0.001285
  C       1.085068      0.687665     -0.014138
  C       1.022031     -1.789280      0.004519
  C      -2.520632      0.730058     -0.011340
  H      -1.255795      2.456559     -0.024164
  H       2.719223     -0.597403     -0.033518
  H      -3.490668      1.209181     -0.015723
  H       1.329541     -3.755868     -0.216637
  H       2.759776     -2.816150     -0.292861
24
Coordinates from ORCA-job urea_guanine_opt_freq E -767.478653980798
  O       4.497338     -1.645670      0.017685
  N       6.153992     -1.102334      1.490020
  N       4.502600     -2.634984      2.080847
  C       5.022211     -1.788580      1.133428
  H       6.746955     -1.447573      2.230880
  H       6.609863     -0.600414      0.741585
  H       3.587900     -3.020347      1.877023
  H       4.726703     -2.515299      3.057805
  O       1.752314      1.722565     -0.043643
  N      -1.349177      1.448583     -0.005212
  N       1.706817     -0.591923     -0.026255
  N      -0.274985     -1.917483      0.008452
  N      -2.314479     -0.579231      0.022736
  N       1.821950     -2.928666      0.055322
  C      -0.326348      0.521578     -0.010139
  C      -0.947516     -0.726892      0.007941
  C       1.094435      0.680963     -0.028398
  C       1.028478     -1.795359     -0.006399
  C      -2.510547      0.728598      0.014009
  H      -1.242931      2.452778     -0.017389
  H       2.727381     -0.607222     -0.058118
  H      -3.479239      1.210382      0.020215
  H       1.331140     -3.763957     -0.231588
  H       2.761846     -2.829372     -0.321432
24
Coordinates from ORCA-job urea_guanine_opt_freq E -767.478733959776
  O       4.507013     -1.647338      0.004659
  N       6.137063     -1.092678      1.502867
  N       4.463940     -2.607241      2.081427
  C       5.008165     -1.776489      1.133101
  H       6.707771     -1.428587      2.265178
  H       6.612695     -0.604624      0.757639
  H       3.546323     -2.983375      1.868168
  H       4.662814     -2.462895      3.060833
  O       1.767930      1.710506     -0.070762
  N      -1.330450      1.443124      0.011417
  N       1.719290     -0.604821     -0.051684
  N      -0.265208     -1.925400      0.011546
  N      -2.301718     -0.582035      0.057593
  N       1.828966     -2.942429      0.024556
  C      -0.310893      0.512244     -0.009471
  C      -0.935460     -0.733699      0.020557
  C       1.109466      0.669394     -0.046740
  C       1.038037     -1.806136     -0.023219
  C      -2.493490      0.726544      0.050699
  H      -1.221730      2.446979     -0.004120
  H       2.739791     -0.624678     -0.092789
  H      -3.460159      1.212006      0.072065
  H       1.331268     -3.777035     -0.251672
  H       2.765275     -2.851197     -0.362471
24
Coordinates from ORCA-job urea_guanine_opt_freq E -767.478823712278
  O       4.514573     -1.648860     -0.007277
  N       6.122448     -1.087185      1.511739
  N       4.427042     -2.580582      2.081587
  C       4.993851     -1.766034      1.131638
  H       6.672312     -1.407977      2.295182
  H       6.613315     -0.609064      0.770283
  H       3.505899     -2.945264      1.859066
  H       4.604055     -2.408834      3.061102
  O       1.785576      1.697201     -0.088926
  N      -1.312679      1.437894      0.029063
  N       1.730737     -0.617696     -0.074602
  N      -0.255731     -1.932801      0.011421
  N      -2.289173     -0.584699      0.084797
  N       1.835555     -2.955270     -0.003358
  C      -0.295780      0.504384     -0.006036
  C      -0.923502     -0.740418      0.030485
  C       1.123847      0.657923     -0.059664
  C       1.046717     -1.817129     -0.039341
  C      -2.476801      0.724211      0.081534
  H      -1.201561      2.441467      0.012397
  H       2.751149     -0.642060     -0.122187
  H      -3.441935      1.212123      0.115479
  H       1.328540     -3.789388     -0.265401
  H       2.768246     -2.871801     -0.399602
24
Coordinates from ORCA-job urea_guanine_opt_freq E -767.478867596286
  O       4.518160     -1.651397     -0.014624
  N       6.116321     -1.089007      1.512866
  N       4.403665     -2.561909      2.083499
  C       4.984693     -1.761326      1.129751
  H       6.654827     -1.394807      2.309528
  H       6.613196     -0.615099      0.773098
  H       3.480381     -2.917506      1.854760
  H       4.569394     -2.369314      3.061274
  O       1.798972      1.687626     -0.090428
  N      -1.302701      1.434477      0.041833
  N       1.737348     -0.625741     -0.086678
  N      -0.249999     -1.937322      0.006610
  N      -2.281465     -0.586777      0.093768
  N       1.839701     -2.962765     -0.018500
  C      -0.286549      0.500824     -0.000720
  C      -0.915936     -0.744646      0.033239
  C       1.132694      0.650831     -0.062205
  C       1.051812     -1.824317     -0.049754
  C      -2.467144      0.721962      0.096072
  H      -1.190165      2.437949      0.027177
  H       2.757699     -0.652309     -0.136255
  H      -3.432095      1.209876      0.135993
  H       1.324694     -3.796527     -0.269526
  H       2.769197     -2.882639     -0.421405
24
Coordinates from ORCA-job urea_guanine_opt_freq E -767.478892307006
  O       4.518015     -1.653197     -0.016109
  N       6.119220     -1.095158      1.508422
  N       4.398454     -2.554885      2.086632
  C       4.983183     -1.761906      1.128649
  H       6.657741     -1.394869      2.307141
  H       6.614581     -0.621106      0.767866
  H       3.475070     -2.907361      1.856060
  H       4.563884     -2.355698      3.063056
  O       1.802806      1.685250     -0.081305
  N      -1.302462      1.433512      0.045723
  N       1.738100     -0.626912     -0.085606
  N      -0.249135     -1.938230      0.002390
  N      -2.280271     -0.587948      0.087739
  N       1.840830     -2.963771     -0.019063
  C      -0.285428      0.501287      0.003509
  C      -0.914543     -0.745421      0.031257
  C       1.134054      0.649872     -0.056763
  C       1.052726     -1.825693     -0.051040
  C      -2.466704      0.720476      0.093518
  H      -1.189880      2.437056      0.034076
  H       2.758445     -0.652840     -0.134497
  H      -3.432472      1.206860      0.132044
  H       1.322533     -3.796982     -0.267751
  H       2.767953     -2.882196     -0.426573
24
Coordinates from ORCA-job urea_guanine_opt_freq E -767.478899644376
  O       4.517880     -1.653705     -0.015630
  N       6.122400     -1.099806      1.506220
  N       4.396562     -2.551044      2.089551
  C       4.983293     -1.762553      1.128990
  H       6.662449     -1.399282      2.303980
  H       6.617130     -0.626492      0.764757
  H       3.473525     -2.902344      1.857453
  H       4.562158     -2.350622      3.065572
  O       1.803034      1.685410     -0.077494
  N      -1.303837      1.432979      0.046498
  N       1.737884     -0.626352     -0.084364
  N      -0.248858     -1.938452      0.000774
  N      -2.279951     -0.589105      0.084643
  N       1.841734     -2.963324     -0.018404
  C      -0.285934      0.501918      0.005330
  C      -0.914198     -0.745497      0.030210
  C       1.133770      0.650432     -0.054420
  C       1.053250     -1.825449     -0.051089
  C      -2.467704      0.719163      0.091614
  H      -1.191689      2.436606      0.036057
  H       2.758203     -0.650847     -0.133413
  H      -3.434102      1.204306      0.129199
  H       1.322442     -3.795964     -0.267243
  H       2.767258     -2.879835     -0.429413
24
Coordinates from ORCA-job urea_guanine_opt_freq E -767.478897048510
  O       4.517685     -1.652037     -0.014617
  N       6.124280     -1.102339      1.506262
  N       4.394909     -2.548516      2.091250
  C       4.983239     -1.762067      1.129903
  H       6.665333     -1.403971      2.302597
  H       6.619368     -0.629710      0.764538
  H       3.472048     -2.898833      1.857564
  H       4.560239     -2.349433      3.067503
  O       1.802675      1.685852     -0.078770
  N      -1.304638      1.432519      0.046481
  N       1.737839     -0.625945     -0.084284
  N      -0.248429     -1.938725      0.001439
  N      -2.279400     -0.590105      0.085014
  N       1.842601     -2.963171     -0.018725
  C      -0.286205      0.502094      0.005826
  C      -0.913694     -0.745572      0.030961
  C       1.133604      0.650924     -0.054770
  C       1.053929     -1.825182     -0.050997
  C      -2.468207      0.718134      0.091583
  H      -1.192871      2.436193      0.036116
  H       2.758159     -0.649004     -0.133881
  H      -3.434934      1.202577      0.128931
  H       1.322734     -3.795355     -0.267078
  H       2.766435     -2.878184     -0.433473
24
Coordinates from ORCA-job urea_guanine_opt_freq E -767.478903006880
  O       4.518533     -1.648778     -0.014100
  N       6.125549     -1.104438      1.508210
  N       4.390610     -2.544266      2.092104
  C       4.982621     -1.760274      1.130991
  H       6.665743     -1.409639      2.303849
  H       6.622989     -0.633582      0.766873
  H       3.467955     -2.893339      1.855886
  H       4.554495     -2.347287      3.068951
  O       1.802366      1.686167     -0.084176
  N      -1.304648      1.431661      0.046472
  N       1.738412     -0.625889     -0.085923
  N      -0.247228     -1.939358      0.003274
  N      -2.278167     -0.591493      0.089113
  N       1.844130     -2.963451     -0.020451
  C      -0.285842      0.501601      0.005605
  C      -0.912550     -0.746096      0.032924
  C       1.133894      0.651091     -0.057653
  C       1.055313     -1.825173     -0.051514
  C      -2.467852      0.716754      0.094548
  H      -1.193309      2.435374      0.035409
  H       2.758761     -0.647424     -0.136516
  H      -3.434707      1.200814      0.133034
  H       1.323761     -3.795331     -0.267689
  H       2.765870     -2.877505     -0.439844
24
Coordinates from ORCA-job urea_guanine_opt_freq E -767.478919680970
  O       4.520540     -1.642152     -0.013616
  N       6.127505     -1.107752      1.512470
  N       4.383321     -2.538175      2.091757
  C       4.981752     -1.757009      1.132443
  H       6.664730     -1.418986      2.307871
  H       6.629451     -0.639373      0.772561
  H       3.460735     -2.885004      1.851736
  H       4.545459     -2.345798      3.069731
  O       1.801320      1.686989     -0.095460
  N      -1.304647      1.430265      0.046390
  N       1.739424     -0.625491     -0.089828
  N      -0.244974     -1.940166      0.007252
  N      -2.276420     -0.593663      0.097104
  N       1.846920     -2.963351     -0.023136
  C      -0.285327      0.500629      0.004614
  C      -0.910849     -0.747112      0.036966
  C       1.134071      0.651466     -0.063712
  C       1.057584     -1.824911     -0.052376
  C      -2.467186      0.714543      0.100127
  H      -1.194091      2.434042      0.033874
  H       2.759825     -0.645147     -0.142063
  H      -3.434127      1.198243      0.140683
  H       1.325967     -3.795369     -0.267227
  H       2.765716     -2.876577     -0.448782
24
Coordinates from ORCA-job urea_guanine_opt_freq E -767.478938009669
  O       4.524615     -1.629133     -0.014245
  N       6.130098     -1.113598      1.520399
  N       4.368599     -2.526969      2.088674
  C       4.979525     -1.750650      1.133816
  H       6.660032     -1.434797      2.316805
  H       6.640755     -0.649319      0.783865
  H       3.446182     -2.869932      1.842042
  H       4.528900     -2.344312      3.068685
  O       1.799700      1.688342     -0.115458
  N      -1.304186      1.427627      0.045925
  N       1.741800     -0.624698     -0.097339
  N      -0.240246     -1.941527      0.014615
  N      -2.273053     -0.597468      0.112265
  N       1.852575     -2.962836     -0.026593
  C      -0.283998      0.498708      0.002609
  C      -0.907562     -0.749205      0.044096
  C       1.134624      0.651976     -0.074805
  C       1.062001     -1.824418     -0.053463
  C      -2.465417      0.710556      0.110784
  H      -1.195100      2.431508      0.030512
  H       2.762314     -0.641998     -0.151993
  H      -3.432433      1.193764      0.155425
  H       1.330571     -3.795630     -0.264570
  H       2.766403     -2.875852     -0.462674
24
Coordinates from ORCA-job urea_guanine_opt_freq E -767.478969793488
  O       4.530000     -1.607867     -0.015827
  N       6.134123     -1.123442      1.531150
  N       4.347972     -2.512967      2.080815
  C       4.976423     -1.741789      1.134351
  H       6.652890     -1.458728      2.329115
  H       6.656615     -0.663571      0.800232
  H       3.425560     -2.850269      1.825611
  H       4.510112     -2.349777      3.063748
  O       1.795997      1.691567     -0.142863
  N      -1.304741      1.423952      0.044132
  N       1.745075     -0.621949     -0.107571
  N      -0.232918     -1.942632      0.026221
  N      -2.268782     -0.602901      0.131953
  N       1.861762     -2.959924     -0.027150
  C      -0.282920      0.496562     -0.000600
  C      -0.903284     -0.752011      0.054159
  C       1.134442      0.653719     -0.089887
  C       1.068407     -1.822426     -0.053065
  C      -2.463747      0.704647      0.123467
  H      -1.198197      2.428014      0.024689
  H       2.765806     -0.636802     -0.164557
  H      -3.431122      1.186777      0.172585
  H       1.338500     -3.794739     -0.254328
  H       2.768728     -2.873303     -0.477005
24
Coordinates from ORCA-job urea_guanine_opt_freq E -767.479013054299
  O       4.535322     -1.584273     -0.018876
  N       6.138239     -1.135611      1.540827
  N       4.326712     -2.500506      2.068784
  C       4.973162     -1.733638      1.132835
  H       6.645165     -1.484264      2.340582
  H       6.672270     -0.679524      0.816036
  H       3.404451     -2.832556      1.805702
  H       4.496908     -2.364947      3.054296
  O       1.790537      1.696888     -0.167492
  N      -1.307127      1.420278      0.040278
  N       1.748388     -0.616682     -0.116731
  N      -0.224540     -1.942577      0.038728
  N      -2.264924     -0.608615      0.149564
  N       1.873011     -2.953808     -0.020824
  C      -0.282922      0.495446     -0.004299
  C      -0.899368     -0.754483      0.063268
  C       1.133132      0.657071     -0.103703
  C       1.075340     -1.818440     -0.049675
  C      -2.463331      0.698134      0.133295
  H      -1.203895      2.424585      0.016244
  H       2.769411     -0.630171     -0.174681
  H      -3.431552      1.178302      0.185638
  H       1.348980     -3.791555     -0.236669
  H       2.773329     -2.868914     -0.483752
24
Coordinates from ORCA-job urea_guanine_opt_freq E -767.479057510494
  O       4.537634     -1.562447     -0.020635
  N       6.143328     -1.148131      1.545878
  N       4.314670     -2.497656      2.055307
  C       4.972050     -1.729628      1.130044
  H       6.644366     -1.506951      2.344693
  H       6.683313     -0.692283      0.825475
  H       3.391725     -2.825227      1.788513
  H       4.501592     -2.396050      3.041619
  O       1.782848      1.704863     -0.180881
  N      -1.313127      1.418199      0.033683
  N       1.749596     -0.608284     -0.120702
  N      -0.218289     -1.940264      0.049560
  N      -2.264085     -0.612945      0.156640
  N       1.883127     -2.943734     -0.005674
  C      -0.285911      0.496989     -0.008129
  C      -0.898256     -0.755026      0.068420
  C       1.129461      0.662741     -0.111151
  C       1.080057     -1.811828     -0.042207
  C      -2.466670      0.692831      0.133280
  H      -1.213424      2.422770      0.005153
  H       2.770955     -0.621750     -0.176899
  H      -3.436524      1.169830      0.184708
  H       1.359070     -3.784959     -0.210596
  H       2.779196     -2.860921     -0.476721
24
Coordinates from ORCA-job urea_guanine_opt_freq E -767.479062655760
  O       4.538662     -1.561218     -0.022771
  N       6.143956     -1.150527      1.544529
  N       4.313520     -2.498890      2.051647
  C       4.972352     -1.730877      1.127907
  H       6.646093     -1.507916      2.343252
  H       6.684072     -0.695631      0.823595
  H       3.390312     -2.825872      1.785084
  H       4.506822     -2.405232      3.037466
  O       1.781297      1.707369     -0.175811
  N      -1.315330      1.418245      0.032231
  N       1.749477     -0.605482     -0.118903
  N      -0.217614     -1.939221      0.050153
  N      -2.264532     -0.613531      0.153375
  N       1.884975     -2.940396      0.001674
  C      -0.287219      0.498476     -0.008341
  C      -0.898718     -0.754448      0.067157
  C       1.128555      0.664544     -0.108565
  C       1.080441     -1.809700     -0.038927
  C      -2.468477      0.692041      0.129703
  H      -1.216319      2.422866      0.002014
  H       2.770880     -0.619819     -0.174046
  H      -3.439148      1.167484      0.179506
  H       1.360945     -3.782330     -0.203180
  H       2.781699     -2.859794     -0.469374
24
Coordinates from ORCA-job urea_guanine_opt_freq E -767.479073703752
  O       4.536619     -1.562042     -0.021133
  N       6.144080     -1.149511      1.542819
  N       4.319717     -2.506197      2.051216
  C       4.973747     -1.733253      1.128083
  H       6.651039     -1.504216      2.339714
  H       6.680700     -0.692267      0.820676
  H       3.395513     -2.832389      1.786747
  H       4.517431     -2.416096      3.036481
  O       1.780236      1.708727     -0.170545
  N      -1.317110      1.419416      0.030980
  N       1.748113     -0.604007     -0.116573
  N      -0.219318     -1.938093      0.048812
  N      -2.266026     -0.612511      0.148460
  N       1.883508     -2.938690      0.005427
  C      -0.288819      0.500137     -0.008939
  C      -0.900281     -0.753057      0.064790
  C       1.127497      0.665649     -0.105857
  C       1.078871     -1.808483     -0.037480
  C      -2.470452      0.693130      0.125222
  H      -1.217935      2.423985     -0.001040
  H       2.769496     -0.618781     -0.170955
  H      -3.441556      1.167770      0.173446
  H       1.359598     -3.780796     -0.198638
  H       2.782033     -2.858288     -0.462335
24
Coordinates from ORCA-job urea_guanine_opt_freq E -767.479072169861
  O       4.537612     -1.565360     -0.023322
  N       6.142307     -1.148633      1.542023
  N       4.317213     -2.504119      2.051312
  C       4.972779     -1.733606      1.127161
  H       6.649618     -1.500974      2.339791
  H       6.679911     -0.693972      0.818907
  H       3.393039     -2.829653      1.785997
  H       4.512906     -2.410203      3.036614
  O       1.781607      1.708074     -0.167154
  N      -1.315975      1.419150      0.032953
  N       1.748953     -0.604718     -0.115312
  N      -0.218847     -1.938699      0.047835
  N      -2.264979     -0.612796      0.147772
  N       1.883693     -2.939699      0.004644
  C      -0.287808      0.499909     -0.008033
  C      -0.899363     -0.753233      0.064504
  C       1.128820      0.664964     -0.103810
  C       1.079510     -1.809189     -0.037630
  C      -2.469516      0.692972      0.125711
  H      -1.216476      2.423653     -0.000461
  H       2.770279     -0.619328     -0.170365
  H      -3.440733      1.167313      0.174066
  H       1.359478     -3.781177     -0.200756
  H       2.782673     -2.860537     -0.463071
24
Coordinates from ORCA-job urea_guanine_opt_freq E -767.479073447734
  O       4.536847     -1.565317     -0.022413
  N       6.142122     -1.148084      1.542140
  N       4.318769     -2.506195      2.051420
  C       4.973009     -1.733995      1.127685
  H       6.650760     -1.500208      2.339202
  H       6.679068     -0.692924      0.818798
  H       3.394254     -2.830746      1.786207
  H       4.514680     -2.412875      3.036738
  O       1.781171      1.708400     -0.167181
  N      -1.316206      1.419388      0.032745
  N       1.748719     -0.604501     -0.114380
  N      -0.219141     -1.938525      0.047741
  N      -2.265135     -0.612604      0.147847
  N       1.883326     -2.939633      0.004614
  C      -0.288083      0.500077     -0.008558
  C      -0.899553     -0.752917      0.064246
  C       1.128635      0.665160     -0.103782
  C       1.079349     -1.808974     -0.037444
  C      -2.469766      0.693220      0.125539
  H      -1.216616      2.423810     -0.002837
  H       2.770036     -0.618629     -0.169619
  H      -3.441001      1.167492      0.174070
  H       1.359180     -3.780971     -0.200505
  H       2.782276     -2.860310     -0.462897
