27
Coordinates from ORCA-job biuret_thymine_opt_freq E -847.737761341612
  N           3.08598876501888      2.80185316609289      2.09400818464411
  C           2.79709077145934      1.62861457979072      2.71341793987431
  O           1.66431612171952      1.36119615844561      3.14079792835695
  N           3.85011414102783      0.73985357528728      2.91917591342361
  C           5.06364432413363      0.57494397189297      2.22237916979681
  O           6.03323605426519      0.06696503295438      2.76153137564732
  N           5.04960750707002      1.04177971751470      0.92476094882383
  H           2.29891289228195      3.36743221751624      1.81337384865696
  H           3.96885359137221      2.93621428101686      1.61967382747517
  H           3.71378196541994      0.09679800191943      3.68952318047572
  H           4.18542892862651      0.93525036453846      0.39187005598871
  H           5.89856100846267      0.81902503471674      0.42160630154612
  O          -1.41760960025222     -0.31724755112718     -2.79096838300139
  O           2.32708182935318      0.67131100436432     -0.35363014080630
  N           0.42373419582604      0.16555205417375     -1.53087596115762
  N           0.32229732728405      0.42326102235740      0.75966414536132
  C          -1.70984731125734     -0.09969641886215     -0.42340189929391
  C          -0.95375349496261     -0.10358851622986     -1.67769260339264
  C          -1.03323833853266      0.16750451806540      0.72134149706470
  C          -3.18397716339875     -0.38340291323309     -0.48017942344717
  C           1.11292654543492      0.43646833477516     -0.36686719866091
  H          -1.52407639373248      0.19746639564306      1.68864291767003
  H           0.97107002791348      0.16889148697723     -2.38228524574855
  H           0.76852061650369      0.67028714473123      1.65045472330128
  H          -3.37474224039913     -1.37195376874660     -0.91163677316674
  H          -3.69683886033657      0.34202890814856     -1.12085941322872
  H          -3.63052721030137     -0.34621780272358      0.51755008379691
