27
Coordinates from ORCA-job biuret_thymine_opt_freq E -847.384546195641
  N       3.889966      3.486655      1.501002
  C       2.617162      3.060512      1.501000
  O       1.704979      3.884335      1.500994
  N       2.335715      1.721070      1.501004
  C       2.956292      0.501151      1.501010
  O       2.290143     -0.531811      1.501011
  N       4.296156      0.421201      1.501014
  H       4.018513      4.490821      1.500999
  H       4.711055      2.919051      1.501007
  H       1.332802      1.588178      1.501001
  H       4.941083      1.183060      1.501014
  H       4.681790     -0.514833      1.501019
  O      -1.519300      1.806700     -0.000900
  O       2.839400      0.291300     -0.000700
  N       0.664300      1.062300      0.001100
  N       1.114800     -1.231600     -0.000200
  C      -1.161200     -0.543200      0.000200
  C      -0.712900      0.880200      0.000400
  C      -0.226000     -1.501300     -0.000100
  C      -2.630000     -0.818900     -0.000100
  C       1.631000      0.054500      0.000300
  H      -0.478700     -2.555300     -0.000400
  H       1.001400      2.020900      0.001100
  H       1.756400     -2.019100     -0.000900
  H      -3.100400     -0.386000     -0.888900
  H      -3.100600     -0.386200      0.888700
  H      -2.843300     -1.893100     -0.000300
27
Coordinates from ORCA-job biuret_thymine_opt_freq E -847.459211215873
  N       3.892350      3.548270      1.507809
  C       2.620150      3.088076      1.507166
  O       1.679533      3.883846      1.497101
  N       2.361805      1.739438      1.512767
  C       3.003242      0.505050      1.514657
  O       2.318883     -0.550597      1.543877
  N       4.368598      0.433784      1.538866
  H       3.995898      4.553609      1.501469
  H       4.728539      2.999508      1.513852
  H       1.360012      1.577755      1.507260
  H       5.009638      1.200428      1.539058
  H       4.759515     -0.497090      1.558718
  O      -1.500247      1.803715      0.013933
  O       2.856328      0.260963     -0.048701
  N       0.664830      1.017170     -0.010919
  N       1.080008     -1.275973     -0.038822
  C      -1.192607     -0.552942     -0.008183
  C      -0.722519      0.855041      0.001841
  C      -0.265236     -1.528532     -0.030550
  C      -2.667919     -0.803591      0.003219
  C       1.623627      0.008642     -0.023669
  H      -0.531905     -2.579828     -0.041169
  H       1.018314      1.969361     -0.013440
  H       1.712385     -2.065764     -0.054056
  H      -3.141905     -0.352443     -0.874836
  H      -3.124302     -0.372739      0.900548
  H      -2.896458     -1.874566     -0.006418
27
Coordinates from ORCA-job biuret_thymine_opt_freq E -847.511490625286
  N       3.902219      3.577290      1.516729
  C       2.624859      3.108318      1.518108
  O       1.670453      3.888433      1.502871
  N       2.372874      1.755098      1.526229
  C       3.030168      0.512840      1.524342
  O       2.338843     -0.553618      1.586670
  N       4.403161      0.453220      1.567950
  H       4.000443      4.581815      1.506451
  H       4.741523      3.029411      1.524647
  H       1.371884      1.576119      1.519086
  H       5.037375      1.227978      1.567415
  H       4.800014     -0.472911      1.604601
  O      -1.481260      1.803859      0.017719
  O       2.855864      0.238020     -0.107149
  N       0.665091      0.981947     -0.031703
  N       1.060234     -1.301953     -0.073474
  C      -1.213077     -0.560012     -0.014231
  C      -0.731663      0.835254     -0.003436
  C      -0.288107     -1.546299     -0.053367
  C      -2.692364     -0.796451      0.012055
  C       1.613121     -0.025874     -0.053597
  H      -0.561680     -2.596274     -0.066652
  H       1.034141      1.928313     -0.041611
  H       1.694713     -2.087582     -0.096360
  H      -3.173938     -0.335447     -0.856876
  H      -3.136822     -0.365024      0.915201
  H      -2.927515     -1.865876     -0.000242
27
Coordinates from ORCA-job biuret_thymine_opt_freq E -847.568776557415
  N       3.922758      3.597473      1.525247
  C       2.638103      3.131055      1.535131
  O       1.678970      3.903233      1.514752
  N       2.382426      1.772878      1.551669
  C       3.053904      0.525978      1.544590
  O       2.365901     -0.536746      1.656448
  N       4.424453      0.477690      1.606023
  H       4.023872      4.600750      1.506613
  H       4.758623      3.043189      1.534099
  H       1.382794      1.585242      1.546256
  H       5.050841      1.259807      1.598435
  H       4.825510     -0.444636      1.662909
  O      -1.465733      1.804828      0.019146
  O       2.832899      0.207596     -0.192374
  N       0.659956      0.947850     -0.064892
  N       1.041709     -1.323869     -0.122236
  C      -1.232481     -0.568937     -0.022901
  C      -0.746114      0.815963     -0.013989
  C      -0.309181     -1.562979     -0.083294
  C      -2.714140     -0.797797      0.025519
  C       1.594181     -0.060751     -0.100261
  H      -0.587596     -2.611831     -0.096635
  H       1.047470      1.886593     -0.084230
  H       1.685626     -2.100590     -0.151190
  H      -3.209491     -0.328056     -0.831002
  H      -3.144215     -0.366598      0.935778
  H      -2.950489     -1.866745      0.011763
27
Coordinates from ORCA-job biuret_thymine_opt_freq E -847.625462853450
  N       3.967913      3.605749      1.529837
  C       2.672467      3.158941      1.556406
  O       1.722170      3.938192      1.528074
  N       2.397159      1.796726      1.597523
  C       3.072665      0.547186      1.592086
  O       2.396256     -0.488099      1.759353
  N       4.434191      0.504899      1.659062
  H       4.083491      4.606433      1.492857
  H       4.792708      3.035228      1.542109
  H       1.397840      1.616774      1.597047
  H       5.056582      1.290224      1.629026
  H       4.834805     -0.416052      1.732395
  O      -1.474873      1.798750      0.021625
  O       2.781097      0.172476     -0.297227
  N       0.637052      0.925836     -0.109425
  N       1.022823     -1.337890     -0.189005
  C      -1.253949     -0.584512     -0.038607
  C      -0.774924      0.797891     -0.030779
  C      -0.329855     -1.579268     -0.123067
  C      -2.735209     -0.819673      0.037781
  C       1.564938     -0.085437     -0.170209
  H      -0.608422     -2.628017     -0.132894
  H       1.035343      1.859499     -0.131329
  H       1.684013     -2.100067     -0.217225
  H      -3.251532     -0.343314     -0.802653
  H      -3.150645     -0.391888      0.956516
  H      -2.963548     -1.889995      0.022099
27
Coordinates from ORCA-job biuret_thymine_opt_freq E -847.660969993570
  N       4.018454      3.613808      1.527212
  C       2.716808      3.184379      1.570508
  O       1.779132      3.975448      1.527347
  N       2.422298      1.820506      1.652457
  C       3.090120      0.568504      1.665076
  O       2.415905     -0.435552      1.857976
  N       4.448601      0.523312      1.718541
  H       4.144308      4.611849      1.462876
  H       4.834845      3.033061      1.549923
  H       1.421522      1.656747      1.656501
  H       5.073245      1.303721      1.651764
  H       4.845070     -0.399701      1.791545
  O      -1.506699      1.782454      0.031213
  O       2.733977      0.146716     -0.382489
  N       0.603825      0.919918     -0.146296
  N       1.001064     -1.347677     -0.255537
  C      -1.275869     -0.603566     -0.058408
  C      -0.807712      0.782715     -0.046138
  C      -0.352031     -1.594355     -0.162386
  C      -2.755155     -0.851097      0.041444
  C       1.539442     -0.092989     -0.244102
  H      -0.629341     -2.643330     -0.168447
  H       0.996209      1.855767     -0.157684
  H       1.676081     -2.098459     -0.277222
  H      -3.290479     -0.369173     -0.783962
  H      -3.159266     -0.429371      0.968193
  H      -2.973797     -1.923045      0.021469
27
Coordinates from ORCA-job biuret_thymine_opt_freq E -847.678194903343
  N       4.044599      3.624684      1.526860
  C       2.743865      3.197894      1.573899
  O       1.810519      3.991646      1.505728
  N       2.446672      1.834799      1.692857
  C       3.109636      0.584314      1.731523
  O       2.428644     -0.411553      1.920606
  N       4.470244      0.536462      1.768407
  H       4.169352      4.620996      1.436170
  H       4.861372      3.045780      1.569174
  H       1.444530      1.678614      1.696708
  H       5.096329      1.311975      1.669492
  H       4.865492     -0.388317      1.831037
  O      -1.529137      1.766674      0.042797
  O       2.714306      0.130479     -0.440384
  N       0.582329      0.914899     -0.170726
  N       0.979937     -1.358681     -0.305975
  C      -1.291938     -0.616580     -0.072451
  C      -0.824714      0.771918     -0.055549
  C      -0.372023     -1.605926     -0.191441
  C      -2.769898     -0.867252      0.045108
  C       1.523512     -0.096884     -0.300857
  H      -0.650819     -2.654511     -0.195906
  H       0.966699      1.854782     -0.171271
  H       1.658129     -2.107131     -0.324789
  H      -3.316574     -0.379443     -0.769459
  H      -3.163036     -0.449857      0.978646
  H      -2.987469     -1.939190      0.021171
27
Coordinates from ORCA-job biuret_thymine_opt_freq E -847.686810567874
  N       4.059694      3.633437      1.533622
  C       2.760834      3.205556      1.572670
  O       1.828461      3.998104      1.477458
  N       2.465204      1.844879      1.717002
  C       3.124584      0.598398      1.777305
  O       2.437278     -0.398888      1.957914
  N       4.485964      0.545694      1.801102
  H       4.182526      4.628170      1.423546
  H       4.878434      3.059305      1.600156
  H       1.462615      1.691828      1.718319
  H       5.113587      1.316603      1.677351
  H       4.879427     -0.380782      1.853204
  O      -1.543517      1.753213      0.049054
  O       2.704729      0.121873     -0.479194
  N       0.568875      0.908822     -0.187867
  N       0.964681     -1.366483     -0.339229
  C      -1.302972     -0.625847     -0.080541
  C      -0.832975      0.763272     -0.062448
  C      -0.385386     -1.614298     -0.209938
  C      -2.779844     -0.875232      0.050004
  C       1.511335     -0.099903     -0.337706
  H      -0.664365     -2.662958     -0.213872
  H       0.946398      1.851896     -0.182903
  H       1.641786     -2.115882     -0.358499
  H      -3.333080     -0.383738     -0.757951
  H      -3.163834     -0.459817      0.988256
  H      -2.999883     -1.946633      0.024562
27
Coordinates from ORCA-job biuret_thymine_opt_freq E -847.696188728703
  N       4.085104      3.648477      1.563680
  C       2.787990      3.217732      1.566608
  O       1.857849      4.004179      1.412921
  N       2.491186      1.862250      1.747291
  C       3.144764      0.622126      1.839939
  O       2.451460     -0.375636      2.009537
  N       4.505573      0.558466      1.840712
  H       4.208774      4.639503      1.424067
  H       4.903633      3.084231      1.692808
  H       1.487847      1.714511      1.744058
  H       5.134506      1.319430      1.667823
  H       4.892864     -0.371615      1.873918
  O      -1.562768      1.733745      0.047103
  O       2.685290      0.109268     -0.539063
  N       0.549211      0.897324     -0.219656
  N       0.943658     -1.377148     -0.386217
  C      -1.319673     -0.640614     -0.089526
  C      -0.845768      0.748769     -0.077460
  C      -0.403301     -1.627568     -0.232459
  C      -2.794229     -0.887116      0.063244
  C       1.491190     -0.106741     -0.391383
  H      -0.680298     -2.676968     -0.233364
  H       0.916054      1.845074     -0.216148
  H       1.618905     -2.127941     -0.408571
  H      -3.358105     -0.394407     -0.736610
  H      -3.163255     -0.470832      1.007089
  H      -3.017902     -1.957907      0.041034
27
Coordinates from ORCA-job biuret_thymine_opt_freq E -847.705341471884
  N       4.133112      3.674845      1.667639
  C       2.844228      3.239917      1.543511
  O       1.934738      4.012166      1.255168
  N       2.530347      1.895394      1.765868
  C       3.170986      0.660950      1.903347
  O       2.471715     -0.333307      2.071478
  N       4.530175      0.580790      1.862881
  H       4.274077      4.657654      1.490266
  H       4.922627      3.133245      1.967442
  H       1.526465      1.760502      1.746494
  H       5.150112      1.319634      1.586348
  H       4.902564     -0.356149      1.868612
  O      -1.595616      1.706120      0.019811
  O       2.651477      0.087888     -0.622432
  N       0.515123      0.878311     -0.276845
  N       0.911906     -1.395134     -0.440693
  C      -1.347075     -0.665859     -0.096415
  C      -0.872902      0.724708     -0.109667
  C      -0.430112     -1.650252     -0.249587
  C      -2.816842     -0.910729      0.091729
  C       1.458118     -0.121802     -0.463754
  H      -0.701592     -2.701129     -0.236983
  H       0.865414      1.832603     -0.290895
  H       1.585963     -2.146977     -0.465967
  H      -3.397968     -0.427420     -0.701461
  H      -3.164970     -0.483744      1.038668
  H      -3.041514     -1.981635      0.086811
27
Coordinates from ORCA-job biuret_thymine_opt_freq E -847.713156068427
  N       4.183245      3.687406      1.838237
  C       2.926827      3.264700      1.509313
  O       2.087550      4.021918      1.033124
  N       2.568334      1.939034      1.757101
  C       3.196656      0.710184      1.938294
  O       2.496812     -0.280742      2.117687
  N       4.555356      0.630405      1.849891
  H       4.377037      4.656864      1.637705
  H       4.853299      3.177370      2.388764
  H       1.564667      1.822907      1.699352
  H       5.131915      1.342876      1.433937
  H       4.915972     -0.311298      1.827748
  O      -1.626231      1.678376     -0.025215
  O       2.611707      0.054256     -0.716709
  N       0.479360      0.850271     -0.350026
  N       0.876061     -1.424106     -0.485820
  C      -1.376222     -0.694834     -0.096932
  C      -0.903350      0.695963     -0.151105
  C      -0.460184     -1.679581     -0.253048
  C      -2.839910     -0.935880      0.133777
  C       1.420470     -0.150323     -0.540598
  H      -0.726693     -2.731126     -0.214863
  H       0.818347      1.808641     -0.391990
  H       1.548815     -2.177227     -0.510027
  H      -3.441056     -0.470400     -0.655099
  H      -3.164010     -0.488404      1.079726
  H      -3.064218     -2.006663      0.158149
27
Coordinates from ORCA-job biuret_thymine_opt_freq E -847.717469808680
  N       4.231347      3.637501      1.937271
  C       2.987269      3.279780      1.497540
  O       2.232888      4.049538      0.913704
  N       2.568234      1.976622      1.757967
  C       3.198171      0.753631      1.958420
  O       2.511378     -0.242961      2.147013
  N       4.560273      0.709880      1.842552
  H       4.500631      4.590345      1.742451
  H       4.756570      3.128075      2.633072
  H       1.565756      1.876808      1.668833
  H       5.066184      1.415707      1.325533
  H       4.930961     -0.227612      1.791955
  O      -1.646326      1.660816     -0.060787
  O       2.585795      0.039912     -0.775086
  N       0.455726      0.832134     -0.401074
  N       0.857999     -1.442200     -0.510150
  C      -1.391359     -0.714743     -0.095974
  C      -0.925092      0.676555     -0.180101
  C      -0.473927     -1.698759     -0.251632
  C      -2.850146     -0.957168      0.162689
  C       1.396853     -0.168645     -0.587504
  H      -0.735112     -2.750678     -0.194025
  H       0.789926      1.790929     -0.468676
  H       1.532217     -2.194142     -0.533659
  H      -3.465858     -0.507461     -0.624055
  H      -3.160222     -0.495052      1.106256
  H      -3.069580     -2.028219      0.208843
27
Coordinates from ORCA-job biuret_thymine_opt_freq E -847.719571581354
  N       4.267311      3.579013      1.985021
  C       3.017500      3.289136      1.502042
  O       2.327310      4.080919      0.872617
  N       2.547613      2.000142      1.775142
  C       3.195680      0.779743      1.972891
  O       2.530777     -0.227163      2.170936
  N       4.564111      0.781111      1.846365
  H       4.578593      4.526363      1.825910
  H       4.654139      3.081007      2.774897
  H       1.546266      1.904738      1.667534
  H       4.983860      1.472322      1.237216
  H       4.942203     -0.152455      1.761234
  O      -1.643765      1.657307     -0.100808
  O       2.574912      0.020614     -0.828381
  N       0.450025      0.815664     -0.454770
  N       0.849781     -1.459806     -0.530017
  C      -1.393046     -0.721958     -0.093668
  C      -0.930080      0.667049     -0.210376
  C      -0.479009     -1.709659     -0.247782
  C      -2.847594     -0.960870      0.193600
  C       1.387988     -0.189664     -0.630290
  H      -0.740199     -2.760017     -0.168597
  H       0.786704      1.769400     -0.560819
  H       1.522883     -2.212996     -0.554364
  H      -3.476856     -0.526710     -0.591112
  H      -3.142292     -0.481551      1.133491
  H      -3.064261     -2.031092      0.263463
27
Coordinates from ORCA-job biuret_thymine_opt_freq E -847.720489181668
  N       4.259969      3.586380      1.964244
  C       2.996650      3.286921      1.515679
  O       2.290945      4.076935      0.903301
  N       2.539337      1.988287      1.793846
  C       3.200988      0.765637      1.972688
  O       2.543364     -0.244614      2.174512
  N       4.573579      0.771947      1.855819
  H       4.535624      4.549106      1.831098
  H       4.639096      3.101172      2.765547
  H       1.537540      1.881574      1.693067
  H       4.979116      1.453772      1.226648
  H       4.945907     -0.164037      1.761715
  O      -1.625996      1.668285     -0.116599
  O       2.583158      0.005746     -0.847252
  N       0.461585      0.813224     -0.475946
  N       0.851318     -1.464622     -0.535817
  C      -1.385312     -0.712460     -0.092477
  C      -0.918358      0.673571     -0.222017
  C      -0.477313     -1.705409     -0.245847
  C      -2.839177     -0.944715      0.205547
  C       1.395632     -0.197907     -0.644637
  H      -0.743764     -2.753703     -0.157942
  H       0.802980      1.762443     -0.601790
  H       1.520590     -2.221274     -0.561993
  H      -3.471992     -0.514393     -0.578411
  H      -3.126462     -0.457567      1.143712
  H      -3.058449     -2.013707      0.284679
27
Coordinates from ORCA-job biuret_thymine_opt_freq E -847.721388993238
  N       4.260205      3.578859      1.885539
  C       2.959682      3.277383      1.542547
  O       2.212800      4.071135      0.989007
  N       2.525172      1.970086      1.836957
  C       3.199892      0.745043      1.977769
  O       2.553510     -0.271563      2.185705
  N       4.577974      0.761961      1.884597
  H       4.482085      4.560819      1.793479
  H       4.665359      3.101104      2.680034
  H       1.522036      1.848682      1.752274
  H       4.978697      1.438244      1.244652
  H       4.947988     -0.175073      1.784461
  O      -1.612574      1.682103     -0.138662
  O       2.595939      0.000414     -0.865873
  N       0.472768      0.820148     -0.499105
  N       0.858762     -1.459895     -0.537442
  C      -1.374237     -0.698341     -0.094520
  C      -0.906976      0.685773     -0.237953
  C      -0.469527     -1.694333     -0.243259
  C      -2.827515     -0.928250      0.210763
  C       1.407042     -0.195054     -0.655602
  H      -0.739357     -2.740897     -0.145581
  H       0.815966      1.765408     -0.644568
  H       1.525625     -2.218561     -0.565046
  H      -3.463320     -0.504822     -0.574533
  H      -3.111447     -0.433207      1.145825
  H      -3.045992     -1.996576      0.299910
27
Coordinates from ORCA-job biuret_thymine_opt_freq E -847.721688921204
  N       4.266592      3.577723      1.855051
  C       2.954415      3.271021      1.551094
  O       2.185252      4.067337      1.033785
  N       2.529403      1.965494      1.857772
  C       3.201818      0.738947      1.981106
  O       2.557920     -0.278566      2.195584
  N       4.581056      0.755968      1.893562
  H       4.464487      4.566872      1.778929
  H       4.684416      3.108447      2.649482
  H       1.526294      1.842666      1.778942
  H       4.984850      1.425644      1.247989
  H       4.948667     -0.182565      1.797639
  O      -1.617221      1.683103     -0.155892
  O       2.595416      0.003513     -0.878892
  N       0.470476      0.824186     -0.511621
  N       0.860394     -1.455075     -0.535175
  C      -1.373800     -0.695554     -0.097178
  C      -0.908489      0.688368     -0.248225
  C      -0.467146     -1.690684     -0.239844
  C      -2.826759     -0.926498      0.208914
  C       1.406953     -0.189440     -0.661197
  H      -0.735236     -2.737133     -0.135802
  H       0.810687      1.769798     -0.660812
  H       1.528471     -2.212671     -0.559978
  H      -3.463151     -0.508495     -0.578813
  H      -3.112020     -0.427060      1.141236
  H      -3.043190     -1.994757      0.303719
27
Coordinates from ORCA-job biuret_thymine_opt_freq E -847.721996182816
  N       4.281390      3.565944      1.820606
  C       2.953818      3.263013      1.569867
  O       2.167849      4.057419      1.075949
  N       2.535598      1.964412      1.892317
  C       3.201049      0.735968      1.995321
  O       2.558510     -0.282091      2.215320
  N       4.580326      0.752419      1.906667
  H       4.472007      4.556189      1.732325
  H       4.723137      3.113058      2.612736
  H       1.532523      1.845864      1.816162
  H       4.989629      1.416085      1.258035
  H       4.947729     -0.186926      1.818397
  O      -1.635604      1.679201     -0.176091
  O       2.588023      0.023744     -0.893375
  N       0.458681      0.833514     -0.524489
  N       0.863041     -1.442102     -0.533014
  C      -1.377040     -0.696386     -0.103367
  C      -0.919438      0.689175     -0.262714
  C      -0.462810     -1.686228     -0.238002
  C      -2.828890     -0.934047      0.201645
  C       1.401447     -0.172957     -0.667062
  H      -0.723459     -2.733928     -0.127366
  H       0.790935      1.782609     -0.669438
  H       1.536568     -2.194918     -0.552288
  H      -3.466398     -0.524501     -0.589608
  H      -3.119025     -0.430903      1.130472
  H      -3.039042     -2.003037      0.302368
27
Coordinates from ORCA-job biuret_thymine_opt_freq E -847.722239971422
  N       4.295427      3.559710      1.813413
  C       2.963930      3.256672      1.578987
  O       2.170060      4.050343      1.095541
  N       2.546464      1.966296      1.919874
  C       3.204584      0.735149      2.011661
  O       2.560172     -0.281070      2.237813
  N       4.582388      0.747566      1.909168
  H       4.487635      4.547308      1.701137
  H       4.747759      3.124749      2.609705
  H       1.542683      1.855488      1.845039
  H       4.992325      1.404841      1.254555
  H       4.948507     -0.192704      1.827735
  O      -1.657289      1.673031     -0.200465
  O       2.576293      0.045309     -0.910258
  N       0.443440      0.840405     -0.538753
  N       0.863538     -1.431055     -0.530819
  C      -1.382867     -0.699856     -0.108737
  C      -0.933617      0.687387     -0.276465
  C      -0.460340     -1.683983     -0.234479
  C      -2.833430     -0.944181      0.195462
  C       1.392253     -0.158627     -0.675455
  H      -0.712486     -2.732924     -0.116055
  H       0.767582      1.793246     -0.678627
  H       1.543298     -2.178352     -0.542389
  H      -3.472112     -0.543359     -0.599304
  H      -3.128344     -0.436995      1.120581
  H      -3.037296     -2.013801      0.302509
27
Coordinates from ORCA-job biuret_thymine_opt_freq E -847.722508796197
  N       4.309373      3.547213      1.805684
  C       2.974443      3.249032      1.591612
  O       2.179446      4.038511      1.101668
  N       2.554164      1.967662      1.957456
  C       3.205989      0.731993      2.038925
  O       2.557858     -0.280971      2.270199
  N       4.580987      0.738715      1.914625
  H       4.513175      4.526541      1.651527
  H       4.774813      3.132413      2.604453
  H       1.549024      1.866700      1.885532
  H       4.988389      1.394014      1.256816
  H       4.945770     -0.202101      1.835325
  O      -1.684763      1.667101     -0.226407
  O       2.562569      0.080011     -0.928923
  N       0.423617      0.852661     -0.557778
  N       0.867088     -1.413313     -0.530869
  C      -1.387647     -0.702776     -0.115718
  C      -0.952616      0.687167     -0.296646
  C      -0.453940     -1.678176     -0.231954
  C      -2.835555     -0.958276      0.190568
  C       1.381761     -0.136683     -0.687235
  H      -0.694036     -2.728750     -0.103622
  H       0.737909      1.809781     -0.691192
  H       1.555515     -2.152760     -0.533074
  H      -3.477919     -0.570584     -0.607733
  H      -3.135709     -0.445700      1.111032
  H      -3.029147     -2.028834      0.307104
27
Coordinates from ORCA-job biuret_thymine_opt_freq E -847.722787041038
  N       4.321276      3.535775      1.799963
  C       2.986615      3.239757      1.599551
  O       2.192984      4.022998      1.096395
  N       2.561974      1.967440      1.998193
  C       3.208343      0.725330      2.072019
  O       2.554111     -0.281659      2.311548
  N       4.578682      0.721981      1.917368
  H       4.537544      4.504413      1.603766
  H       4.797368      3.137184      2.599667
  H       1.554966      1.876050      1.935855
  H       4.980055      1.379696      1.258889
  H       4.939282     -0.219847      1.833595
  O      -1.717384      1.661787     -0.261433
  O       2.547729      0.122677     -0.949073
  N       0.400876      0.869216     -0.580512
  N       0.873453     -1.390440     -0.528392
  C      -1.390604     -0.703735     -0.121191
  C      -0.973296      0.689845     -0.314546
  C      -0.444173     -1.668238     -0.225593
  C      -2.835465     -0.974260      0.186373
  C       1.370819     -0.109643     -0.700853
  H      -0.670425     -2.720311     -0.085275
  H       0.704786      1.829748     -0.713335
  H       1.571698     -2.120649     -0.520197
  H      -3.481849     -0.601887     -0.615969
  H      -3.142703     -0.456690      1.101692
  H      -3.016108     -2.045948      0.312868
27
Coordinates from ORCA-job biuret_thymine_opt_freq E -847.723021564509
  N       4.328029      3.522112      1.794027
  C       2.994469      3.227797      1.602341
  O       2.204355      4.003824      1.082843
  N       2.564312      1.964533      2.035184
  C       3.204584      0.715239      2.104150
  O       2.542909     -0.283988      2.354585
  N       4.569759      0.698459      1.920999
  H       4.554174      4.482137      1.570346
  H       4.808274      3.131801      2.594641
  H       1.555623      1.880110      1.986644
  H       4.965098      1.361791      1.265029
  H       4.922688     -0.245120      1.827195
  O      -1.746323      1.659318     -0.293261
  O       2.537213      0.168199     -0.971494
  N       0.379885      0.888817     -0.614335
  N       0.884516     -1.363664     -0.528916
  C      -1.387787     -0.700756     -0.126510
  C      -0.992321      0.695300     -0.346290
  C      -0.428977     -1.653576     -0.218793
  C      -2.827420     -0.987354      0.192070
  C       1.363607     -0.079260     -0.720421
  H      -0.640548     -2.706175     -0.060822
  H       0.674686      1.851380     -0.751902
  H       1.592484     -2.084283     -0.509711
  H      -3.482430     -0.638368     -0.613778
  H      -3.138381     -0.458519      1.099681
  H      -2.991922     -2.059166      0.337873
27
Coordinates from ORCA-job biuret_thymine_opt_freq E -847.723195813524
  N       4.334200      3.505016      1.778562
  C       2.998415      3.214596      1.605238
  O       2.209224      3.982613      1.073804
  N       2.566421      1.960149      2.070435
  C       3.200066      0.704765      2.133036
  O       2.533128     -0.286940      2.398979
  N       4.559980      0.674162      1.922526
  H       4.566309      4.459939      1.540151
  H       4.819925      3.116634      2.576684
  H       1.556610      1.879128      2.042792
  H       4.949552      1.344332      1.270308
  H       4.903736     -0.271285      1.816048
  O      -1.777782      1.655823     -0.334973
  O       2.527699      0.215355     -0.989947
  N       0.359824      0.910650     -0.643665
  N       0.897903     -1.333422     -0.521996
  C      -1.383001     -0.695617     -0.127901
  C      -1.007827      0.703742     -0.363510
  C      -0.411548     -1.635938     -0.205979
  C      -2.818542     -1.000024      0.194308
  C       1.357698     -0.045811     -0.735296
  H      -0.608898     -2.688765     -0.032042
  H       0.645174      1.873725     -0.795807
  H       1.615283     -2.044365     -0.493440
  H      -3.478643     -0.671284     -0.615923
  H      -3.137258     -0.464399      1.095218
  H      -2.967091     -2.072189      0.353765
27
Coordinates from ORCA-job biuret_thymine_opt_freq E -847.723309779966
  N       4.335596      3.490684      1.768077
  C       2.997032      3.202548      1.605333
  O       2.206444      3.967639      1.073011
  N       2.565678      1.954604      2.090141
  C       3.192201      0.695762      2.148634
  O       2.522479     -0.290451      2.429417
  N       4.548872      0.653704      1.921334
  H       4.568628      4.445732      1.530723
  H       4.821028      3.101707      2.566465
  H       1.555615      1.874127      2.080506
  H       4.936653      1.326317      1.270525
  H       4.884657     -0.293596      1.807679
  O      -1.796906      1.653760     -0.364541
  O       2.523851      0.249308     -1.005604
  N       0.347352      0.926458     -0.672978
  N       0.910301     -1.309832     -0.517752
  C      -1.376263     -0.689979     -0.128935
  C      -1.017000      0.709767     -0.387619
  C      -0.395630     -1.621248     -0.195220
  C      -2.807505     -1.005499      0.202402
  C       1.355902     -0.020362     -0.749893
  H      -0.582014     -2.673209     -0.004718
  H       0.625768      1.889296     -0.838631
  H       1.634463     -2.013393     -0.480920
  H      -3.473554     -0.697636     -0.611170
  H      -3.129744     -0.459066      1.095530
  H      -2.943347     -2.076553      0.379579
27
Coordinates from ORCA-job biuret_thymine_opt_freq E -847.723388553622
  N       4.335430      3.474870      1.756052
  C       2.992278      3.191895      1.607248
  O       2.199040      3.957213      1.080323
  N       2.563651      1.948341      2.102451
  C       3.183975      0.688310      2.157789
  O       2.514581     -0.294399      2.453693
  N       4.538251      0.638044      1.917037
  H       4.569412      4.430501      1.521564
  H       4.821661      3.085709      2.554274
  H       1.553803      1.867126      2.111020
  H       4.925228      1.310090      1.265049
  H       4.868414     -0.310700      1.800241
  O      -1.812122      1.651133     -0.391892
  O       2.522329      0.278347     -1.014492
  N       0.338561      0.940010     -0.694882
  N       0.922159     -1.288648     -0.510293
  C      -1.369711     -0.684816     -0.128789
  C      -1.022686      0.714796     -0.405543
  C      -0.380863     -1.608265     -0.183589
  C      -2.797812     -1.008735      0.207699
  C       1.355818      0.002220     -0.758661
  H      -0.557835     -2.659229      0.020838
  H       0.610215      1.902492     -0.873353
  H       1.652116     -1.985662     -0.465777
  H      -3.467124     -0.718272     -0.609597
  H      -3.124614     -0.453263      1.093542
  H      -2.923601     -2.078517      0.399425
27
Coordinates from ORCA-job biuret_thymine_opt_freq E -847.723450704639
  N       4.332551      3.459996      1.744051
  C       2.985202      3.182226      1.610063
  O       2.188107      3.950560      1.094051
  N       2.560592      1.940546      2.108983
  C       3.177241      0.680763      2.163122
  O       2.510362     -0.299699      2.473934
  N       4.529015      0.625405      1.908799
  H       4.567390      4.415550      1.509701
  H       4.822471      3.071862      2.540796
  H       1.551173      1.858703      2.135804
  H       4.914071      1.294436      1.252527
  H       4.855969     -0.324393      1.792357
  O      -1.823280      1.648996     -0.416365
  O       2.522978      0.303234     -1.015948
  N       0.333272      0.951759     -0.709272
  N       0.933328     -1.269985     -0.499680
  C      -1.363682     -0.680039     -0.128245
  C      -1.025990      0.719015     -0.419517
  C      -0.367589     -1.596738     -0.171461
  C      -2.789857     -1.010141      0.209511
  C       1.357404      0.021743     -0.761212
  H      -0.536659     -2.646688      0.044460
  H       0.598528      1.914180     -0.897502
  H       1.668267     -1.961116     -0.446942
  H      -3.459851     -0.734124     -0.612229
  H      -3.122377     -0.446889      1.088263
  H      -2.908081     -2.078570      0.413324
27
Coordinates from ORCA-job biuret_thymine_opt_freq E -847.723540644743
  N       4.324480      3.437761      1.723503
  C       2.971778      3.167698      1.615666
  O       2.167776      3.942340      1.120499
  N       2.554140      1.926147      2.115510
  C       3.169423      0.667836      2.169622
  O       2.508900     -0.310339      2.502805
  N       4.516604      0.608874      1.892541
  H       4.559538      4.392414      1.485344
  H       4.824714      3.052107      2.515248
  H       1.545861      1.844171      2.170156
  H       4.894187      1.271475      1.225452
  H       4.841400     -0.341936      1.778975
  O      -1.836078      1.647006     -0.451193
  O       2.526607      0.338183     -1.009030
  N       0.329030      0.968801     -0.722743
  N       0.950061     -1.243275     -0.479500
  C      -1.354712     -0.672458     -0.127352
  C      -1.028816      0.725479     -0.436950
  C      -0.348707     -1.579579     -0.152403
  C      -2.779268     -1.010705      0.207817
  C       1.362016      0.049107     -0.757499
  H      -0.507449     -2.627960      0.078354
  H       0.585143      1.931471     -0.921979
  H       1.691748     -1.925948     -0.413117
  H      -3.447404     -0.753816     -0.621606
  H      -3.122158     -0.437241      1.075888
  H      -2.888256     -2.077022      0.427366
27
Coordinates from ORCA-job biuret_thymine_opt_freq E -847.723667817527
  N       4.306831      3.406956      1.689322
  C       2.948776      3.145556      1.624646
  O       2.133060      3.930188      1.165336
  N       2.542625      1.901018      2.121885
  C       3.161615      0.646098      2.177878
  O       2.513841     -0.329643      2.543980
  N       4.500444      0.586621      1.864059
  H       4.538247      4.360729      1.443764
  H       4.828877      3.023891      2.468245
  H       1.537283      1.819937      2.217246
  H       4.859213      1.237644      1.175479
  H       4.825440     -0.364885      1.757169
  O      -1.849049      1.646111     -0.499842
  O       2.535614      0.386126     -0.987165
  N       0.327850      0.993236     -0.732695
  N       0.974446     -1.205562     -0.444179
  C      -1.341342     -0.660117     -0.125992
  C      -1.029831      0.735813     -0.458296
  C      -0.322664     -1.553915     -0.123258
  C      -2.765058     -1.009396      0.199885
  C       1.371889      0.086836     -0.742360
  H      -0.468842     -2.599780      0.126319
  H       0.571867      1.956448     -0.943804
  H       1.724641     -1.876395     -0.356012
  H      -3.426785     -0.777393     -0.641919
  H      -3.125231     -0.423072      1.052203
  H      -2.863203     -2.072461      0.439480
27
Coordinates from ORCA-job biuret_thymine_opt_freq E -847.723821315330
  N       4.278562      3.374116      1.644869
  C       2.918395      3.117633      1.635503
  O       2.087332      3.912308      1.222100
  N       2.527323      1.866685      2.127482
  C       3.157475      0.617363      2.186956
  O       2.529163     -0.356271      2.591836
  N       4.484113      0.562602      1.826121
  H       4.499321      4.328672      1.392395
  H       4.833070      2.990633      2.400724
  H       1.527302      1.787723      2.268889
  H       4.808861      1.196836      1.105599
  H       4.813487     -0.388594      1.729508
  O      -1.856926      1.647847     -0.554817
  O       2.550280      0.438411     -0.949609
  N       0.332189      1.021186     -0.735323
  N       1.002528     -1.162942     -0.396763
  C      -1.325158     -0.643613     -0.124489
  C      -1.027113      0.749472     -0.479713
  C      -0.294372     -1.522765     -0.087786
  C      -2.749272     -1.005067      0.185445
  C       1.386944      0.128386     -0.714838
  H      -0.429259     -2.565316      0.181170
  H       0.564417      1.985032     -0.955957
  H       1.760602     -1.820683     -0.281003
  H      -3.399798     -0.799111     -0.671711
  H      -3.131239     -0.405846      1.019095
  H      -2.837671     -2.064108      0.445691
27
Coordinates from ORCA-job biuret_thymine_opt_freq E -847.723963932024
  N       4.244574      3.348260      1.600217
  C       2.887411      3.088550      1.645225
  O       2.039475      3.887282      1.274421
  N       2.513281      1.830336      2.134952
  C       3.159916      0.588032      2.197294
  O       2.554129     -0.384036      2.638144
  N       4.472648      0.541939      1.788894
  H       4.448768      4.305999      1.345914
  H       4.835287      2.958528      2.324513
  H       1.519558      1.753852      2.315508
  H       4.752086      1.156007      1.032532
  H       4.810099     -0.407745      1.704210
  O      -1.858135      1.652555     -0.605007
  O       2.566667      0.484039     -0.907491
  N       0.340373      1.046521     -0.733260
  N       1.027623     -1.124449     -0.348778
  C      -1.309805     -0.625751     -0.123587
  C      -1.021536      0.764258     -0.498048
  C      -0.270524     -1.492292     -0.054173
  C      -2.735038     -0.998278      0.168633
  C       1.403315      0.164944     -0.683232
  H      -0.398165     -2.531386      0.231144
  H       0.564712      2.010881     -0.959008
  H       1.790803     -1.770916     -0.205651
  H      -3.372774     -0.814475     -0.703031
  H      -3.137738     -0.388652      0.984818
  H      -2.816454     -2.053412      0.446223
27
Coordinates from ORCA-job biuret_thymine_opt_freq E -847.724108501325
  N       4.214218      3.332792      1.566122
  C       2.863308      3.063112      1.651796
  O       1.999366      3.857256      1.307597
  N       2.506003      1.800722      2.148770
  C       3.168430      0.565157      2.210850
  O       2.582947     -0.406072      2.678299
  N       4.468980      0.528179      1.763474
  H       4.402231      4.294524      1.314897
  H       4.835531      2.931960      2.257644
  H       1.517059      1.725674      2.353383
  H       4.702129      1.121451      0.975088
  H       4.815215     -0.419452      1.689847
  O      -1.857715      1.657917     -0.643772
  O       2.578345      0.518148     -0.877477
  N       0.346566      1.065189     -0.734550
  N       1.044967     -1.095194     -0.312960
  C      -1.298874     -0.610237     -0.124062
  C      -1.017269      0.777069     -0.513507
  C      -0.254681     -1.467589     -0.029600
  C      -2.724756     -0.991645      0.155277
  C       1.415191      0.192067     -0.660425
  H      -0.378485     -2.503665      0.268087
  H       0.567469      2.029826     -0.962006
  H       1.810674     -1.733730     -0.148734
  H      -3.352681     -0.824580     -0.726799
  H      -3.142554     -0.374698      0.958287
  H      -2.801059     -2.043592      0.445850
27
Coordinates from ORCA-job biuret_thymine_opt_freq E -847.724263737558
  N       4.166449      3.307709      1.517353
  C       2.827423      3.020521      1.660859
  O       1.938873      3.802210      1.350480
  N       2.499719      1.755894      2.179435
  C       3.183387      0.531423      2.237443
  O       2.631257     -0.438732      2.745193
  N       4.463779      0.508213      1.730551
  H       4.333583      4.274511      1.271949
  H       4.831172      2.886199      2.153474
  H       1.518431      1.680296      2.417153
  H       4.622347      1.063788      0.896682
  H       4.825387     -0.435137      1.674470
  O      -1.860905      1.663405     -0.706387
  O       2.591588      0.575179     -0.842707
  N       0.351759      1.094833     -0.747716
  N       1.070719     -1.045878     -0.262969
  C      -1.282189     -0.585620     -0.125552
  C      -1.012773      0.796539     -0.542307
  C      -0.229843     -1.426902      0.006990
  C      -2.707393     -0.981836      0.138884
  C       1.429625      0.237415     -0.634747
  H      -0.346407     -2.457288      0.326447
  H       0.567167      2.059325     -0.980762
  H       1.840508     -1.670992     -0.068475
  H      -3.322213     -0.843975     -0.757336
  H      -3.146992     -0.352757      0.920574
  H      -2.773903     -2.027753      0.452394
27
Coordinates from ORCA-job biuret_thymine_opt_freq E -847.724464298185
  N       4.119104      3.294248      1.485030
  C       2.793636      2.982484      1.667332
  O       1.880379      3.744775      1.379499
  N       2.498995      1.716492      2.207452
  C       3.203442      0.505444      2.261357
  O       2.685964     -0.465420      2.801743
  N       4.467155      0.496342      1.706969
  H       4.268937      4.265448      1.247979
  H       4.819606      2.849813      2.063978
  H       1.523841      1.633775      2.466562
  H       4.556150      1.004828      0.832604
  H       4.847587     -0.441114      1.673983
  O      -1.860984      1.668483     -0.757791
  O       2.602129      0.617749     -0.820266
  N       0.356686      1.116355     -0.765395
  N       1.088882     -1.006243     -0.225430
  C      -1.269803     -0.563684     -0.127193
  C      -1.007520      0.812647     -0.568274
  C      -0.212593     -1.392906      0.035467
  C      -2.694388     -0.968809      0.128335
  C       1.440552      0.272365     -0.619440
  H      -0.324897     -2.417702      0.373813
  H       0.570397      2.079626     -1.004624
  H       1.860291     -1.622033     -0.008544
  H      -3.299375     -0.854987     -0.777866
  H      -3.149100     -0.328576      0.892108
  H      -2.754518     -2.008810      0.461986
27
Coordinates from ORCA-job biuret_thymine_opt_freq E -847.724694773767
  N       4.065633      3.282509      1.460920
  C       2.754465      2.944076      1.673629
  O       1.816665      3.685878      1.410142
  N       2.496829      1.674923      2.228026
  C       3.224660      0.482215      2.280698
  O       2.748603     -0.491390      2.853768
  N       4.472736      0.491304      1.682702
  H       4.203238      4.256530      1.230847
  H       4.798990      2.811618      1.973805
  H       1.528981      1.577147      2.508506
  H       4.494999      0.941074      0.771275
  H       4.879484     -0.436102      1.679654
  O      -1.857117      1.673080     -0.807415
  O       2.614043      0.654550     -0.797778
  N       0.364100      1.135309     -0.784650
  N       1.105348     -0.968467     -0.189297
  C      -1.257679     -0.541560     -0.127559
  C      -0.999139      0.827617     -0.593675
  C      -0.196878     -1.360069      0.063955
  C      -2.682164     -0.951160      0.120434
  C       1.451783      0.304370     -0.606033
  H      -0.305994     -2.378675      0.421398
  H       0.577595      2.096049     -1.034122
  H       1.877229     -1.576812      0.046391
  H      -3.277447     -0.860645     -0.794757
  H      -3.149820     -0.298370      0.865483
  H      -2.738589     -1.984410      0.475029
27
Coordinates from ORCA-job biuret_thymine_opt_freq E -847.724902328906
  N       4.019363      3.279310      1.460275
  C       2.720516      2.913605      1.682719
  O       1.761080      3.632120      1.432129
  N       2.499139      1.641262      2.246978
  C       3.248774      0.468136      2.298105
  O       2.813940     -0.510062      2.895544
  N       4.486703      0.496437      1.669499
  H       4.152211      4.251753      1.224506
  H       4.776634      2.784066      1.910927
  H       1.537907      1.520360      2.541156
  H       4.461645      0.887269      0.729854
  H       4.922461     -0.417738      1.699187
  O      -1.855441      1.674390     -0.849787
  O       2.619777      0.675956     -0.794655
  N       0.367273      1.145055     -0.812493
  N       1.112868     -0.941808     -0.169233
  C      -1.252068     -0.524624     -0.128487
  C      -0.994011      0.836647     -0.618482
  C      -0.189187     -1.336028      0.083414
  C      -2.676644     -0.931773      0.119514
  C       1.456389      0.324297     -0.608658
  H      -0.295826     -2.348473      0.458552
  H       0.581871      2.101894     -1.075952
  H       1.884665     -1.547125      0.074588
  H      -3.267198     -0.860313     -0.800415
  H      -3.149932     -0.265765      0.849074
  H      -2.732353     -1.958258      0.493515
27
Coordinates from ORCA-job biuret_thymine_opt_freq E -847.725016146351
  N       3.955452      3.239361      1.425500
  C       2.674997      2.857299      1.700990
  O       1.694391      3.560397      1.490452
  N       2.494740      1.583738      2.281021
  C       3.268189      0.429134      2.325735
  O       2.886380     -0.545346      2.970696
  N       4.472213      0.478934      1.630944
  H       4.073547      4.207932      1.169133
  H       4.742676      2.731784      1.804701
  H       1.550072      1.451908      2.619917
  H       4.372044      0.809907      0.672729
  H       4.943735     -0.416826      1.679262
  O      -1.858325      1.667947     -0.936147
  O       2.627878      0.744004     -0.774623
  N       0.371732      1.178021     -0.848396
  N       1.140776     -0.874914     -0.118442
  C      -1.230846     -0.494674     -0.128780
  C      -0.986942      0.853652     -0.662720
  C      -0.158897     -1.281788      0.127953
  C      -2.652781     -0.914796      0.111492
  C       1.467037      0.380448     -0.597246
  H      -0.255082     -2.282183      0.536657
  H       0.575483      2.131527     -1.132756
  H       1.918308     -1.461120      0.152627
  H      -3.229377     -0.885282     -0.819519
  H      -3.147783     -0.230468      0.808949
  H      -2.699061     -1.928007      0.521246
27
Coordinates from ORCA-job biuret_thymine_opt_freq E -847.725242935522
  N       3.948041      3.254196      1.471853
  C       2.669007      2.858954      1.723975
  O       1.682102      3.552377      1.512277
  N       2.503577      1.577882      2.292478
  C       3.289377      0.432826      2.334244
  O       2.930808     -0.545624      2.983747
  N       4.491614      0.493918      1.634091
  H       4.073237      4.208059      1.169818
  H       4.740197      2.736776      1.826400
  H       1.564944      1.424762      2.639805
  H       4.398618      0.816417      0.671731
  H       4.980363     -0.391925      1.696091
  O      -1.864502      1.658153     -0.963210
  O       2.620308      0.727880     -0.808077
  N       0.364128      1.165276     -0.882023
  N       1.129266     -0.878761     -0.129400
  C      -1.240789     -0.495446     -0.132102
  C      -0.993376      0.844836     -0.683367
  C      -0.169196     -1.282629      0.127251
  C      -2.663694     -0.902715      0.119019
  C       1.458120      0.369144     -0.626209
  H      -0.263917     -2.278307      0.547704
  H       0.566426      2.112566     -1.185383
  H       1.907052     -1.470003      0.129577
  H      -3.244490     -0.880736     -0.809619
  H      -3.151987     -0.206609      0.809462
  H      -2.714679     -1.910676      0.541240
27
Coordinates from ORCA-job biuret_thymine_opt_freq E -847.725460289677
  N       3.919702      3.250643      1.480904
  C       2.652169      2.838761      1.750466
  O       1.653170      3.521662      1.561447
  N       2.510013      1.550937      2.314502
  C       3.314626      0.416536      2.349979
  O       2.988483     -0.556738      3.022965
  N       4.493909      0.485772      1.613581
  H       4.029661      4.195741      1.148082
  H       4.727744      2.729318      1.789601
  H       1.583687      1.391705      2.690646
  H       4.365966      0.787424      0.648284
  H       5.000421     -0.389959      1.678345
  O      -1.866555      1.647800     -1.021063
  O       2.621213      0.744757     -0.816900
  N       0.363786      1.168974     -0.912656
  N       1.133904     -0.853348     -0.109104
  C      -1.237862     -0.482929     -0.135426
  C      -0.993974      0.845613     -0.715594
  C      -0.164370     -1.258719      0.147313
  C      -2.660554     -0.891037      0.115969
  C       1.459541      0.384198     -0.633061
  H      -0.256202     -2.245566      0.588722
  H       0.560700      2.110634     -1.235478
  H       1.913416     -1.438380      0.158639
  H      -3.235576     -0.891966     -0.816520
  H      -3.156090     -0.181706      0.787563
  H      -2.710374     -1.889538      0.560168
27
Coordinates from ORCA-job biuret_thymine_opt_freq E -847.725943020862
  N       3.875030      3.252113      1.511263
  C       2.627912      2.813348      1.816213
  O       1.614020      3.490949      1.692748
  N       2.520127      1.503971      2.345172
  C       3.369621      0.394249      2.370709
  O       3.108742     -0.564701      3.088516
  N       4.496248      0.474710      1.562665
  H       3.949914      4.180125      1.125746
  H       4.705158      2.713925      1.710264
  H       1.625422      1.340827      2.790537
  H       4.301347      0.762199      0.603904
  H       5.031708     -0.384513      1.613771
  O      -1.861339      1.623019     -1.137307
  O       2.627533      0.755347     -0.827407
  N       0.368475      1.162171     -0.963468
  N       1.135543     -0.817114     -0.063986
  C      -1.237643     -0.462815     -0.143733
  C      -0.993275      0.839542     -0.778198
  C      -0.165424     -1.219486      0.185653
  C      -2.661950     -0.869938      0.103978
  C       1.465114      0.397401     -0.637783
  H      -0.258380     -2.188424      0.664935
  H       0.559665      2.086699     -1.333445
  H       1.914568     -1.395172      0.219973
  H      -3.222831     -0.912543     -0.836115
  H      -3.170683     -0.136009      0.738314
  H      -2.714063     -1.849288      0.588458
27
Coordinates from ORCA-job biuret_thymine_opt_freq E -847.726218189305
  N       3.834366      3.246372      1.531738
  C       2.604519      2.783332      1.862941
  O       1.578474      3.450429      1.789224
  N       2.528769      1.460384      2.366981
  C       3.416506      0.379989      2.387584
  O       3.217593     -0.566173      3.142107
  N       4.499395      0.474125      1.522795
  H       3.878855      4.167666      1.126763
  H       4.669945      2.689658      1.630933
  H       1.662163      1.287319      2.861788
  H       4.240737      0.722403      0.567126
  H       5.067466     -0.364005      1.572141
  O      -1.855728      1.602286     -1.228938
  O       2.631634      0.767308     -0.831250
  N       0.372884      1.158211     -1.006421
  N       1.137390     -0.782304     -0.025874
  C      -1.236598     -0.443095     -0.149934
  C      -0.990521      0.836560     -0.828309
  C      -0.165346     -1.182968      0.218359
  C      -2.661850     -0.849301      0.094806
  C       1.468535      0.411967     -0.639627
  H      -0.260063     -2.135774      0.728649
  H       0.563963      2.065920     -1.415915
  H       1.915006     -1.354377      0.273992
  H      -3.210966     -0.927199     -0.849933
  H      -3.181348     -0.096541      0.697557
  H      -2.715225     -1.811603      0.612093
27
Coordinates from ORCA-job biuret_thymine_opt_freq E -847.726471307363
  N       3.823200      3.261646      1.582897
  C       2.603615      2.776954      1.936537
  O       1.576080      3.445201      1.929930
  N       2.545736      1.433793      2.383822
  C       3.475495      0.388809      2.398534
  O       3.338533     -0.543850      3.180086
  N       4.513955      0.488089      1.482720
  H       3.837896      4.183726      1.175726
  H       4.647116      2.678056      1.556962
  H       1.716091      1.252373      2.935692
  H       4.203405      0.733608      0.540592
  H       5.101930     -0.336539      1.510558
  O      -1.849905      1.573946     -1.323719
  O       2.630648      0.738912     -0.847963
  N       0.372850      1.129033     -1.052183
  N       1.119569     -0.775512      0.003498
  C      -1.252561     -0.434605     -0.164172
  C      -0.994781      0.819622     -0.883128
  C      -0.187589     -1.165011      0.239890
  C      -2.680733     -0.832389      0.079333
  C       1.464636      0.395627     -0.646671
  H      -0.292532     -2.101327      0.778028
  H       0.572872      2.009189     -1.515905
  H       1.889777     -1.349895      0.317973
  H      -3.220853     -0.938997     -0.867726
  H      -3.204215     -0.061409      0.654997
  H      -2.739681     -1.778459      0.625067
27
Coordinates from ORCA-job biuret_thymine_opt_freq E -847.726617325714
  N       3.791671      3.243381      1.592180
  C       2.589117      2.739501      1.976812
  O       1.553719      3.394072      2.013279
  N       2.563474      1.393394      2.418245
  C       3.517146      0.373426      2.423183
  O       3.436254     -0.544088      3.234664
  N       4.510372      0.483020      1.457073
  H       3.775689      4.159054      1.170955
  H       4.606868      2.655013      1.492503
  H       1.762635      1.203712      3.008588
  H       4.150502      0.686190      0.521177
  H       5.135368     -0.314216      1.484135
  O      -1.856889      1.542299     -1.411409
  O       2.622553      0.766117     -0.863155
  N       0.367320      1.129650     -1.106167
  N       1.122225     -0.729106      0.030427
  C      -1.251589     -0.416114     -0.172496
  C      -0.998047      0.813493     -0.935904
  C      -0.183675     -1.122430      0.268500
  C      -2.678390     -0.816372      0.072747
  C       1.458085      0.420084     -0.659923
  H      -0.285905     -2.039550      0.839231
  H       0.564504      1.992743     -1.602609
  H       1.894315     -1.288739      0.365948
  H      -3.209617     -0.961150     -0.874268
  H      -3.213033     -0.029878      0.616255
  H      -2.734115     -1.742914      0.651403
27
Coordinates from ORCA-job biuret_thymine_opt_freq E -847.726724916476
  N       3.799896      3.250771      1.596228
  C       2.599077      2.744601      1.992753
  O       1.564546      3.398365      2.041640
  N       2.576496      1.399057      2.429814
  C       3.528489      0.379310      2.428678
  O       3.452683     -0.539046      3.237619
  N       4.516834      0.486453      1.457022
  H       3.783941      4.172416      1.187316
  H       4.619023      2.666771      1.499503
  H       1.778768      1.208339      3.023506
  H       4.156283      0.691928      0.521977
  H       5.141330     -0.311132      1.480375
  O      -1.863960      1.534281     -1.423254
  O       2.615284      0.755208     -0.876402
  N       0.360271      1.120186     -1.119359
  N       1.113393     -0.734723      0.024911
  C      -1.260268     -0.420060     -0.178668
  C      -1.004701      0.806320     -0.946367
  C      -0.192891     -1.125295      0.265748
  C      -2.687386     -0.817504      0.068072
  C       1.450470      0.411227     -0.669396
  H      -0.296809     -2.039791      0.840376
  H       0.559607      1.979660     -1.620727
  H       1.884067     -1.290956      0.368884
  H      -3.219652     -0.963466     -0.878156
  H      -3.220707     -0.029465      0.610656
  H      -2.743526     -1.742864      0.648626
27
Coordinates from ORCA-job biuret_thymine_opt_freq E -847.726878158846
  N       3.803049      3.258557      1.603853
  C       2.613781      2.750864      2.039292
  O       1.585869      3.409224      2.136742
  N       2.599574      1.400309      2.453336
  C       3.558991      0.387393      2.438183
  O       3.509377     -0.529308      3.249385
  N       4.522557      0.493277      1.442161
  H       3.780407      4.190211      1.218967
  H       4.621691      2.678395      1.483775
  H       1.819404      1.206995      3.069638
  H       4.149682      0.702320      0.512951
  H       5.154061     -0.298842      1.452787
  O      -1.870673      1.510717     -1.467574
  O       2.606494      0.734709     -0.893242
  N       0.352194      1.098163     -1.150891
  N       1.097562     -0.738221      0.025830
  C      -1.274973     -0.423974     -0.191524
  C      -1.012970      0.789193     -0.977053
  C      -0.210553     -1.122505      0.269401
  C      -2.703755     -0.814331      0.055034
  C       1.440201      0.395624     -0.684062
  H      -0.319338     -2.027347      0.858245
  H       0.557550      1.944798     -1.669994
  H       1.864580     -1.283990      0.393725
  H      -3.233704     -0.970073     -0.890868
  H      -3.236980     -0.018922      0.586892
  H      -2.763523     -1.732647      0.646387
27
Coordinates from ORCA-job biuret_thymine_opt_freq E -847.727055213834
  N       3.801687      3.262716      1.598526
  C       2.634569      2.760287      2.095837
  O       1.618872      3.425954      2.252885
  N       2.628306      1.404614      2.489881
  C       3.591712      0.393720      2.450212
  O       3.570593     -0.521586      3.262789
  N       4.521047      0.497159      1.423437
  H       3.777804      4.210488      1.255743
  H       4.622100      2.689126      1.462549
  H       1.868927      1.211427      3.131521
  H       4.127336      0.711775      0.504465
  H       5.155060     -0.292827      1.414220
  O      -1.878846      1.480710     -1.521816
  O       2.596009      0.717740     -0.910533
  N       0.342961      1.072930     -1.190264
  N       1.082353     -0.739883      0.025751
  C      -1.289021     -0.428624     -0.206918
  C      -1.022316      0.768724     -1.014845
  C      -0.227501     -1.117306      0.273670
  C      -2.719249     -0.812948      0.039997
  C       1.429083      0.380414     -0.702309
  H      -0.340413     -2.010305      0.879530
  H       0.555190      1.907157     -1.726256
  H       1.846035     -1.267675      0.425620
  H      -3.246059     -0.981822     -0.905329
  H      -3.253430     -0.009151      0.558149
  H      -2.782254     -1.722223      0.644862
27
Coordinates from ORCA-job biuret_thymine_opt_freq E -847.727276639095
  N       3.790298      3.264055      1.578833
  C       2.659513      2.775055      2.159712
  O       1.666040      3.452922      2.392337
  N       2.658129      1.412377      2.531898
  C       3.621340      0.399811      2.457660
  O       3.631047     -0.515857      3.269965
  N       4.510626      0.501778      1.397902
  H       3.778033      4.233802      1.305313
  H       4.615790      2.699862      1.438413
  H       1.924372      1.219635      3.203025
  H       4.092399      0.725259      0.492061
  H       5.143230     -0.288694      1.364308
  O      -1.883147      1.445746     -1.582555
  O       2.587813      0.698971     -0.922435
  N       0.336843      1.042034     -1.233093
  N       1.068287     -0.744706      0.025828
  C      -1.301319     -0.434456     -0.223046
  C      -1.029291      0.744270     -1.056708
  C      -0.243661     -1.112887      0.278774
  C      -2.733606     -0.810828      0.024414
  C       1.420185      0.361471     -0.721086
  H      -0.360846     -1.992363      0.903263
  H       0.556828      1.863612     -1.785232
  H       1.828049     -1.249813      0.461172
  H      -3.256460     -0.995061     -0.920185
  H      -3.268235      0.003438      0.525521
  H      -2.801702     -1.708841      0.645316
27
Coordinates from ORCA-job biuret_thymine_opt_freq E -847.727485214773
  N       3.767977      3.260601      1.543562
  C       2.689249      2.792290      2.225413
  O       1.729255      3.485292      2.541267
  N       2.689270      1.423069      2.580910
  C       3.645527      0.405317      2.461844
  O       3.686350     -0.511456      3.273373
  N       4.490912      0.507431      1.369039
  H       3.784270      4.251782      1.363091
  H       4.603357      2.707563      1.418600
  H       1.987248      1.232479      3.285949
  H       4.042940      0.742945      0.480475
  H       5.116261     -0.287092      1.306755
  O      -1.885461      1.406239     -1.649204
  O       2.579686      0.684385     -0.931082
  N       0.332337      1.009400     -1.278256
  N       1.056764     -0.748492      0.027143
  C      -1.311173     -0.440355     -0.239575
  C      -1.035328      0.717452     -1.101782
  C      -0.257014     -1.107307      0.284347
  C      -2.745336     -0.809575      0.009411
  C       1.412168      0.343679     -0.739323
  H      -0.377378     -1.972016      0.928515
  H       0.557899      1.818545     -1.846946
  H       1.813708     -1.231003      0.492471
  H      -3.263349     -1.013752     -0.933748
  H      -3.281245      0.016530      0.489354
  H      -2.818336     -1.693360      0.649773
27
Coordinates from ORCA-job biuret_thymine_opt_freq E -847.727591723506
  N       3.742473      3.260392      1.528998
  C       2.711307      2.796689      2.284841
  O       1.781166      3.494915      2.671354
  N       2.718644      1.421250      2.622943
  C       3.677788      0.409703      2.468146
  O       3.757358     -0.501933      3.284482
  N       4.481324      0.515452      1.345362
  H       3.773886      4.260248      1.402515
  H       4.578846      2.712024      1.385534
  H       2.054093      1.228842      3.363874
  H       4.000614      0.746495      0.472272
  H       5.110897     -0.273918      1.263668
  O      -1.886820      1.367110     -1.719388
  O       2.571794      0.673828     -0.939013
  N       0.327734      0.982213     -1.319129
  N       1.043750     -0.740124      0.038273
  C      -1.322510     -0.440584     -0.254507
  C      -1.041904      0.693844     -1.145976
  C      -0.271557     -1.093625      0.293803
  C      -2.758305     -0.804484     -0.006034
  C       1.403325      0.334259     -0.751768
  H      -0.395075     -1.942273      0.958428
  H       0.555487      1.774368     -1.910563
  H       1.799159     -1.212979      0.516005
  H      -3.268981     -1.033952     -0.947406
  H      -3.298020      0.033833      0.447750
  H      -2.835919     -1.671004      0.656909
27
Coordinates from ORCA-job biuret_thymine_opt_freq E -847.727687025505
  N       3.727565      3.262307      1.533195
  C       2.720618      2.792257      2.318910
  O       1.799732      3.484351      2.736264
  N       2.742704      1.414689      2.652593
  C       3.706529      0.412277      2.476736
  O       3.813188     -0.494467      3.295708
  N       4.486578      0.523188      1.337726
  H       3.751354      4.262787      1.406423
  H       4.559763      2.716050      1.357487
  H       2.105021      1.216914      3.415283
  H       3.986105      0.743357      0.472545
  H       5.125477     -0.257869      1.249287
  O      -1.887688      1.344687     -1.764140
  O       2.565944      0.667169     -0.943909
  N       0.323794      0.968012     -1.341787
  N       1.031982     -0.729025      0.050055
  C      -1.332707     -0.437848     -0.263971
  C      -1.047726      0.681254     -1.172771
  C      -0.284037     -1.082033      0.299993
  C      -2.769701     -0.798390     -0.017156
  C       1.395828      0.331703     -0.757089
  H      -0.409575     -1.920115      0.977548
  H       0.549991      1.749081     -1.948343
  H       1.787874     -1.209303      0.519305
  H      -3.274152     -1.047016     -0.957077
  H      -3.312774      0.048367      0.416452
  H      -2.851132     -1.651792      0.662110
27
Coordinates from ORCA-job biuret_thymine_opt_freq E -847.727765148729
  N       3.718883      3.269329      1.529869
  C       2.735869      2.796877      2.344111
  O       1.820648      3.482495      2.781887
  N       2.775602      1.421529      2.684043
  C       3.731198      0.419347      2.482984
  O       3.852831     -0.490872      3.294534
  N       4.495534      0.533273      1.333203
  H       3.737535      4.270445      1.409676
  H       4.556446      2.733062      1.350260
  H       2.160222      1.219160      3.462524
  H       3.984280      0.751317      0.473941
  H       5.133274     -0.247877      1.237327
  O      -1.887788      1.332531     -1.791075
  O       2.560483      0.650698     -0.942415
  N       0.319944      0.954475     -1.351678
  N       1.015824     -0.729220      0.059390
  C      -1.346336     -0.440699     -0.274648
  C      -1.054066      0.670749     -1.189236
  C      -0.301439     -1.081688      0.300125
  C      -2.785211     -0.797374     -0.032925
  C       1.387807      0.321790     -0.757689
  H      -0.431005     -1.913176      0.985008
  H       0.545180      1.732328     -1.962404
  H       1.770904     -1.223166      0.515161
  H      -3.283261     -1.058391     -0.972970
  H      -3.330666      0.055401      0.385539
  H      -2.872137     -1.641753      0.656834
27
Coordinates from ORCA-job biuret_thymine_opt_freq E -847.727816613545
  N       3.721771      3.269998      1.539997
  C       2.753059      2.793305      2.371499
  O       1.842366      3.475589      2.823127
  N       2.808014      1.420829      2.715967
  C       3.763520      0.422728      2.495030
  O       3.906717     -0.484688      3.306307
  N       4.497868      0.537158      1.325669
  H       3.724810      4.269181      1.401297
  H       4.555699      2.735819      1.337340
  H       2.218932      1.220826      3.515767
  H       3.965594      0.752916      0.478649
  H       5.135933     -0.241639      1.214697
  O      -1.894767      1.312070     -1.828274
  O       2.549934      0.648988     -0.941811
  N       0.310477      0.947993     -1.365656
  N       1.000640     -0.712225      0.076037
  C      -1.359687     -0.441791     -0.287229
  C      -1.064044      0.659976     -1.211622
  C      -0.316956     -1.069784      0.305873
  C      -2.798681     -0.803082     -0.053211
  C       1.375855      0.324774     -0.756650
  H      -0.449797     -1.891641      1.001696
  H       0.534900      1.718901     -1.985661
  H       1.754761     -1.209355      0.529839
  H      -3.286681     -1.082429     -0.993274
  H      -3.352807      0.052957      0.346722
  H      -2.886875     -1.636783      0.649250
27
Coordinates from ORCA-job biuret_thymine_opt_freq E -847.727880819050
  N       3.718364      3.272353      1.538955
  C       2.775227      2.794799      2.400040
  O       1.871353      3.474919      2.868624
  N       2.849794      1.427312      2.753514
  C       3.797209      0.427514      2.505510
  O       3.958649     -0.483049      3.309408
  N       4.501353      0.541685      1.317307
  H       3.710984      4.270969      1.396384
  H       4.554371      2.745490      1.326012
  H       2.284677      1.230125      3.571177
  H       3.950561      0.759295      0.482715
  H       5.133079     -0.239646      1.188508
  O      -1.899886      1.294752     -1.860200
  O       2.539376      0.641645     -0.936817
  N       0.302142      0.939609     -1.375653
  N       0.982486     -0.701569      0.091686
  C      -1.374723     -0.445452     -0.301046
  C      -1.072817      0.649263     -1.231381
  C      -0.336145     -1.062590      0.310205
  C      -2.814479     -0.810503     -0.078103
  C       1.363755      0.322557     -0.753602
  H      -0.474794     -1.876261      1.014473
  H       0.530543      1.706206     -1.999351
  H       1.733516     -1.196528      0.553121
  H      -3.291414     -1.104189     -1.019455
  H      -3.376852      0.047632      0.305441
  H      -2.905772     -1.635750      0.633903
27
Coordinates from ORCA-job biuret_thymine_opt_freq E -847.727955721645
  N       3.708304      3.271772      1.537482
  C       2.803840      2.793035      2.439172
  O       1.908888      3.470087      2.930195
  N       2.910149      1.433090      2.806738
  C       3.845782      0.431658      2.519486
  O       4.033727     -0.484127      3.311513
  N       4.505582      0.547544      1.306088
  H       3.682468      4.268504      1.384682
  H       4.545649      2.754843      1.306351
  H       2.375474      1.238353      3.645235
  H       3.929501      0.769493      0.489907
  H       5.127572     -0.236922      1.150852
  O      -1.906065      1.267608     -1.907335
  O       2.524713      0.636499     -0.927928
  N       0.291366      0.928864     -1.390884
  N       0.958505     -0.684116      0.113912
  C      -1.393642     -0.448441     -0.318455
  C      -1.083371      0.634598     -1.259948
  C      -0.361399     -1.049310      0.318879
  C      -2.834287     -0.819031     -0.111663
  C       1.347498      0.321984     -0.748818
  H      -0.508292     -1.851495      1.034510
  H       0.528232      1.687332     -2.021398
  H       1.704135     -1.167982      0.595550
  H      -3.295100     -1.132660     -1.054572
  H      -3.408253      0.041621      0.248307
  H      -2.930421     -1.632210      0.613516
27
Coordinates from ORCA-job biuret_thymine_opt_freq E -847.728014746790
  N       3.689937      3.271242      1.543347
  C       2.829873      2.787082      2.484557
  O       1.946159      3.457396      3.005364
  N       2.970205      1.432105      2.857613
  C       3.897865      0.435118      2.529881
  O       4.120121     -0.482739      3.311078
  N       4.509375      0.555877      1.291990
  H       3.642903      4.266023      1.383673
  H       4.524569      2.764206      1.282553
  H       2.468311      1.234885      3.715873
  H       3.904967      0.775657      0.495828
  H       5.127036     -0.226837      1.112051
  O      -1.909091      1.229591     -1.967903
  O       2.511608      0.631863     -0.920210
  N       0.282564      0.911481     -1.414804
  N       0.934958     -0.664010      0.135858
  C      -1.411552     -0.448188     -0.334612
  C      -1.092150      0.614849     -1.296026
  C      -0.386367     -1.030197      0.330860
  C      -2.853478     -0.820615     -0.140885
  C       1.332523      0.320798     -0.747221
  H      -0.541152     -1.817065      1.061612
  H       0.528865      1.654536     -2.059794
  H       1.674582     -1.132346      0.641519
  H      -3.298867     -1.158392     -1.082845
  H      -3.436673      0.045357      0.190317
  H      -2.956534     -1.617086      0.601698
27
Coordinates from ORCA-job biuret_thymine_opt_freq E -847.728086005688
  N       3.662557      3.268196      1.556440
  C       2.854777      2.773763      2.536842
  O       1.980167      3.430541      3.089957
  N       3.041496      1.425331      2.914446
  C       3.959809      0.437122      2.538133
  O       4.224286     -0.482558      3.304706
  N       4.515935      0.567563      1.275854
  H       3.580971      4.258327      1.383284
  H       4.492961      2.775485      1.257783
  H       2.575865      1.219847      3.790814
  H       3.881377      0.786469      0.503295
  H       5.130461     -0.210668      1.067569
  O      -1.908453      1.176831     -2.045864
  O       2.497259      0.630031     -0.910073
  N       0.275121      0.887517     -1.446648
  N       0.908813     -0.638355      0.161235
  C      -1.430579     -0.444387     -0.350887
  C      -1.099686      0.588619     -1.341327
  C      -0.414377     -1.002561      0.347917
  C      -2.874395     -0.815971     -0.169956
  C       1.316695      0.320245     -0.745805
  H      -0.578042     -1.768629      1.098507
  H       0.532864      1.607185     -2.113758
  H       1.640768     -1.083465      0.698045
  H      -3.302648     -1.184265     -1.108416
  H      -3.465869      0.057751      0.124100
  H      -2.987577     -1.589375      0.595182
27
Coordinates from ORCA-job biuret_thymine_opt_freq E -847.728144593976
  N       3.636533      3.265496      1.575376
  C       2.865149      2.755700      2.575817
  O       1.992904      3.394604      3.153122
  N       3.090870      1.411301      2.949677
  C       4.008687      0.437988      2.537868
  O       4.312354     -0.479858      3.292849
  N       4.523734      0.581193      1.259990
  H       3.523077      4.250921      1.394255
  H       4.462104      2.785765      1.244432
  H       2.651047      1.192843      3.836053
  H       3.864637      0.791147      0.505720
  H       5.143244     -0.187694      1.032531
  O      -1.902188      1.125454     -2.114855
  O       2.488805      0.630892     -0.900528
  N       0.273564      0.862174     -1.476276
  N       0.890449     -0.616766      0.181251
  C      -1.443391     -0.437560     -0.360616
  C      -1.101934      0.563251     -1.380329
  C      -0.434889     -0.974759      0.365201
  C      -2.889409     -0.803756     -0.185759
  C       1.307419      0.319496     -0.745067
  H      -0.605326     -1.719973      1.135017
  H       0.540223      1.556048     -2.166900
  H       1.615543     -1.038338      0.745605
  H      -3.306318     -1.198800     -1.118440
  H      -3.483807      0.078397      0.075373
  H      -3.012526     -1.554577      0.600010
27
Coordinates from ORCA-job biuret_thymine_opt_freq E -847.728195071047
  N       3.620132      3.261599      1.594185
  C       2.856299      2.733583      2.589739
  O       1.972149      3.351914      3.170685
  N       3.109475      1.392026      2.959565
  C       4.036291      0.435230      2.532545
  O       4.366295     -0.478227      3.281879
  N       4.534417      0.592284      1.249928
  H       3.479006      4.241357      1.402963
  H       4.445395      2.792627      1.248052
  H       2.677702      1.159216      3.845494
  H       3.863821      0.794977      0.503848
  H       5.164891     -0.164941      1.013689
  O      -1.893808      1.088121     -2.160002
  O       2.484782      0.639259     -0.893782
  N       0.276872      0.843766     -1.497106
  N       0.883938     -0.602291      0.193555
  C      -1.447414     -0.428893     -0.361794
  C      -1.099598      0.545883     -1.404522
  C      -0.443223     -0.951872      0.380371
  C      -2.895242     -0.787818     -0.185780
  C       1.304730      0.321089     -0.743712
  H      -0.616787     -1.680654      1.165093
  H       0.546847      1.517335     -2.206757
  H       1.605023     -1.003853      0.777214
  H      -3.308374     -1.200589     -1.112464
  H      -3.488232      0.101356      0.053925
  H      -3.024830     -1.521895      0.614565
27
Coordinates from ORCA-job biuret_thymine_opt_freq E -847.728254532493
  N       3.596505      3.259880      1.627571
  C       2.859303      2.705323      2.628113
  O       1.974131      3.297785      3.233604
  N       3.146580      1.365105      2.978642
  C       4.089379      0.435719      2.526216
  O       4.468808     -0.464883      3.268329
  N       4.547231      0.606951      1.230171
  H       3.423964      4.234758      1.437669
  H       4.410584      2.802323      1.242170
  H       2.745737      1.117775      3.876389
  H       3.850422      0.786802      0.501926
  H       5.196564     -0.129057      0.978532
  O      -1.884762      1.020443     -2.238887
  O       2.476895      0.643912     -0.884995
  N       0.276292      0.809491     -1.534755
  N       0.864127     -0.568863      0.216865
  C      -1.461376     -0.419299     -0.372220
  C      -1.101450      0.511784     -1.449554
  C      -0.465424     -0.910813      0.401844
  C      -2.911129     -0.771505     -0.197864
  C       1.295121      0.324190     -0.744471
  H      -0.646473     -1.607651      1.213456
  H       0.551715      1.449608     -2.271941
  H       1.577972     -0.941807      0.827684
  H      -3.314016     -1.219117     -1.112806
  H      -3.506142      0.126284      0.001393
  H      -3.050001     -1.474549      0.628294
27
Coordinates from ORCA-job biuret_thymine_opt_freq E -847.728368524512
  N       3.567170      3.251841      1.669044
  C       2.829959      2.649540      2.640406
  O       1.915145      3.195000      3.245664
  N       3.162026      1.313973      2.969516
  C       4.143665      0.429796      2.509060
  O       4.576545     -0.450110      3.246213
  N       4.578983      0.625452      1.208414
  H       3.342813      4.213662      1.467808
  H       4.375293      2.813554      1.250435
  H       2.779967      1.042707      3.868321
  H       3.865412      0.778428      0.489886
  H       5.261489     -0.076215      0.947151
  O      -1.862697      0.945784     -2.315507
  O       2.472496      0.661907     -0.865987
  N       0.286471      0.771577     -1.567261
  N       0.849533     -0.525881      0.250667
  C      -1.469202     -0.400820     -0.373323
  C      -1.093544      0.476313     -1.488938
  C      -0.483464     -0.854384      0.436122
  C      -2.921616     -0.741990     -0.198275
  C       1.291830      0.333864     -0.734858
  H      -0.674056     -1.509741      1.279536
  H       0.566057      1.374130     -2.333432
  H       1.553413     -0.856912      0.896064
  H      -3.315850     -1.228013     -1.097232
  H      -3.516115      0.165075     -0.044288
  H      -3.071166     -1.407946      0.656168
27
Coordinates from ORCA-job biuret_thymine_opt_freq E -847.725394033535
  N       3.352268      3.142016      1.961456
  C       2.673687      2.232100      2.723457
  O       1.613514      2.455682      3.319588
  N       3.289932      0.959451      2.897350
  C       4.507660      0.420385      2.393360
  O       5.248861     -0.261452      3.117396
  N       4.787040      0.745127      1.071252
  H       2.793972      3.957277      1.701213
  H       4.081894      2.836787      1.321194
  H       3.056648      0.568561      3.814575
  H       3.995345      0.711765      0.411562
  H       5.648918      0.298347      0.747348
  O      -1.718956      0.378401     -2.724363
  O       2.451320      0.774874     -0.745564
  N       0.349413      0.494064     -1.752532
  N       0.744307     -0.163728      0.454934
  C      -1.519497     -0.275995     -0.389844
  C      -1.041208      0.207156     -1.703764
  C      -0.609434     -0.414934      0.620353
  C      -2.985616     -0.557947     -0.219225
  C       1.272067      0.407444     -0.693422
  H      -0.877195     -0.738660      1.637061
  H       0.645995      0.833591     -2.680138
  H       1.351497     -0.137415      1.285134
  H      -3.321280     -1.299841     -0.967312
  H      -3.579680      0.361804     -0.383125
  H      -3.200917     -0.944270      0.793436
27
Coordinates from ORCA-job biuret_thymine_opt_freq E -847.729466445961
  N       3.364556      3.145978      1.913783
  C       2.681374      2.257941      2.696185
  O       1.619719      2.498277      3.268995
  N       3.284159      0.988676      2.900742
  C       4.485314      0.425711      2.408218
  O       5.195885     -0.285562      3.120209
  N       4.783892      0.749379      1.092798
  H       2.836970      3.970960      1.647844
  H       4.129735      2.839467      1.321219
  H       3.035463      0.604640      3.808873
  H       3.997555      0.742392      0.432877
  H       5.619502      0.269062      0.772291
  O      -1.719468      0.447669     -2.674960
  O       2.447309      0.752773     -0.772288
  N       0.347986      0.519944     -1.711399
  N       0.742483     -0.192772      0.446241
  C      -1.520150     -0.285192     -0.383077
  C      -1.041268      0.237762     -1.670812
  C      -0.608433     -0.455498      0.612255
  C      -2.986030     -0.575681     -0.222496
  C       1.268624      0.401180     -0.688367
  H      -0.871928     -0.815344      1.607775
  H       0.658373      0.899217     -2.599789
  H       1.360030     -0.209830      1.256976
  H      -3.321084     -1.292133     -0.986201
  H      -3.580166      0.340353     -0.358585
  H      -3.199849     -0.988780      0.772067
27
Coordinates from ORCA-job biuret_thymine_opt_freq E -847.730702453227
  N       3.295829      3.095475      1.918881
  C       2.660743      2.172982      2.694504
  O       1.594609      2.363582      3.262034
  N       3.317809      0.933688      2.891760
  C       4.532373      0.435510      2.385495
  O       5.272461     -0.240739      3.086396
  N       4.797544      0.782971      1.072794
  H       2.734130      3.886500      1.652290
  H       4.075968      2.831636      1.333139
  H       3.091810      0.532089      3.795852
  H       4.008484      0.763859      0.422958
  H       5.639720      0.343678      0.733313
  O      -1.678305      0.360691     -2.680783
  O       2.446831      0.750429     -0.746693
  N       0.372609      0.480077     -1.702137
  N       0.726493     -0.132075      0.485547
  C      -1.518103     -0.258455     -0.375876
  C      -1.016297      0.201513     -1.668037
  C      -0.627330     -0.382224      0.636002
  C      -2.987476     -0.541241     -0.233549
  C       1.268926      0.400603     -0.665659
  H      -0.912070     -0.692968      1.630998
  H       0.701777      0.820403     -2.597766
  H       1.318491     -0.084088      1.300562
  H      -3.308324     -1.286534     -0.964809
  H      -3.575948      0.359824     -0.422156
  H      -3.222196     -0.906595      0.766315
27
Coordinates from ORCA-job biuret_thymine_opt_freq E -847.731326549538
  N       3.253729      3.071526      1.851643
  C       2.620285      2.162457      2.646187
  O       1.554106      2.370666      3.209193
  N       3.265260      0.918861      2.853433
  C       4.484395      0.412786      2.374003
  O       5.204714     -0.278703      3.079945
  N       4.780381      0.772068      1.072610
  H       2.721598      3.891597      1.604225
  H       4.075876      2.827649      1.315812
  H       3.022583      0.517275      3.752546
  H       4.007884      0.774637      0.402470
  H       5.626467      0.327667      0.741920
  O      -1.661265      0.396849     -2.646829
  O       2.470488      0.758991     -0.734342
  N       0.394934      0.512395     -1.670801
  N       0.751356     -0.118387      0.506997
  C      -1.492213     -0.246764     -0.349964
  C      -0.993519      0.229560     -1.639027
  C      -0.599424     -0.380970      0.657907
  C      -2.959106     -0.544682     -0.214879
  C       1.291528      0.420684     -0.644171
  H      -0.882691     -0.715291      1.647608
  H       0.737516      0.866493     -2.552648
  H       1.358301     -0.101254      1.316510
  H      -3.271611     -1.291042     -0.950139
  H      -3.556691      0.351556     -0.402975
  H      -3.194323     -0.916036      0.784140
27
Coordinates from ORCA-job biuret_thymine_opt_freq E -847.732176410119
  N       3.173661      3.016753      1.877765
  C       2.589309      2.062576      2.651374
  O       1.514581      2.211697      3.222712
  N       3.286721      0.840070      2.818984
  C       4.542085      0.421581      2.332416
  O       5.306055     -0.220099      3.031003
  N       4.813693      0.807262      1.036776
  H       2.610824      3.826733      1.659635
  H       4.009713      2.825438      1.341613
  H       3.078713      0.423623      3.715135
  H       4.038004      0.783380      0.367803
  H       5.684543      0.416632      0.693702
  O      -1.616834      0.284869     -2.682934
  O       2.477308      0.750212     -0.705075
  N       0.423691      0.459638     -1.670584
  N       0.722669     -0.020905      0.564777
  C      -1.496903     -0.210387     -0.342127
  C      -0.968383      0.182416     -1.652183
  C      -0.629974     -0.280183      0.695238
  C      -2.965837     -0.505839     -0.227414
  C       1.291274      0.422273     -0.613002
  H      -0.944007     -0.554915      1.698221
  H       0.798436      0.750455     -2.567260
  H       1.319814      0.038262      1.386851
  H      -3.256650     -1.307256     -0.915697
  H      -3.562935      0.372466     -0.497800
  H      -3.229015     -0.806163      0.791446
27
Coordinates from ORCA-job biuret_thymine_opt_freq E -847.732208950880
  N       3.121916      2.967915      1.944761
  C       2.558645      1.970702      2.672412
  O       1.474896      2.071120      3.244330
  N       3.276046      0.751857      2.782058
  C       4.569095      0.411632      2.298391
  O       5.357727     -0.199667      3.000549
  N       4.828439      0.822795      1.011938
  H       2.550697      3.781588      1.770339
  H       3.966624      2.818696      1.408524
  H       3.090864      0.318139      3.682215
  H       4.051487      0.798496      0.342931
  H       5.712570      0.473778      0.659815
  O      -1.603095      0.119174     -2.715170
  O       2.502926      0.766693     -0.726007
  N       0.427472      0.402193     -1.701071
  N       0.712616      0.135330      0.562468
  C      -1.493722     -0.176549     -0.339053
  C      -0.959825      0.110340     -1.673749
  C      -0.634522     -0.141322      0.705065
  C      -2.957264     -0.490428     -0.212098
  C       1.304124      0.463324     -0.643442
  H      -0.955019     -0.338448      1.725169
  H       0.821611      0.623321     -2.605547
  H       1.306908      0.242366      1.382159
  H      -3.224744     -1.361982     -0.821982
  H      -3.569198      0.345360     -0.573286
  H      -3.226715     -0.695834      0.829656
27
Coordinates from ORCA-job biuret_thymine_opt_freq E -847.732366520072
  N       3.193898      2.987707      1.974206
  C       2.625259      2.003969      2.706811
  O       1.549970      2.124937      3.298417
  N       3.310112      0.761917      2.787649
  C       4.605044      0.419203      2.284837
  O       5.404227     -0.177092      2.987213
  N       4.819960      0.799777      0.984959
  H       2.660620      3.831202      1.845557
  H       4.044191      2.836047      1.449504
  H       3.130655      0.342198      3.690893
  H       4.017747      0.806275      0.346010
  H       5.685401      0.445161      0.601231
  O      -1.597571      0.088698     -2.741627
  O       2.446033      0.761285     -0.726089
  N       0.410968      0.404805     -1.694850
  N       0.652728      0.168904      0.600585
  C      -1.521127     -0.190917     -0.356452
  C      -0.967127      0.096033     -1.689741
  C      -0.688372     -0.136094      0.714929
  C      -2.980561     -0.529287     -0.262388
  C       1.249872      0.466713     -0.603130
  H      -1.032080     -0.336239      1.725178
  H       0.837246      0.629444     -2.593614
  H       1.240028      0.234212      1.422696
  H      -3.216689     -1.417256     -0.861547
  H      -3.597156      0.288237     -0.655734
  H      -3.272720     -0.719250      0.775874
27
Coordinates from ORCA-job biuret_thymine_opt_freq E -847.732802542105
  N       3.170937      2.997057      1.952215
  C       2.576139      1.995442      2.645041
  O       1.473712      2.088992      3.179275
  N       3.283714      0.771573      2.768084
  C       4.573583      0.414350      2.305530
  O       5.353447     -0.198664      3.017487
  N       4.842383      0.813235      1.016099
  H       2.609307      3.813100      1.765823
  H       4.023252      2.844424      1.430921
  H       3.063518      0.321459      3.644311
  H       4.068040      0.795294      0.345860
  H       5.726202      0.460634      0.671754
  O      -1.601679      0.140064     -2.708580
  O       2.463866      0.774537     -0.727284
  N       0.419326      0.417431     -1.684582
  N       0.694818      0.114266      0.584789
  C      -1.502488     -0.191797     -0.338210
  C      -0.962339      0.120137     -1.665484
  C      -0.651173     -0.169929      0.716163
  C      -2.966709     -0.506788     -0.225197
  C       1.277527      0.462476     -0.614291
  H      -0.975606     -0.378639      1.729497
  H       0.814190      0.661481     -2.588697
  H       1.282503      0.191647      1.407294
  H      -3.229339     -1.368060     -0.848499
  H      -3.574621      0.333109     -0.577963
  H      -3.241954     -0.726242      0.810020
27
Coordinates from ORCA-job biuret_thymine_opt_freq E -847.732873093845
  N       3.170513      2.987715      1.973170
  C       2.603980      1.990877      2.699276
  O       1.520819      2.087788      3.270592
  N       3.319844      0.771428      2.805139
  C       4.595313      0.420003      2.295553
  O       5.390142     -0.194167      2.983074
  N       4.836935      0.829859      1.004751
  H       2.609033      3.810959      1.812448
  H       4.023938      2.847057      1.449096
  H       3.122871      0.311550      3.688623
  H       4.051940      0.824864      0.348548
  H       5.711676      0.474459      0.639286
  O      -1.603028      0.089654     -2.730333
  O       2.470760      0.756033     -0.727732
  N       0.411745      0.388493     -1.700995
  N       0.675845      0.133686      0.571895
  C      -1.517618     -0.192794     -0.355426
  C      -0.969903      0.090773     -1.683906
  C      -0.671557     -0.147747      0.700600
  C      -2.983196     -0.503892     -0.242937
  C       1.274612      0.450362     -0.628813
  H      -1.001097     -0.329421      1.717663
  H       0.809082      0.608765     -2.607562
  H       1.253678      0.235131      1.400443
  H      -3.242676     -1.379915     -0.846426
  H      -3.588188      0.327178     -0.620122
  H      -3.264905     -0.698108      0.795471
27
Coordinates from ORCA-job biuret_thymine_opt_freq E -847.733103347379
  N       3.147580      2.964929      2.012537
  C       2.593175      1.933987      2.695352
  O       1.496003      1.985721      3.249380
  N       3.335329      0.728891      2.777282
  C       4.628879      0.428929      2.273889
  O       5.445092     -0.156229      2.964976
  N       4.851541      0.847797      0.983373
  H       2.563415      3.772031      1.857456
  H       3.999960      2.851107      1.480553
  H       3.146074      0.252199      3.651912
  H       4.062424      0.821662      0.331332
  H       5.737481      0.528927      0.612933
  O      -1.576588      0.011809     -2.739778
  O       2.466404      0.753787     -0.713859
  N       0.424891      0.353973     -1.696066
  N       0.656850      0.198402      0.593727
  C      -1.521034     -0.175464     -0.352252
  C      -0.955457      0.054772     -1.685576
  C      -0.691047     -0.082587      0.714902
  C      -2.986923     -0.486593     -0.248443
  C       1.269973      0.454435     -0.611922
  H      -1.035854     -0.220840      1.734120
  H       0.836418      0.541752     -2.604936
  H       1.223061      0.327916      1.424974
  H      -3.234357     -1.391246     -0.814690
  H      -3.588590      0.324142     -0.673720
  H      -3.284144     -0.633619      0.793917
27
Coordinates from ORCA-job biuret_thymine_opt_freq E -847.733437190597
  N       3.134227      2.946773      2.049286
  C       2.598227      1.881456      2.690551
  O       1.479238      1.876630      3.204292
  N       3.381485      0.706734      2.775527
  C       4.676628      0.440205      2.261858
  O       5.510182     -0.128035      2.946827
  N       4.875139      0.867673      0.970896
  H       2.519658      3.727157      1.880644
  H       3.997704      2.868820      1.529611
  H       3.190772      0.203875      3.631180
  H       4.077044      0.830590      0.329847
  H       5.763757      0.572606      0.588265
  O      -1.555083     -0.061690     -2.748168
  O       2.451022      0.753518     -0.703270
  N       0.430216      0.322869     -1.687894
  N       0.627191      0.255025      0.612613
  C      -1.533995     -0.161960     -0.353928
  C      -0.947921      0.020500     -1.687043
  C      -0.722088     -0.024747      0.723128
  C      -3.000296     -0.473984     -0.261389
  C       1.256855      0.458639     -0.592694
  H      -1.082052     -0.123537      1.741813
  H       0.854271      0.485148     -2.598238
  H       1.174919      0.411124      1.450074
  H      -3.235448     -1.403139     -0.792726
  H      -3.596895      0.315985     -0.731192
  H      -3.314202     -0.577643      0.781503
27
Coordinates from ORCA-job biuret_thymine_opt_freq E -847.733925782812
  N       3.135719      2.931200      2.094442
  C       2.619557      1.831928      2.694568
  O       1.482479      1.777537      3.169736
  N       3.435454      0.687324      2.773946
  C       4.727355      0.454366      2.245805
  O       5.580359     -0.102149      2.919213
  N       4.897644      0.893781      0.955996
  H       2.496978      3.690463      1.922684
  H       4.012097      2.893922      1.593112
  H       3.243559      0.148313      3.604040
  H       4.087471      0.853021      0.330314
  H       5.785542      0.621591      0.556165
  O      -1.528628     -0.149143     -2.757223
  O       2.431492      0.750491     -0.690404
  N       0.433474      0.284501     -1.673332
  N       0.587395      0.309203      0.630273
  C      -1.554675     -0.152663     -0.360834
  C      -0.941511     -0.022977     -1.688034
  C      -0.764570      0.033429      0.725129
  C      -3.021762     -0.464792     -0.282910
  C       1.241466      0.461367     -0.569041
  H      -1.141257     -0.021142      1.741161
  H       0.871843      0.416511     -2.583539
  H       1.102724      0.502709      1.478888
  H      -3.244169     -1.417739     -0.776661
  H      -3.610075      0.302003     -0.799589
  H      -3.355406     -0.522464      0.757470
27
Coordinates from ORCA-job biuret_thymine_opt_freq E -847.734495137740
  N       3.140128      2.913160      2.133237
  C       2.649564      1.784136      2.702219
  O       1.499488      1.689912      3.146747
  N       3.493666      0.672075      2.777221
  C       4.777293      0.468022      2.229790
  O       5.649125     -0.085398      2.884528
  N       4.918948      0.925542      0.943744
  H       2.479424      3.654065      1.964915
  H       4.027812      2.918807      1.651792
  H       3.303162      0.092474      3.580764
  H       4.097447      0.883203      0.333587
  H       5.804914      0.676446      0.525417
  O      -1.499962     -0.236729     -2.763815
  O       2.416170      0.745393     -0.672589
  N       0.434924      0.245835     -1.653393
  N       0.544365      0.360851      0.644338
  C      -1.579619     -0.144421     -0.371098
  C      -0.937090     -0.066480     -1.687064
  C      -0.810694      0.088738      0.720249
  C      -3.047430     -0.456771     -0.308256
  C       1.229047      0.465616     -0.544221
  H      -1.202639      0.076604      1.731884
  H       0.886958      0.344065     -2.560494
  H       1.020597      0.590589      1.508674
  H      -3.258084     -1.430939     -0.764113
  H      -3.626037      0.285492     -0.869602
  H      -3.400922     -0.469695      0.726913
27
Coordinates from ORCA-job biuret_thymine_opt_freq E -847.734873373814
  N       3.121295      2.872207      2.194053
  C       2.678477      1.699546      2.709761
  O       1.516591      1.532335      3.109169
  N       3.577860      0.640235      2.783066
  C       4.854178      0.490942      2.204371
  O       5.755991     -0.041566      2.832895
  N       4.950876      0.973345      0.923800
  H       2.423017      3.576286      2.019934
  H       4.017109      2.939481      1.732931
  H       3.400479      0.012240      3.552024
  H       4.116648      0.915877      0.332880
  H       5.835791      0.765687      0.481798
  O      -1.460713     -0.368366     -2.761146
  O       2.397305      0.737386     -0.636680
  N       0.441517      0.185003     -1.628425
  N       0.487022      0.450182      0.662444
  C      -1.608583     -0.124446     -0.381846
  C      -0.928009     -0.129707     -1.681277
  C      -0.870528      0.181237      0.713327
  C      -3.077405     -0.435032     -0.340121
  C       1.207733      0.469414     -0.507600
  H      -1.288784      0.236288      1.712980
  H       0.914414      0.225799     -2.531707
  H       0.922517      0.737511      1.533627
  H      -3.274272     -1.439249     -0.732689
  H      -3.639297      0.264704     -0.969006
  H      -3.460673     -0.376749      0.682809
27
Coordinates from ORCA-job biuret_thymine_opt_freq E -847.732950100620
  N       3.146155      2.850511      2.201221
  C       2.748874      1.668623      2.746065
  O       1.596600      1.531546      3.202387
  N       3.661229      0.645913      2.813734
  C       4.919526      0.515435      2.196781
  O       5.846334     -0.049744      2.758789
  N       4.987323      1.057839      0.936067
  H       2.431359      3.555725      2.070542
  H       4.040213      2.961430      1.741293
  H       3.507148     -0.048368      3.554593
  H       4.151607      1.011369      0.353474
  H       5.869850      0.881185      0.471733
  O      -1.442564     -0.439837     -2.775749
  O       2.412440      0.700146     -0.579913
  N       0.420417      0.120109     -1.590262
  N       0.430506      0.439561      0.653661
  C      -1.670600     -0.121355     -0.418386
  C      -0.955553     -0.172623     -1.685468
  C      -0.935571      0.190430      0.669317
  C      -3.145644     -0.405995     -0.394842
  C       1.210351      0.448419     -0.488289
  H      -1.355858      0.263865      1.666221
  H       0.904320      0.090993     -2.467511
  H       0.815630      0.740640      1.572631
  H      -3.353084     -1.411893     -0.770852
  H      -3.685794      0.288845     -1.044239
  H      -3.544658     -0.322178      0.618377
27
Coordinates from ORCA-job biuret_thymine_opt_freq E -847.736074080522
  N       3.113031      2.853705      2.168277
  C       2.703975      1.688824      2.730307
  O       1.555733      1.536255      3.177483
  N       3.628074      0.652888      2.822228
  C       4.891909      0.503316      2.206662
  O       5.807764     -0.038526      2.798970
  N       4.966464      1.010721      0.931054
  H       2.402998      3.551857      2.003192
  H       4.003477      2.932414      1.695791
  H       3.467682      0.006970      3.590230
  H       4.132615      0.948053      0.343044
  H       5.848461      0.813798      0.475960
  O      -1.458847     -0.369578     -2.773081
  O       2.403678      0.715747     -0.594233
  N       0.433271      0.163490     -1.615636
  N       0.462604      0.435779      0.666002
  C      -1.635158     -0.118067     -0.397184
  C      -0.942699     -0.132691     -1.687324
  C      -0.897498      0.173614      0.700233
  C      -3.107268     -0.414685     -0.368295
  C       1.200904      0.453488     -0.494113
  H      -1.320748      0.220925      1.698164
  H       0.917504      0.176845     -2.506355
  H       0.901112      0.706407      1.553363
  H      -3.310465     -1.415002     -0.765333
  H      -3.658808      0.290577     -0.998889
  H      -3.499207     -0.356531      0.650857
27
Coordinates from ORCA-job biuret_thymine_opt_freq E -847.736392217609
  N       3.080425      2.838121      2.158104
  C       2.695810      1.659837      2.708922
  O       1.538761      1.454445      3.105378
  N       3.659496      0.664981      2.848886
  C       4.918813      0.513683      2.224196
  O       5.839875     -0.018464      2.822306
  N       4.979277      1.012671      0.943134
  H       2.343873      3.490623      1.936313
  H       3.974083      2.933866      1.695198
  H       3.499504      0.022328      3.618238
  H       4.142345      0.930708      0.360529
  H       5.858937      0.815548      0.483671
  O      -1.467271     -0.355858     -2.769786
  O       2.400081      0.722297     -0.580281
  N       0.431898      0.165959     -1.617072
  N       0.462623      0.448296      0.663307
  C      -1.634750     -0.108493     -0.392858
  C      -0.945759     -0.123862     -1.685091
  C      -0.896365      0.184453      0.703029
  C      -3.106939     -0.403996     -0.361290
  C       1.197890      0.456152     -0.498110
  H      -1.321164      0.233691      1.700616
  H       0.913687      0.184891     -2.506795
  H       0.913726      0.717189      1.541350
  H      -3.311326     -1.405242     -0.756680
  H      -3.659184      0.300873     -0.992436
  H      -3.497791     -0.344108      0.658598
27
Coordinates from ORCA-job biuret_thymine_opt_freq E -847.736536009879
  N       3.097460      2.827065      2.180377
  C       2.772729      1.643610      2.757222
  O       1.635922      1.399580      3.187657
  N       3.781332      0.694113      2.896181
  C       5.009404      0.554849      2.206729
  O       5.967475      0.061148      2.774387
  N       4.992734      1.027215      0.912855
  H       2.322183      3.427449      1.945678
  H       3.957796      2.929099      1.659356
  H       3.658951      0.061668      3.673596
  H       4.134277      0.900006      0.370208
  H       5.853395      0.838023      0.415817
  O      -1.438528     -0.358957     -2.791017
  O       2.352901      0.677955     -0.485741
  N       0.432952      0.136295     -1.581736
  N       0.380325      0.450160      0.710958
  C      -1.677085     -0.104978     -0.418917
  C      -0.946953     -0.132568     -1.691459
  C      -0.978255      0.191069      0.703987
  C      -3.151759     -0.388249     -0.438088
  C       1.141455      0.420138     -0.427721
  H      -1.445409      0.253002      1.681912
  H       0.945020      0.139215     -2.460145
  H       0.817039      0.737281      1.589957
  H      -3.349873     -1.389362     -0.837506
  H      -3.676534      0.318621     -1.090344
  H      -3.578401     -0.322856      0.567171
27
Coordinates from ORCA-job biuret_thymine_opt_freq E -847.737053481190
  N       3.092970      2.844522      2.124946
  C       2.745729      1.675587      2.721202
  O       1.602877      1.458780      3.148600
  N       3.746158      0.722030      2.900180
  C       4.984050      0.548871      2.236864
  O       5.927149      0.035711      2.811951
  N       5.006072      1.015926      0.940749
  H       2.327287      3.445113      1.857359
  H       3.961661      2.923594      1.613062
  H       3.606789      0.105208      3.692125
  H       4.157902      0.905658      0.380946
  H       5.869952      0.796004      0.461643
  O      -1.466961     -0.264287     -2.791424
  O       2.372808      0.672506     -0.484772
  N       0.423038      0.172159     -1.588087
  N       0.409359      0.386767      0.703696
  C      -1.670206     -0.110449     -0.409359
  C      -0.960686     -0.085631     -1.690636
  C      -0.949505      0.131800      0.710804
  C      -3.146030     -0.388694     -0.416285
  C       1.161030      0.412001     -0.446221
  H      -1.399654      0.147521      1.698031
  H       0.926543      0.202066     -2.464797
  H       0.872196      0.626665      1.586286
  H      -3.354793     -1.369474     -0.857331
  H      -3.679655      0.348460     -1.025790
  H      -3.555523     -0.367826      0.597631
27
Coordinates from ORCA-job biuret_thymine_opt_freq E -847.737339509457
  N       3.092937      2.821660      2.101676
  C       2.758733      1.651783      2.708296
  O       1.608015      1.424645      3.117201
  N       3.773641      0.722005      2.910555
  C       4.999625      0.541868      2.228909
  O       5.942774      0.005357      2.780066
  N       5.018903      1.029465      0.942358
  H       2.329291      3.425518      1.835047
  H       3.989302      2.940036      1.647737
  H       3.619800      0.079099      3.681873
  H       4.161269      0.956902      0.393041
  H       5.869866      0.795309      0.447917
  O      -1.447027     -0.305281     -2.787502
  O       2.360350      0.694657     -0.457881
  N       0.423121      0.176271     -1.569503
  N       0.383696      0.421116      0.723893
  C      -1.679180     -0.105116     -0.410431
  C      -0.954921     -0.099593     -1.684313
  C      -0.973136      0.159550      0.715877
  C      -3.151995     -0.398624     -0.429771
  C       1.149289      0.443951     -0.419011
  H      -1.434049      0.178577      1.698055
  H       0.947266      0.190041     -2.441609
  H       0.828195      0.670929      1.614244
  H      -3.346483     -1.388957     -0.856036
  H      -3.685210      0.322880     -1.058222
  H      -3.573517     -0.363459      0.578909
27
Coordinates from ORCA-job biuret_thymine_opt_freq E -847.737537639197
  N       3.084706      2.803566      2.129237
  C       2.785968      1.622777      2.733389
  O       1.647955      1.363196      3.156304
  N       3.822732      0.714172      2.917214
  C       5.045104      0.560591      2.224504
  O       6.005494      0.049202      2.777049
  N       5.038237      1.037354      0.934062
  H       2.303645      3.389829      1.874103
  H       3.971472      2.943967      1.663106
  H       3.685341      0.065200      3.684210
  H       4.172389      0.950220      0.399274
  H       5.886690      0.818141      0.428409
  O      -1.443391     -0.357587     -2.791959
  O       2.341444      0.693479     -0.433753
  N       0.415507      0.151098     -1.567616
  N       0.351746      0.454543      0.717007
  C      -1.698507     -0.099398     -0.423590
  C      -0.961509     -0.125475     -1.689116
  C      -1.004486      0.194664      0.703206
  C      -3.171428     -0.392523     -0.450474
  C       1.130000      0.449538     -0.418169
  H      -1.477510      0.239331      1.679093
  H       0.949687      0.143907     -2.432356
  H       0.792982      0.731745      1.600931
  H      -3.363211     -1.391842     -0.856977
  H      -3.698208      0.315982     -1.099180
  H      -3.602295     -0.335089      0.553467
27
Coordinates from ORCA-job biuret_thymine_opt_freq E -847.737679761955
  N       3.108104      2.821236      2.131495
  C       2.806081      1.639239      2.724874
  O       1.670728      1.377700      3.149874
  N       3.849323      0.735514      2.916823
  C       5.063769      0.569992      2.218437
  O       6.030256      0.058127      2.756864
  N       5.050573      1.033700      0.920771
  H       2.321278      3.383534      1.844408
  H       3.980646      2.937672      1.634677
  H       3.710450      0.095016      3.686255
  H       4.182743      0.939394      0.391318
  H       5.894699      0.801785      0.413128
  O      -1.422127     -0.330642     -2.795537
  O       2.320677      0.677368     -0.370447
  N       0.418821      0.163184     -1.538185
  N       0.316341      0.436167      0.755257
  C      -1.712567     -0.103478     -0.426914
  C      -0.957227     -0.111923     -1.683157
  C      -1.037437      0.174112      0.717417
  C      -3.185154     -0.394976     -0.481920
  C       1.103974      0.444325     -0.372454
  H      -1.530177      0.204563      1.684317
  H       0.969696      0.164640     -2.391978
  H       0.762320      0.691102      1.644620
  H      -3.371221     -1.387019     -0.908373
  H      -3.702016      0.324939     -1.126257
  H      -3.631996     -0.354681      0.516063
27
Coordinates from ORCA-job biuret_thymine_opt_freq E -847.737761341612
  N       3.085989      2.801853      2.094008
  C       2.797091      1.628615      2.713418
  O       1.664316      1.361196      3.140798
  N       3.850114      0.739854      2.919176
  C       5.063644      0.574944      2.222379
  O       6.033236      0.066965      2.761531
  N       5.049608      1.041780      0.924761
  H       2.298913      3.367432      1.813374
  H       3.968854      2.936214      1.619674
  H       3.713782      0.096798      3.689523
  H       4.185429      0.935250      0.391870
  H       5.898561      0.819025      0.421606
  O      -1.417610     -0.317248     -2.790968
  O       2.327082      0.671311     -0.353630
  N       0.423734      0.165552     -1.530876
  N       0.322297      0.423261      0.759664
  C      -1.709847     -0.099696     -0.423402
  C      -0.953753     -0.103589     -1.677693
  C      -1.033238      0.167505      0.721341
  C      -3.183977     -0.383403     -0.480179
  C       1.112927      0.436468     -0.366867
  H      -1.524076      0.197466      1.688643
  H       0.971070      0.168891     -2.382285
  H       0.768521      0.670287      1.650455
  H      -3.374742     -1.371954     -0.911637
  H      -3.696839      0.342029     -1.120859
  H      -3.630527     -0.346218      0.517550
