29
Coordinates from ORCA-job dimethylurea_thymine_opt_freq E -755.971882821099
  O       1.664888      3.907639      1.501100
  N       2.385320      1.722497      1.501100
  N       3.916536      3.434416      1.501100
  C       2.581078      3.088020      1.500700
  H       3.165065      1.073542      1.500800
  H       4.208132      4.406017      1.501200
  C       1.033052      1.146066      1.501100
  H       0.698818      1.003593      0.473438
  H       1.047806      0.184890      2.014931
  H       0.349830      1.822295      2.014931
  C       4.976569      2.415971      1.500955
  H       5.238572      2.164100      2.528581
  H       4.621976      1.522544      0.986997
  H       5.855169      2.806095      0.987180
  O      -1.519300      1.806700     -0.000900
  O       2.839400      0.291300     -0.000700
  N       0.664300      1.062300      0.001100
  N       1.114800     -1.231600     -0.000200
  C      -1.161200     -0.543200      0.000200
  C      -0.712900      0.880200      0.000400
  C      -0.226000     -1.501300     -0.000100
  C      -2.630000     -0.818900     -0.000100
  C       1.631000      0.054500      0.000300
  H      -0.478700     -2.555300     -0.000400
  H       1.001400      2.020900      0.001100
  H       1.756400     -2.019100     -0.000900
  H      -3.100400     -0.386000     -0.888900
  H      -3.100600     -0.386200      0.888700
  H      -2.843300     -1.893100     -0.000300
29
Coordinates from ORCA-job dimethylurea_thymine_opt_freq E -756.515355665552
  O       1.651735      3.889785      1.526944
  N       2.394640      1.713707      1.521721
  N       3.909268      3.446214      1.493092
  C       2.578475      3.081022      1.514598
  H       3.177331      1.069376      1.510322
  H       4.182955      4.422517      1.486363
  C       1.044889      1.124288      1.543844
  H       0.708942      0.978476      0.555404
  H       1.066177      0.163950      2.060109
  H       0.364290      1.798386      2.063443
  C       4.989254      2.448704      1.478596
  H       5.273125      2.204017      2.502577
  H       4.646057      1.546947      0.971853
  H       5.851747      2.855194      0.950206
  O      -1.485661      1.814445     -0.031360
  O       2.839147      0.268069      0.017621
  N       0.664409      1.048602     -0.015779
  N       1.102074     -1.249091      0.008646
  C      -1.171982     -0.540429     -0.014527
  C      -0.710417      0.874799     -0.021210
  C      -0.242107     -1.508888     -0.003450
  C      -2.643624     -0.801955     -0.024697
  C       1.630542      0.028326      0.024545
  H      -0.503020     -2.560916     -0.008871
  H       1.009543      2.008040     -0.012298
  H       1.737255     -2.041160     -0.002928
  H      -3.103415     -0.370130     -0.919632
  H      -3.117217     -0.359274      0.857630
  H      -2.866701     -1.874136     -0.019348
29
Coordinates from ORCA-job dimethylurea_thymine_opt_freq E -756.810577445716
  O       1.631437      3.853080      1.566725
  N       2.399824      1.690780      1.557769
  N       3.896502      3.456012      1.485238
  C       2.574055      3.058856      1.538882
  H       3.178494      1.045888      1.530726
  H       4.132038      4.440488      1.468635
  C       1.069166      1.098963      1.610809
  H       0.720576      0.950257      0.608212
  H       1.090697      0.139527      2.134996
  H       0.393667      1.775463      2.132575
  C       5.017762      2.505107      1.449773
  H       5.338291      2.274753      2.467821
  H       4.707668      1.586899      0.952258
  H       5.849686      2.947092      0.900440
  O      -1.451038      1.830126     -0.069778
  O       2.849680      0.219481      0.036154
  N       0.669787      1.030276     -0.036296
  N       1.086023     -1.278540      0.018720
  C      -1.193275     -0.532226     -0.035756
  C      -0.719616      0.868556     -0.050403
  C      -0.264838     -1.519938     -0.008771
  C      -2.669197     -0.776301     -0.057877
  C       1.639513     -0.016144      0.046095
  H      -0.538748     -2.568788     -0.016159
  H       1.027885      1.991457     -0.030322
  H       1.709385     -2.078193      0.003180
  H      -3.117081     -0.346674     -0.960288
  H      -3.147765     -0.321324      0.815673
  H      -2.902871     -1.846048     -0.045620
29
Coordinates from ORCA-job dimethylurea_thymine_opt_freq E -757.087898685607
  O       1.615140      3.815271      1.644142
  N       2.415735      1.670210      1.615636
  N       3.884174      3.476260      1.472358
  C       2.575513      3.035862      1.582653
  H       3.193422      1.029608      1.557919
  H       4.066106      4.469661      1.443628
  C       1.103408      1.061486      1.721045
  H       0.731531      0.901626      0.701384
  H       1.128387      0.097807      2.251385
  H       0.439480      1.742082      2.255943
  C       5.052165      2.589838      1.393641
  H       5.433122      2.377426      2.397232
  H       4.779437      1.653202      0.908990
  H       5.834808      3.075592      0.808427
  O      -1.384136      1.859089     -0.123423
  O       2.829256      0.141482      0.073411
  N       0.670245      0.995215     -0.054358
  N       1.057172     -1.322997      0.039737
  C      -1.213926     -0.540567     -0.074170
  C      -0.698930      0.856867     -0.103265
  C      -0.322373     -1.537545     -0.015822
  C      -2.695107     -0.746207     -0.121675
  C       1.637741     -0.078824      0.085623
  H      -0.621902     -2.579487     -0.027920
  H       1.046082      1.956067     -0.036909
  H       1.667691     -2.129289      0.018456
  H      -3.113974     -0.318454     -1.038278
  H      -3.177381     -0.262921      0.734208
  H      -2.955173     -1.809476     -0.096587
29
Coordinates from ORCA-job dimethylurea_thymine_opt_freq E -757.270742784597
  O       1.609736      3.792797      1.734117
  N       2.429541      1.660364      1.692572
  N       3.866144      3.490836      1.462515
  C       2.576956      3.021412      1.639859
  H       3.204084      1.021326      1.594467
  H       3.990339      4.490687      1.421664
  C       1.141583      1.032186      1.857101
  H       0.744516      0.855029      0.779850
  H       1.173870      0.073647      2.403326
  H       0.488747      1.719586      2.404134
  C       5.068991      2.666544      1.333290
  H       5.519829      2.472095      2.314682
  H       4.829122      1.713395      0.859794
  H       5.796247      3.188237      0.707049
  O      -1.340939      1.876121     -0.186210
  O       2.830110      0.045500      0.090120
  N       0.679834      0.955456     -0.080267
  N       1.030330     -1.369436      0.049279
  C      -1.232679     -0.540080     -0.119341
  C      -0.689935      0.842415     -0.168391
  C      -0.364553     -1.555570     -0.026239
  C      -2.719545     -0.708433     -0.186190
  C       1.645379     -0.154851      0.102672
  H      -0.682432     -2.592310     -0.031400
  H       1.075934      1.910586     -0.055666
  H       1.627369     -2.184633      0.030145
  H      -3.114408     -0.286456     -1.116056
  H      -3.202607     -0.192839      0.650199
  H      -3.003855     -1.764727     -0.143663
29
Coordinates from ORCA-job dimethylurea_thymine_opt_freq E -757.384681800376
  O       1.619230      3.788137      1.817455
  N       2.444444      1.658423      1.765324
  N       3.855908      3.500004      1.454193
  C       2.583664      3.015775      1.693260
  H       3.220514      1.026796      1.628357
  H       3.928810      4.504334      1.407583
  C       1.168836      1.008156      1.989270
  H       0.756231      0.816685      0.865271
  H       1.219591      0.060605      2.553414
  H       0.524200      1.696530      2.548554
  C       5.077787      2.724653      1.277188
  H       5.590231      2.542780      2.232689
  H       4.860966      1.761085      0.809701
  H       5.756243      3.270830      0.616330
  O      -1.314466      1.876189     -0.248670
  O       2.834621     -0.024999      0.101425
  N       0.689105      0.922017     -0.108601
  N       1.002438     -1.405432      0.052220
  C      -1.248837     -0.536785     -0.164725
  C      -0.687596      0.828925     -0.232841
  C      -0.397063     -1.567514     -0.035763
  C      -2.739614     -0.679737     -0.246916
  C       1.649430     -0.215063      0.103889
  H      -0.727096     -2.600209     -0.025533
  H       1.101048      1.867046     -0.075496
  H       1.589234     -2.228606      0.040550
  H      -3.116268     -0.266907     -1.188417
  H      -3.223334     -0.134589      0.570005
  H      -3.040548     -1.730243     -0.186304
29
Coordinates from ORCA-job dimethylurea_thymine_opt_freq E -757.446228287086
  O       1.626719      3.788445      1.879823
  N       2.454295      1.658423      1.818354
  N       3.847546      3.505625      1.451888
  C       2.586401      3.014275      1.734238
  H       3.231625      1.035350      1.652033
  H       3.886032      4.512094      1.405199
  C       1.185814      0.994205      2.081691
  H       0.770368      0.792389      0.938466
  H       1.255402      0.059247      2.660653
  H       0.547162      1.681725      2.647363
  C       5.077206      2.759765      1.239723
  H       5.630030      2.584171      2.174698
  H       4.872492      1.791810      0.773584
  H       5.723246      3.319753      0.557350
  O      -1.293996      1.871898     -0.300866
  O       2.836506     -0.070253      0.098175
  N       0.701420      0.896783     -0.138973
  N       0.979107     -1.428081      0.048741
  C      -1.257218     -0.533487     -0.196893
  C      -0.680939      0.819529     -0.282034
  C      -0.418003     -1.573648     -0.041241
  C      -2.750214     -0.661204     -0.284798
  C       1.648720     -0.252607      0.090270
  H      -0.756851     -2.603083     -0.013042
  H       1.127296      1.831765     -0.101288
  H       1.558470     -2.257234      0.044455
  H      -3.117500     -0.257838     -1.234174
  H      -3.231697     -0.093652      0.518092
  H      -3.061730     -1.707278     -0.208075
29
Coordinates from ORCA-job dimethylurea_thymine_opt_freq E -757.505395926321
  O       1.638442      3.793852      1.964480
  N       2.467545      1.662505      1.876962
  N       3.840060      3.515742      1.462025
  C       2.590570      3.018554      1.788986
  H       3.245949      1.052399      1.671666
  H       3.846420      4.523850      1.426021
  C       1.203974      0.985894      2.174689
  H       0.794926      0.770994      1.030743
  H       1.303084      0.069623      2.772568
  H       0.571871      1.673876      2.743798
  C       5.071868      2.795110      1.206692
  H       5.663451      2.615044      2.117525
  H       4.873599      1.829197      0.731367
  H       5.687550      3.371199      0.509040
  O      -1.274990      1.861168     -0.375951
  O       2.832238     -0.123225      0.068788
  N       0.720325      0.861825     -0.193206
  N       0.949006     -1.453610      0.036845
  C      -1.265893     -0.533807     -0.233294
  C      -0.669247      0.805587     -0.344783
  C      -0.442357     -1.582288     -0.042269
  C      -2.761354     -0.644478     -0.317766
  C       1.639379     -0.288955      0.041009
  H      -0.793005     -2.606103      0.024270
  H       1.167172      1.781879     -0.155183
  H       1.521002     -2.288500      0.051568
  H      -3.123786     -0.257016     -1.275789
  H      -3.234888     -0.047160      0.468230
  H      -3.085201     -1.684271     -0.215619
29
Coordinates from ORCA-job dimethylurea_thymine_opt_freq E -757.551652647547
  O       1.652521      3.802767      2.054752
  N       2.480299      1.670158      1.925081
  N       3.835716      3.529723      1.482345
  C       2.595965      3.028537      1.843464
  H       3.256739      1.071731      1.682139
  H       3.825214      4.538729      1.465887
  C       1.218848      0.987040      2.241794
  H       0.825818      0.759687      1.126031
  H       1.349013      0.088745      2.855851
  H       0.590013      1.677524      2.808164
  C       5.062935      2.821780      1.185493
  H       5.680832      2.624940      2.075415
  H       4.860995      1.865098      0.691935
  H       5.659515      3.413433      0.483923
  O      -1.255117      1.842804     -0.454857
  O       2.819579     -0.165989      0.022280
  N       0.739865      0.821164     -0.259115
  N       0.921431     -1.475764      0.022394
  C      -1.273482     -0.540794     -0.262752
  C      -0.654299      0.785024     -0.402695
  C      -0.464246     -1.594464     -0.039416
  C      -2.771070     -0.632515     -0.337038
  C       1.619742     -0.311920     -0.028625
  H      -0.826388     -2.610622      0.071798
  H       1.209871      1.726670     -0.225221
  H       1.491182     -2.311412      0.061055
  H      -3.132906     -0.261864     -1.302120
  H      -3.232880     -0.006426      0.433589
  H      -3.107994     -1.664900     -0.208138
29
Coordinates from ORCA-job dimethylurea_thymine_opt_freq E -757.585834218475
  O       1.667332      3.811752      2.143043
  N       2.494888      1.681289      1.961744
  N       3.834910      3.548724      1.508928
  C       2.604268      3.043229      1.894893
  H       3.266398      1.091355      1.684868
  H       3.822547      4.558096      1.515063
  C       1.232688      0.995596      2.282380
  H       0.859971      0.758417      1.218618
  H       1.389875      0.111485      2.907741
  H       0.602611      1.690454      2.839417
  C       5.053488      2.843090      1.174892
  H       5.685751      2.622005      2.048666
  H       4.839927      1.900427      0.659256
  H       5.641158      3.448952      0.478014
  O      -1.239909      1.821558     -0.524622
  O       2.803296     -0.203646     -0.027526
  N       0.756669      0.777611     -0.330562
  N       0.898052     -1.498532      0.009846
  C      -1.281578     -0.552744     -0.285057
  C      -0.641884      0.760970     -0.451476
  C      -0.483774     -1.611024     -0.036909
  C      -2.780627     -0.623820     -0.345723
  C       1.593445     -0.327204     -0.102168
  H      -0.857485     -2.617886      0.115573
  H       1.250169      1.669128     -0.303506
  H       1.469954     -2.330575      0.073399
  H      -3.144788     -0.267799     -1.315600
  H      -3.228867      0.026400      0.412999
  H      -3.130771     -1.648422     -0.192777
29
Coordinates from ORCA-job dimethylurea_thymine_opt_freq E -757.607602686258
  O       1.694648      3.826219      2.246634
  N       2.516791      1.700815      1.993735
  N       3.843284      3.576261      1.541077
  C       2.623145      3.066388      1.950493
  H       3.278444      1.116030      1.680402
  H       3.844624      4.585119      1.577580
  C       1.250599      1.015471      2.310720
  H       0.892113      0.767492      1.310876
  H       1.431885      0.142884      2.944337
  H       0.616209      1.716502      2.853424
  C       5.046832      2.864850      1.162702
  H       5.686296      2.604013      2.019516
  H       4.810739      1.945801      0.615425
  H       5.633160      3.488150      0.480611
  O      -1.236044      1.797940     -0.585508
  O       2.786085     -0.253681     -0.062647
  N       0.762071      0.733434     -0.399525
  N       0.874894     -1.528713      0.005367
  C      -1.293836     -0.569541     -0.305792
  C      -0.640739      0.736443     -0.484141
  C      -0.504964     -1.633562     -0.041811
  C      -2.793356     -0.622485     -0.359027
  C       1.564928     -0.349560     -0.163936
  H      -0.892321     -2.630502      0.140651
  H       1.278078      1.611564     -0.385218
  H       1.449365     -2.355288      0.098285
  H      -3.158095     -0.273313     -1.331256
  H      -3.232082      0.041305      0.393569
  H      -3.155045     -1.641152     -0.193128
29
Coordinates from ORCA-job dimethylurea_thymine_opt_freq E -757.618335371981
  O       1.745384      3.854283      2.367014
  N       2.543989      1.731961      2.026820
  N       3.864726      3.608890      1.571989
  C       2.656636      3.099614      2.012096
  H       3.288196      1.147885      1.671690
  H       3.895137      4.615173      1.645355
  C       1.272936      1.052248      2.342889
  H       0.912170      0.784884      1.389439
  H       1.473087      0.190137      2.984814
  H       0.633542      1.760122      2.869826
  C       5.043422      2.884086      1.138157
  H       5.684966      2.564577      1.972635
  H       4.771855      2.001118      0.549769
  H       5.636330      3.526595      0.480575
  O      -1.246721      1.773400     -0.631784
  O       2.770619     -0.310662     -0.071160
  N       0.753231      0.695345     -0.445145
  N       0.850511     -1.563525      0.009313
  C      -1.310393     -0.589920     -0.324926
  C      -0.653549      0.714628     -0.493756
  C      -0.527549     -1.660140     -0.060976
  C      -2.809538     -0.634967     -0.386941
  C       1.543866     -0.384743     -0.188311
  H      -0.928165     -2.651474      0.124522
  H       1.285525      1.563302     -0.450927
  H       1.423409     -2.387029      0.130358
  H      -3.168032     -0.280747     -1.359662
  H      -3.250264      0.026320      0.366693
  H      -3.177614     -1.652476     -0.226952
29
Coordinates from ORCA-job dimethylurea_thymine_opt_freq E -757.624769715550
  O       1.799622      3.884840      2.474668
  N       2.566272      1.764043      2.057925
  N       3.887448      3.637394      1.597689
  C       2.690533      3.132122      2.068366
  H       3.289494      1.179438      1.662396
  H       3.951123      4.639022      1.703031
  C       1.294240      1.093518      2.376470
  H       0.920002      0.800808      1.442012
  H       1.505041      0.238569      3.025311
  H       0.650061      1.807189      2.889108
  C       5.039367      2.897283      1.114811
  H       5.676676      2.518781      1.927281
  H       4.732200      2.052925      0.488457
  H       5.644890      3.554261      0.484244
  O      -1.257532      1.752890     -0.671927
  O       2.755973     -0.354000     -0.076115
  N       0.742167      0.665268     -0.475824
  N       0.831036     -1.595653      0.008926
  C      -1.324569     -0.607803     -0.338616
  C      -0.667659      0.696437     -0.506689
  C      -0.545421     -1.684075     -0.081921
  C      -2.823437     -0.651228     -0.410609
  C       1.530823     -0.420646     -0.192992
  H      -0.956287     -2.673237      0.093054
  H       1.284872      1.525980     -0.500086
  H       1.399936     -2.418776      0.150338
  H      -3.176335     -0.294494     -1.384404
  H      -3.268447      0.006574      0.343523
  H      -3.194379     -1.668546     -0.255016
29
Coordinates from ORCA-job dimethylurea_thymine_opt_freq E -757.631766157809
  O       1.880248      3.926126      2.615384
  N       2.596439      1.809861      2.097010
  N       3.921559      3.677858      1.632330
  C       2.740118      3.177012      2.141949
  H       3.286345      1.227674      1.642303
  H       4.030984      4.669556      1.780973
  C       1.328059      1.151917      2.425600
  H       0.925665      0.818309      1.502507
  H       1.546461      0.303623      3.082674
  H       0.677477      1.871756      2.920575
  C       5.039068      2.920988      1.091842
  H       5.659697      2.460062      1.874095
  H       4.691174      2.136073      0.411424
  H       5.670197      3.595472      0.507507
  O      -1.268345      1.722503     -0.733099
  O       2.733398     -0.410445     -0.085785
  N       0.723876      0.621201     -0.519703
  N       0.802142     -1.640826     -0.002315
  C      -1.347089     -0.634063     -0.357080
  C      -0.687715      0.666856     -0.540805
  C      -0.573564     -1.717418     -0.107527
  C      -2.846166     -0.675837     -0.437197
  C       1.511535     -0.472464     -0.200857
  H      -0.996536     -2.703863      0.053200
  H       1.278292      1.472080     -0.569062
  H       1.363586     -2.464315      0.165355
  H      -3.194766     -0.323201     -1.413944
  H      -3.293720     -0.016207      0.313868
  H      -3.220707     -1.691401     -0.277808
29
Coordinates from ORCA-job dimethylurea_thymine_opt_freq E -757.636518700511
  O       1.953790      3.959301      2.727581
  N       2.627753      1.851599      2.125022
  N       3.954403      3.718167      1.660920
  C       2.788424      3.216418      2.202793
  H       3.284054      1.278942      1.611732
  H       4.095728      4.699355      1.846376
  C       1.366778      1.201319      2.470942
  H       0.933227      0.828851      1.556492
  H       1.585216      0.357292      3.135354
  H       0.711334      1.925022      2.953226
  C       5.052725      2.954634      1.088836
  H       5.646192      2.426019      1.849218
  H       4.688194      2.223991      0.357925
  H       5.713730      3.642709      0.556336
  O      -1.279175      1.690473     -0.792277
  O       2.706926     -0.461712     -0.104516
  N       0.702749      0.573409     -0.568451
  N       0.769365     -1.683812     -0.025396
  C      -1.374711     -0.662216     -0.377849
  C      -0.708709      0.631676     -0.588063
  C      -0.607726     -1.749796     -0.126300
  C      -2.874663     -0.699151     -0.455388
  C       1.486821     -0.521474     -0.221773
  H      -1.039438     -2.732649      0.032258
  H       1.267486      1.414604     -0.642121
  H       1.323191     -2.506750      0.168481
  H      -3.224475     -0.356277     -1.435128
  H      -3.317898     -0.030113      0.290053
  H      -3.253578     -1.710944     -0.282871
29
Coordinates from ORCA-job dimethylurea_thymine_opt_freq E -757.639490490235
  O       2.021114      3.987281      2.813309
  N       2.659629      1.890853      2.135967
  N       3.987962      3.758207      1.682412
  C       2.832477      3.252545      2.243118
  H       3.284818      1.333933      1.569039
  H       4.148375      4.728797      1.904927
  C       1.409984      1.241738      2.508829
  H       0.944666      0.835931      1.606585
  H       1.626457      0.402822      3.181484
  H       0.752599      1.967626      2.985188
  C       5.082782      2.993728      1.105453
  H       5.636035      2.406651      1.853232
  H       4.725265      2.314430      0.322671
  H       5.779578      3.691151      0.634643
  O      -1.297795      1.654595     -0.847087
  O       2.674798     -0.503411     -0.134046
  N       0.673120      0.526725     -0.617820
  N       0.733458     -1.722574     -0.053644
  C      -1.408222     -0.693704     -0.401304
  C      -0.735658      0.593231     -0.634426
  C      -0.646102     -1.781394     -0.137997
  C      -2.909010     -0.724762     -0.470018
  C       1.455002     -0.563402     -0.255100
  H      -1.081476     -2.760461      0.032764
  H       1.245194      1.359655     -0.717397
  H       1.281874     -2.542253      0.167461
  H      -3.263160     -0.392168     -1.451727
  H      -3.344764     -0.044307      0.269578
  H      -3.291290     -1.732576     -0.282681
29
Coordinates from ORCA-job dimethylurea_thymine_opt_freq E -757.641308403349
  O       2.075172      4.008707      2.874378
  N       2.689785      1.922351      2.141874
  N       4.014687      3.792798      1.694133
  C       2.872745      3.280242      2.277850
  H       3.289061      1.384606      1.530584
  H       4.180786      4.756592      1.941912
  C       1.452168      1.271826      2.542246
  H       0.960242      0.841165      1.655559
  H       1.665325      0.440410      3.225656
  H       0.795452      2.000440      3.015891
  C       5.115611      3.029531      1.129093
  H       5.629691      2.402311      1.872184
  H       4.778141      2.388052      0.305851
  H       5.842344      3.730893      0.712706
  O      -1.323699      1.623042     -0.892802
  O       2.643466     -0.535854     -0.165931
  N       0.644265      0.486296     -0.663979
  N       0.700849     -1.755588     -0.083468
  C      -1.440328     -0.722526     -0.426505
  C      -0.763155      0.558807     -0.679691
  C      -0.680899     -1.808519     -0.149374
  C      -2.941719     -0.747060     -0.481456
  C       1.424334     -0.597626     -0.292617
  H      -1.116703     -2.783580      0.041995
  H       1.222103      1.311923     -0.787565
  H       1.244927     -2.570195      0.165153
  H      -3.302577     -0.424120     -1.463964
  H      -3.367925     -0.055045      0.252998
  H      -3.326439     -1.750994     -0.279299
29
Coordinates from ORCA-job dimethylurea_thymine_opt_freq E -757.642314436657
  O       2.133704      4.030209      2.930167
  N       2.713992      1.956535      2.132051
  N       4.046131      3.825956      1.703763
  C       2.906051      3.310413      2.292032
  H       3.291879      1.437184      1.486062
  H       4.219888      4.779396      1.985649
  C       1.491923      1.301958      2.566216
  H       0.975937      0.850313      1.699042
  H       1.709358      0.483425      3.264099
  H       0.838668      2.034150      3.040184
  C       5.154954      3.058597      1.161220
  H       5.617514      2.388832      1.900864
  H       4.845211      2.459329      0.295680
  H       5.917641      3.757042      0.809276
  O      -1.358534      1.586621     -0.939477
  O       2.610086     -0.554636     -0.203499
  N       0.606471      0.453657     -0.704421
  N       0.670588     -1.781415     -0.110532
  C      -1.474428     -0.753260     -0.448125
  C      -0.797736      0.525571     -0.715300
  C      -0.712738     -1.833943     -0.158484
  C      -2.976028     -0.776683     -0.491464
  C       1.391550     -0.622417     -0.330990
  H      -1.143964     -2.806528      0.054883
  H       1.184647      1.274495     -0.854180
  H       1.214098     -2.588486      0.162461
  H      -3.343145     -0.462676     -1.474583
  H      -3.396346     -0.076223      0.238288
  H      -3.359664     -1.778529     -0.277469
29
Coordinates from ORCA-job dimethylurea_thymine_opt_freq E -757.642944880566
  O       2.176812      4.043709      2.971200
  N       2.735811      1.976835      2.137806
  N       4.064359      3.847615      1.704101
  C       2.941298      3.325386      2.322717
  H       3.297809      1.473445      1.466495
  H       4.236098      4.799161      1.994709
  C       1.524467      1.321353      2.597353
  H       0.992492      0.857229      1.748580
  H       1.745172      0.517770      3.311568
  H       0.876563      2.059784      3.070148
  C       5.180876      3.079828      1.177956
  H       5.617854      2.395073      1.919151
  H       4.890325      2.496563      0.294610
  H       5.958741      3.776466      0.856932
  O      -1.389713      1.562927     -0.976672
  O       2.585944     -0.569029     -0.227532
  N       0.579805      0.431127     -0.733600
  N       0.647965     -1.801019     -0.132984
  C      -1.499962     -0.774167     -0.468526
  C      -0.824426      0.503262     -0.748425
  C      -0.736274     -1.851668     -0.171314
  C      -3.001540     -0.796994     -0.504904
  C       1.368388     -0.641300     -0.359014
  H      -1.164302     -2.822269      0.057387
  H       1.158856      1.247477     -0.903651
  H       1.189419     -2.602322      0.160343
  H      -3.371921     -0.491112     -1.489422
  H      -3.418594     -0.089322      0.219697
  H      -3.384611     -1.796921     -0.281297
29
Coordinates from ORCA-job dimethylurea_thymine_opt_freq E -757.643406309989
  O       2.228932      4.058969      3.017953
  N       2.747233      2.003101      2.131029
  N       4.091123      3.866789      1.711564
  C       2.967801      3.346146      2.335147
  H       3.297459      1.510250      1.443293
  H       4.273939      4.809140      2.025662
  C       1.547702      1.346662      2.618667
  H       1.003896      0.871029      1.788952
  H       1.779887      0.562720      3.350996
  H       0.906152      2.092563      3.089577
  C       5.206990      3.089320      1.196073
  H       5.608161      2.377859      1.931943
  H       4.929819      2.534505      0.290274
  H       6.008163      3.776647      0.914510
  O      -1.426887      1.535743     -1.018839
  O       2.562366     -0.567853     -0.255447
  N       0.548425      0.417201     -0.757103
  N       0.631112     -1.811966     -0.149604
  C      -1.523877     -0.795830     -0.482489
  C      -0.855378      0.482815     -0.775722
  C      -0.753417     -1.867352     -0.180641
  C      -3.025292     -0.826176     -0.515322
  C       1.346112     -0.649696     -0.383128
  H      -1.174870     -2.838412      0.058406
  H       1.123370      1.231885     -0.948088
  H       1.174991     -2.606784      0.156769
  H      -3.398573     -0.531263     -1.502132
  H      -3.444303     -0.113352      0.203021
  H      -3.403325     -1.825775     -0.281906
29
Coordinates from ORCA-job dimethylurea_thymine_opt_freq E -757.643809272136
  O       2.281400      4.070522      3.068440
  N       2.753692      2.023523      2.137401
  N       4.114436      3.876245      1.720002
  C       2.997453      3.358811      2.360827
  H       3.293860      1.534680      1.439195
  H       4.312217      4.811592      2.046249
  C       1.562480      1.370046      2.651199
  H       1.011571      0.886257      1.838000
  H       1.808777      0.608773      3.402618
  H       0.929016      2.125885      3.118381
  C       5.220074      3.089148      1.193903
  H       5.607239      2.361286      1.920895
  H       4.935540      2.552497      0.279637
  H       6.033065      3.767537      0.924682
  O      -1.456687      1.512148     -1.067516
  O       2.545494     -0.557590     -0.271305
  N       0.521684      0.413871     -0.766593
  N       0.620963     -1.814394     -0.157534
  C      -1.541025     -0.811674     -0.495221
  C      -0.880953      0.469661     -0.797336
  C      -0.763403     -1.877073     -0.189548
  C      -3.042006     -0.854006     -0.534379
  C       1.329963     -0.649045     -0.394634
  H      -1.179068     -2.850323      0.050833
  H       1.090270      1.228345     -0.975960
  H       1.168059     -2.604801      0.154654
  H      -3.412841     -0.570554     -1.525473
  H      -3.469560     -0.138257      0.175949
  H      -3.413997     -1.854227     -0.293953
29
Coordinates from ORCA-job dimethylurea_thymine_opt_freq E -757.644192264835
  O       2.338516      4.079848      3.126485
  N       2.750697      2.042747      2.149379
  N       4.140297      3.875633      1.736799
  C       3.025763      3.367871      2.390830
  H       3.282549      1.548718      1.448811
  H       4.364868      4.800633      2.074877
  C       1.564048      1.397470      2.688106
  H       1.011821      0.906590      1.888299
  H       1.825248      0.661622      3.459290
  H       0.939151      2.165785      3.147171
  C       5.220675      3.074885      1.176933
  H       5.606496      2.329528      1.886642
  H       4.906461      2.557852      0.261400
  H       6.041636      3.741372      0.902487
  O      -1.489794      1.492098     -1.123009
  O       2.535635     -0.533567     -0.281007
  N       0.500518      0.421191     -0.769396
  N       0.620818     -1.806369     -0.158391
  C      -1.550523     -0.823324     -0.507103
  C      -0.903753      0.461546     -0.825222
  C      -0.762723     -1.880774     -0.196877
  C      -3.050738     -0.884210     -0.554334
  C       1.320719     -0.636653     -0.398078
  H      -1.171671     -2.857392      0.041241
  H       1.060269      1.237604     -0.994838
  H       1.173788     -2.593479      0.151922
  H      -3.419172     -0.618498     -1.551223
  H      -3.490806     -0.164702      0.144531
  H      -3.413082     -1.885137     -0.302312
29
Coordinates from ORCA-job dimethylurea_thymine_opt_freq E -757.644547960403
  O       2.402270      4.085506      3.192887
  N       2.744061      2.057884      2.173902
  N       4.166136      3.865005      1.758044
  C       3.058443      3.370103      2.431775
  H       3.263821      1.549838      1.473905
  H       4.425599      4.777946      2.103067
  C       1.559975      1.426180      2.738431
  H       1.006994      0.927089      1.946344
  H       1.834010      0.712615      3.525637
  H       0.943610      2.207035      3.188073
  C       5.204852      3.053551      1.137512
  H       5.610903      2.292241      1.818787
  H       4.837332      2.554827      0.231983
  H       6.023016      3.710529      0.833837
  O      -1.507889      1.471217     -1.187467
  O       2.529686     -0.500185     -0.279304
  N       0.483208      0.436598     -0.757431
  N       0.625709     -1.789229     -0.147395
  C      -1.553479     -0.831155     -0.520674
  C      -0.918822      0.457440     -0.846822
  C      -0.756414     -1.878606     -0.199028
  C      -3.052150     -0.913386     -0.586723
  C       1.315103     -0.614532     -0.388428
  H      -1.158978     -2.859004      0.034074
  H       1.031905      1.256472     -0.996885
  H       1.186019     -2.574276      0.154919
  H      -3.411531     -0.664556     -1.591210
  H      -3.510899     -0.192432      0.098564
  H      -3.404778     -1.915832     -0.326962
29
Coordinates from ORCA-job dimethylurea_thymine_opt_freq E -757.644910933630
  O       2.472165      4.087886      3.262211
  N       2.731735      2.072578      2.200008
  N       4.197465      3.844469      1.786154
  C       3.092055      3.368872      2.473414
  H       3.236609      1.541590      1.505243
  H       4.500390      4.740106      2.140024
  C       1.548016      1.459620      2.790584
  H       0.995644      0.950068      2.002437
  H       1.829791      0.762887      3.589806
  H       0.938169      2.252017      3.228341
  C       5.178602      3.024591      1.089130
  H       5.612587      2.243010      1.729634
  H       4.744479      2.549625      0.200668
  H       5.988323      3.672509      0.746214
  O      -1.528322      1.453322     -1.250880
  O       2.528974     -0.457347     -0.271642
  N       0.469407      0.459247     -0.742411
  N       0.637315     -1.763524     -0.129467
  C      -1.550947     -0.837128     -0.536841
  C      -0.931063      0.455200     -0.875464
  C      -0.742756     -1.871380     -0.197163
  C      -3.047302     -0.944396     -0.620941
  C       1.313622     -0.582620     -0.374624
  H      -1.137265     -2.854925      0.036145
  H       1.004913      1.284354     -0.993711
  H       1.207128     -2.545833      0.161878
  H      -3.398010     -0.716102     -1.633303
  H      -3.526400     -0.221552      0.048372
  H      -3.387614     -1.948260     -0.350405
29
Coordinates from ORCA-job dimethylurea_thymine_opt_freq E -757.645214760803
  O       2.540241      4.089461      3.321897
  N       2.722193      2.087648      2.221925
  N       4.230752      3.823035      1.811359
  C       3.127049      3.366903      2.510418
  H       3.209272      1.534796      1.530923
  H       4.571342      4.701952      2.172216
  C       1.541491      1.493121      2.838574
  H       0.986224      0.970483      2.053812
  H       1.826012      0.803631      3.643112
  H       0.935276      2.293005      3.266627
  C       5.155990      2.999628      1.047789
  H       5.615000      2.200249      1.648194
  H       4.664137      2.545686      0.178685
  H       5.954484      3.641110      0.668186
  O      -1.545321      1.434848     -1.302412
  O       2.523003     -0.413125     -0.267252
  N       0.452795      0.480060     -0.727447
  N       0.645469     -1.736554     -0.109753
  C      -1.550356     -0.845375     -0.554712
  C      -0.943290      0.450967     -0.898469
  C      -0.732081     -1.864261     -0.192320
  C      -3.043771     -0.975919     -0.657266
  C       1.308084     -0.549537     -0.362501
  H      -1.116860     -2.850090      0.047430
  H       0.974772      1.310645     -0.989594
  H       1.225389     -2.514525      0.172885
  H      -3.384637     -0.762972     -1.676283
  H      -3.542683     -0.253851     -0.001657
  H      -3.372265     -1.982132     -0.380955
29
Coordinates from ORCA-job dimethylurea_thymine_opt_freq E -757.645448982162
  O       2.607125      4.090076      3.374685
  N       2.715163      2.105803      2.235419
  N       4.266487      3.804617      1.833650
  C       3.161738      3.367058      2.540916
  H       3.185957      1.536105      1.545786
  H       4.637715      4.667742      2.202179
  C       1.539161      1.526641      2.875328
  H       0.979114      0.989974      2.097238
  H       1.822440      0.838231      3.681562
  H       0.933371      2.330311      3.295696
  C       5.142499      2.979112      1.018207
  H       5.615409      2.162088      1.583398
  H       4.605412      2.546614      0.165205
  H       5.933796      3.613300      0.611738
  O      -1.569974      1.419213     -1.334354
  O       2.515062     -0.372924     -0.263165
  N       0.432403      0.498423     -0.717664
  N       0.649775     -1.711475     -0.091238
  C      -1.553270     -0.856654     -0.572656
  C      -0.959775      0.445513     -0.916802
  C      -0.724959     -1.859264     -0.187896
  C      -3.043230     -1.009453     -0.691959
  C       1.299827     -0.518959     -0.355027
  H      -1.098285     -2.847056      0.061873
  H       0.940810      1.334403     -0.989408
  H       1.239073     -2.483511      0.188078
  H      -3.374753     -0.806773     -1.716134
  H      -3.560777     -0.291093     -0.046785
  H      -3.359602     -2.019178     -0.414455
29
Coordinates from ORCA-job dimethylurea_thymine_opt_freq E -757.645631075823
  O       2.675226      4.086919      3.426549
  N       2.710913      2.126668      2.242714
  N       4.303966      3.790069      1.854939
  C       3.198063      3.367562      2.569662
  H       3.168034      1.547432      1.552024
  H       4.699849      4.637995      2.233008
  C       1.541312      1.560685      2.902938
  H       0.975560      1.009506      2.136547
  H       1.821322      0.872474      3.711010
  H       0.934653      2.367187      3.315730
  C       5.137596      2.964604      0.997633
  H       5.614002      2.128558      1.531401
  H       4.565369      2.556939      0.155443
  H       5.926980      3.590847      0.575085
  O      -1.598478      1.402638     -1.355679
  O       2.500624     -0.335404     -0.263607
  N       0.408610      0.511661     -0.713140
  N       0.648744     -1.689707     -0.073526
  C      -1.560165     -0.871209     -0.589291
  C      -0.979905      0.437341     -0.931018
  C      -0.722575     -1.857740     -0.184419
  C      -3.046260     -1.044592     -0.725316
  C       1.287265     -0.492980     -0.350687
  H      -1.083464     -2.847733      0.075045
  H       0.904581      1.352251     -0.994121
  H       1.246639     -2.454660      0.206946
  H      -3.367891     -0.848641     -1.753958
  H      -3.581492     -0.331537     -0.088774
  H      -3.351367     -2.058250     -0.449725
29
Coordinates from ORCA-job dimethylurea_thymine_opt_freq E -757.645836853601
  O       2.748143      4.077900      3.480592
  N       2.706482      2.151828      2.242267
  N       4.346522      3.776003      1.878787
  C       3.237245      3.367256      2.597534
  H       3.152989      1.567565      1.548859
  H       4.765581      4.606264      2.270965
  C       1.543248      1.597861      2.920070
  H       0.971692      1.031179      2.171071
  H       1.819141      0.911578      3.731972
  H       0.934488      2.406696      3.324660
  C       5.140571      2.953036      0.983367
  H       5.609757      2.093766      1.485834
  H       4.539298      2.578450      0.146161
  H       5.934702      3.569724      0.555533
  O      -1.635343      1.384792     -1.369096
  O       2.483957     -0.298174     -0.263243
  N       0.379847      0.523962     -0.713387
  N       0.644845     -1.668163     -0.054947
  C      -1.570093     -0.888626     -0.603989
  C      -1.005695      0.427936     -0.941686
  C      -0.722228     -1.858473     -0.181831
  C      -3.051615     -1.084168     -0.757028
  C       1.272126     -0.468131     -0.348232
  H      -1.068786     -2.851755      0.084810
  H       0.862363      1.369588     -1.002529
  H       1.251305     -2.424827      0.229665
  H      -3.363332     -0.893041     -1.789657
  H      -3.605082     -0.378661     -0.127743
  H      -3.344418     -2.102481     -0.485364
29
Coordinates from ORCA-job dimethylurea_thymine_opt_freq E -757.646048428732
  O       2.824844      4.059688      3.538913
  N       2.699047      2.180905      2.235175
  N       4.392979      3.758640      1.907439
  C       3.278174      3.363349      2.626396
  H       3.137138      1.594960      1.538608
  H       4.837998      4.565437      2.319550
  C       1.541563      1.638813      2.928104
  H       0.965922      1.055768      2.201002
  H       1.815415      0.961426      3.748975
  H       0.931062      2.451659      3.321916
  C       5.147089      2.941908      0.972997
  H       5.597021      2.053125      1.440530
  H       4.520795      2.613504      0.134839
  H       5.953764      3.546645      0.551651
  O      -1.676487      1.362863     -1.385556
  O       2.463344     -0.255491     -0.266602
  N       0.348478      0.535631     -0.719336
  N       0.640784     -1.645098     -0.036738
  C      -1.580645     -0.907415     -0.615122
  C      -1.034304      0.416814     -0.953067
  C      -0.721013     -1.860206     -0.179399
  C      -3.057075     -1.127043     -0.783127
  C       1.254974     -0.442165     -0.347438
  H      -1.051604     -2.858036      0.090665
  H       0.816799      1.386877     -1.015298
  H       1.256946     -2.392374      0.252025
  H      -3.360382     -0.943026     -1.819559
  H      -3.628295     -0.428914     -0.161570
  H      -3.336619     -2.149360     -0.512563
29
Coordinates from ORCA-job dimethylurea_thymine_opt_freq E -757.646299582496
  O       2.910453      4.026648      3.606202
  N       2.685109      2.215001      2.222900
  N       4.445417      3.730059      1.943182
  C       3.322459      3.351824      2.658770
  H       3.113749      1.626370      1.522812
  H       4.925683      4.501977      2.381613
  C       1.531072      1.686632      2.929566
  H       0.953547      1.084638      2.227510
  H       1.805746      1.027781      3.765945
  H       0.919041      2.505574      3.308669
  C       5.149643      2.927044      0.959108
  H       5.566987      1.999232      1.378559
  H       4.496541      2.666280      0.117775
  H       5.976360      3.515388      0.553885
  O      -1.720776      1.336589     -1.409688
  O       2.443798     -0.202723     -0.265931
  N       0.315543      0.551531     -0.728931
  N       0.640635     -1.615565     -0.016024
  C      -1.588235     -0.926091     -0.623137
  C      -1.063951      0.405947     -0.965931
  C      -0.714530     -1.859619     -0.174938
  C      -3.058412     -1.174677     -0.805190
  C       1.238711     -0.409465     -0.345015
  H      -1.026991     -2.863171      0.095435
  H       0.766850      1.410248     -1.029229
  H       1.268436     -2.352011      0.275803
  H      -3.354300     -1.002277     -1.845739
  H      -3.648686     -0.483964     -0.193244
  H      -3.322188     -2.200317     -0.531325
29
Coordinates from ORCA-job dimethylurea_thymine_opt_freq E -757.646635967499
  O       3.006005      3.967750      3.685831
  N       2.661646      2.253857      2.205512
  N       4.503129      3.681663      1.987558
  C       3.369547      3.325896      2.696395
  H       3.076201      1.660438      1.501001
  H       5.030715      4.401641      2.458514
  C       1.508113      1.742854      2.924651
  H       0.931563      1.117485      2.249701
  H       1.786036      1.115488      3.784398
  H       0.894518      2.570743      3.282391
  C       5.142006      2.907394      0.937488
  H       5.509792      1.930909      1.286857
  H       4.459710      2.743692      0.095056
  H       5.996550      3.472438      0.557911
  O      -1.763643      1.304679     -1.446407
  O       2.424805     -0.133519     -0.260400
  N       0.284756      0.572918     -0.743583
  N       0.647685     -1.576004      0.008591
  C      -1.589012     -0.943277     -0.627821
  C      -1.090302      0.395184     -0.983709
  C      -0.699150     -1.853919     -0.165319
  C      -3.051662     -1.225922     -0.821227
  C       1.224796     -0.365950     -0.339368
  H      -0.991358     -2.863269      0.105823
  H       0.715950      1.441664     -1.044178
  H       1.289786     -2.299158      0.302963
  H      -3.341494     -1.073098     -1.866474
  H      -3.661842     -0.540669     -0.222781
  H      -3.297136     -2.253022     -0.535960
29
Coordinates from ORCA-job dimethylurea_thymine_opt_freq E -757.647081010153
  O       3.096508      3.877792      3.766838
  N       2.628686      2.289686      2.183351
  N       4.555377      3.610277      2.033140
  C       3.410461      3.280708      2.732943
  H       3.022247      1.690172      1.471063
  H       5.136270      4.264061      2.536370
  C       1.470401      1.798564      2.910716
  H       0.897710      1.146722      2.260070
  H       1.751789      1.214425      3.799217
  H       0.853983      2.636512      3.241196
  C       5.119522      2.884948      0.907181
  H       5.425276      1.860453      1.166929
  H       4.410906      2.838752      0.072096
  H       6.004867      3.421163      0.557897
  O      -1.794988      1.273204     -1.488442
  O       2.414211     -0.053741     -0.241065
  N       0.265548      0.600022     -0.762399
  N       0.665405     -1.527903      0.035778
  C      -1.577818     -0.953989     -0.627540
  C      -1.104693      0.388159     -1.003084
  C      -0.672594     -1.839999     -0.148239
  C      -3.032771     -1.271022     -0.826652
  C       1.219398     -0.313191     -0.327997
  H      -0.945774     -2.853249      0.127674
  H       0.675054      1.481381     -1.055693
  H       1.322201     -2.235944      0.334784
  H      -3.319029     -1.144509     -1.876297
  H      -3.660696     -0.587744     -0.244444
  H      -3.259747     -2.296822     -0.521976
29
Coordinates from ORCA-job dimethylurea_thymine_opt_freq E -757.647570188277
  O       3.173396      3.767189      3.837515
  N       2.590405      2.315141      2.164188
  N       4.592643      3.522164      2.067771
  C       3.439970      3.220121      2.762973
  H       2.952506      1.710793      1.438160
  H       5.224746      4.106459      2.593802
  C       1.424911      1.845381      2.898434
  H       0.857926      1.165952      2.265527
  H       1.707753      1.310049      3.815860
  H       0.804192      2.692940      3.197686
  C       5.080052      2.860854      0.868363
  H       5.319807      1.799576      1.030834
  H       4.350730      2.933879      0.053383
  H       5.993040      3.365276      0.543915
  O      -1.806946      1.247615     -1.529721
  O       2.412305      0.029956     -0.206471
  N       0.263087      0.630324     -0.781155
  N       0.692860     -1.475945      0.062571
  C      -1.553864     -0.956587     -0.625380
  C      -1.101895      0.385838     -1.023338
  C      -0.637053     -1.818092     -0.124670
  C      -3.002063     -1.303050     -0.825291
  C       1.223518     -0.255082     -0.310310
  H      -0.895281     -2.831394      0.164750
  H       0.651416      1.525073     -1.061590
  H       1.362648     -2.166983      0.372421
  H      -3.285779     -1.206010     -1.878667
  H      -3.644304     -0.617651     -0.261397
  H      -3.213016     -2.324902     -0.496750
29
Coordinates from ORCA-job dimethylurea_thymine_opt_freq E -757.647959493008
  O       3.226763      3.673471      3.881338
  N       2.557899      2.321159      2.157483
  N       4.607209      3.444924      2.078052
  C       3.454791      3.163790      2.779655
  H       2.883362      1.716872      1.412614
  H       5.275227      3.982594      2.609020
  C       1.385951      1.870658      2.898564
  H       0.824485      1.169913      2.273772
  H       1.666394      1.373861      3.836917
  H       0.759771      2.724687      3.169758
  C       5.031454      2.838122      0.827042
  H       5.220112      1.758118      0.915089
  H       4.287109      2.996822      0.038185
  H       5.960940      3.316979      0.510670
  O      -1.798182      1.237557     -1.554049
  O       2.419767      0.095725     -0.158124
  N       0.277063      0.657026     -0.791121
  N       0.721743     -1.433784      0.084714
  C      -1.524064     -0.951754     -0.624950
  C      -1.083945      0.389711     -1.036540
  C      -0.602768     -1.794594     -0.101819
  C      -2.967741     -1.315585     -0.826262
  C       1.235832     -0.206143     -0.287049
  H      -0.853373     -2.804241      0.206394
  H       0.649618      1.562240     -1.058407
  H       1.398553     -2.108817      0.413687
  H      -3.247229     -1.239799     -1.882480
  H      -3.619875     -0.626883     -0.277981
  H      -3.169154     -2.333742     -0.480758
29
Coordinates from ORCA-job dimethylurea_thymine_opt_freq E -757.648183114651
  O       3.260599      3.625165      3.898719
  N       2.538744      2.317146      2.162928
  N       4.609444      3.398417      2.070651
  C       3.461777      3.130318      2.785153
  H       2.832862      1.715673      1.402402
  H       5.293832      3.921527      2.595093
  C       1.366607      1.881282      2.914385
  H       0.808539      1.168121      2.293863
  H       1.644368      1.404050      3.862866
  H       0.735355      2.738316      3.165634
  C       4.993917      2.817237      0.795527
  H       5.155679      1.730872      0.848577
  H       4.238879      3.015173      0.025671
  H       5.928618      3.281583      0.472695
  O      -1.786954      1.238923     -1.560227
  O       2.424895      0.137507     -0.117712
  N       0.289934      0.675546     -0.790759
  N       0.740840     -1.407411      0.098432
  C      -1.502376     -0.947081     -0.629004
  C      -1.068381      0.395409     -1.041755
  C      -0.580242     -1.778130     -0.088844
  C      -2.942812     -1.319742     -0.836150
  C       1.245247     -0.173511     -0.266942
  H      -0.826593     -2.784111      0.234592
  H       0.652840      1.586208     -1.052904
  H       1.419766     -2.069144      0.449054
  H      -3.215628     -1.251971     -1.894710
  H      -3.602781     -0.631099     -0.297390
  H      -3.139265     -2.337389     -0.486434
29
Coordinates from ORCA-job dimethylurea_thymine_opt_freq E -757.648358335343
  O       3.267116      3.626546      3.891866
  N       2.533762      2.300945      2.175067
  N       4.598472      3.390431      2.051890
  C       3.457918      3.123773      2.780145
  H       2.807969      1.707954      1.400816
  H       5.278800      3.932095      2.562606
  C       1.363947      1.871991      2.934083
  H       0.806720      1.157563      2.312936
  H       1.640079      1.397153      3.883656
  H       0.727133      2.728219      3.174852
  C       4.972327      2.801335      0.778029
  H       5.131286      1.715143      0.836338
  H       4.212479      2.994824      0.011311
  H       5.904918      3.261639      0.443305
  O      -1.774442      1.252262     -1.546328
  O       2.431054      0.149216     -0.085976
  N       0.303404      0.683278     -0.785645
  N       0.750700     -1.401422      0.099467
  C      -1.490138     -0.941302     -0.633540
  C      -1.055732      0.403393     -1.037380
  C      -0.570248     -1.770897     -0.087456
  C      -2.930075     -1.312166     -0.846218
  C       1.253973     -0.162310     -0.252534
  H      -0.816682     -2.774688      0.242900
  H       0.664716      1.594818     -1.047300
  H       1.425664     -2.054119      0.473687
  H      -3.197931     -1.239864     -1.905851
  H      -3.592437     -0.625137     -0.308544
  H      -3.127043     -2.331791     -0.502768
29
Coordinates from ORCA-job dimethylurea_thymine_opt_freq E -757.648497831080
  O       3.286940      3.635514      3.887857
  N       2.531895      2.300991      2.189332
  N       4.601626      3.378943      2.038996
  C       3.464300      3.123380      2.778148
  H       2.788073      1.710782      1.407715
  H       5.279705      3.932960      2.539283
  C       1.371017      1.881992      2.964972
  H       0.813756      1.160911      2.354571
  H       1.650354      1.411153      3.915572
  H       0.729420      2.737867      3.193878
  C       4.963582      2.779113      0.767592
  H       5.112573      1.692051      0.833221
  H       4.202162      2.973700      0.002319
  H       5.898303      3.228155      0.423649
  O      -1.783837      1.255330     -1.540865
  O       2.422899      0.175810     -0.070550
  N       0.294943      0.694702     -0.779979
  N       0.753836     -1.388304      0.099017
  C      -1.487584     -0.943287     -0.642312
  C      -1.062011      0.407027     -1.036469
  C      -0.563519     -1.766631     -0.093649
  C      -2.923310     -1.324037     -0.865442
  C       1.249823     -0.143049     -0.244650
  H      -0.801628     -2.772961      0.235274
  H       0.648754      1.606552     -1.050911
  H       1.428548     -2.029617      0.492895
  H      -3.183979     -1.247019     -1.926632
  H      -3.594814     -0.645425     -0.328592
  H      -3.114116     -2.347719     -0.530826
29
Coordinates from ORCA-job dimethylurea_thymine_opt_freq E -757.648574037647
  O       3.265005      3.678692      3.863346
  N       2.543041      2.281077      2.201400
  N       4.586838      3.404928      2.022793
  C       3.453625      3.142165      2.766830
  H       2.798725      1.702878      1.410958
  H       5.244404      3.995577      2.508405
  C       1.382733      1.862053      2.977015
  H       0.823206      1.146999      2.367850
  H       1.664582      1.386357      3.923925
  H       0.736598      2.715054      3.203665
  C       4.970293      2.773448      0.773256
  H       5.127608      1.690400      0.873551
  H       4.218085      2.938801     -0.008165
  H       5.905734      3.220561      0.428862
  O      -1.782188      1.268837     -1.521686
  O       2.423474      0.165256     -0.059607
  N       0.298621      0.691354     -0.779694
  N       0.752490     -1.400369      0.084483
  C      -1.490633     -0.939262     -0.643112
  C      -1.062155      0.413012     -1.027932
  C      -0.567126     -1.771088     -0.106329
  C      -2.928084     -1.313663     -0.866371
  C       1.251666     -0.151646     -0.243093
  H      -0.806343     -2.780808      0.211210
  H       0.656104      1.600528     -1.054737
  H       1.419846     -2.038364      0.495972
  H      -3.190253     -1.226466     -1.926457
  H      -3.596252     -0.637734     -0.322111
  H      -3.121932     -2.339691     -0.540814
29
Coordinates from ORCA-job dimethylurea_thymine_opt_freq E -757.648672375544
  O       3.301350      3.676010      3.873856
  N       2.542512      2.294553      2.215385
  N       4.604802      3.382769      2.023858
  C       3.472481      3.138249      2.774629
  H       2.784250      1.714948      1.420910
  H       5.272479      3.966244      2.504147
  C       1.388219      1.889012      3.005841
  H       0.828743      1.158786      2.416758
  H       1.676734      1.430919      3.959437
  H       0.740085      2.744239      3.217922
  C       4.966441      2.752361      0.767271
  H       5.096596      1.665036      0.859974
  H       4.215895      2.943051     -0.009984
  H       5.912499      3.177306      0.423994
  O      -1.805484      1.255861     -1.540308
  O       2.405250      0.207746     -0.056153
  N       0.275703      0.705043     -0.782226
  N       0.753384     -1.379741      0.083169
  C      -1.493344     -0.946164     -0.651657
  C      -1.079954      0.410759     -1.037172
  C      -0.560318     -1.767756     -0.115219
  C      -2.924303     -1.340464     -0.883030
  C       1.238147     -0.125108     -0.242178
  H      -0.786419     -2.783422      0.192702
  H       0.620128      1.615803     -1.068056
  H       1.425005     -2.007553      0.503472
  H      -3.182134     -1.257331     -1.944479
  H      -3.604099     -0.673665     -0.341853
  H      -3.106940     -2.368607     -0.557595
29
Coordinates from ORCA-job dimethylurea_thymine_opt_freq E -757.648772746544
  O       3.327225      3.683713      3.880871
  N       2.548754      2.299916      2.233274
  N       4.618244      3.370556      2.025714
  C       3.488629      3.139214      2.782984
  H       2.781779      1.720271      1.436007
  H       5.293091      3.953482      2.496360
  C       1.395640      1.907448      3.031210
  H       0.835135      1.162518      2.461443
  H       1.690975      1.470872      3.992659
  H       0.746779      2.765647      3.229422
  C       4.965117      2.737407      0.765773
  H       5.071481      1.647398      0.855798
  H       4.219342      2.947487     -0.010997
  H       5.921652      3.141731      0.426732
  O      -1.825267      1.242376     -1.564903
  O       2.386659      0.241583     -0.054764
  N       0.256261      0.713566     -0.790462
  N       0.752964     -1.366157      0.075988
  C      -1.497843     -0.951451     -0.659754
  C      -1.095506      0.407585     -1.050456
  C      -0.556987     -1.766316     -0.125838
  C      -2.924138     -1.361216     -0.893674
  C       1.224456     -0.106379     -0.245113
  H      -0.774204     -2.786896      0.171817
  H       0.590787      1.625531     -1.084059
  H       1.427593     -1.987214      0.501499
  H      -3.181776     -1.284273     -1.955547
  H      -3.610978     -0.699922     -0.354461
  H      -3.098154     -2.389591     -0.564110
29
Coordinates from ORCA-job dimethylurea_thymine_opt_freq E -757.648850049226
  O       3.349118      3.694136      3.885955
  N       2.558666      2.297745      2.254813
  N       4.627873      3.362397      2.025299
  C       3.503155      3.140395      2.791390
  H       2.781952      1.718022      1.454634
  H       5.306978      3.951337      2.481904
  C       1.404664      1.919353      3.057460
  H       0.842569      1.159452      2.506395
  H       1.704705      1.505655      4.027485
  H       0.755258      2.780581      3.241437
  C       4.961169      2.726571      0.762619
  H       5.051465      1.635167      0.851042
  H       4.216915      2.948727     -0.012259
  H       5.923835      3.116232      0.423762
  O      -1.838634      1.230604     -1.590565
  O       2.370366      0.267953     -0.048134
  N       0.242219      0.719023     -0.800375
  N       0.751761     -1.356084      0.069128
  C      -1.501278     -0.955686     -0.670241
  C      -1.106174      0.404070     -1.066133
  C      -0.555849     -1.764446     -0.134378
  C      -2.924235     -1.376320     -0.905133
  C       1.212576     -0.092000     -0.247495
  H      -0.768400     -2.786767      0.160493
  H       0.568957      1.632406     -1.098298
  H       1.428026     -1.972039      0.499288
  H      -3.181973     -1.305509     -1.967329
  H      -3.615950     -0.717856     -0.368537
  H      -3.092022     -2.404234     -0.570811
29
Coordinates from ORCA-job dimethylurea_thymine_opt_freq E -757.648913888080
  O       3.369164      3.708358      3.887992
  N       2.571928      2.289877      2.279746
  N       4.635600      3.356392      2.022130
  C       3.516932      3.142218      2.798912
  H       2.783641      1.709491      1.477148
  H       5.315079      3.958325      2.460681
  C       1.417074      1.927130      3.087321
  H       0.853482      1.152146      2.556393
  H       1.719980      1.537255      4.066334
  H       0.766963      2.791330      3.255805
  C       4.955228      2.717465      0.757440
  H       5.037766      1.625642      0.846170
  H       4.207820      2.943707     -0.013358
  H       5.919191      3.098806      0.412783
  O      -1.848325      1.220901     -1.615016
  O       2.354307      0.289988     -0.037441
  N       0.231133      0.722754     -0.810055
  N       0.748582     -1.347447      0.064877
  C      -1.504411     -0.959837     -0.683632
  C      -1.114208      0.400361     -1.082900
  C      -0.556998     -1.762084     -0.141035
  C      -2.924461     -1.388538     -0.920930
  C       1.201267     -0.079712     -0.247977
  H      -0.767224     -2.783773      0.157699
  H       0.551298      1.637963     -1.109691
  H       1.425797     -1.959157      0.499436
  H      -3.180397     -1.322351     -1.983822
  H      -3.620993     -0.732088     -0.388021
  H      -3.087503     -2.416235     -0.583578
29
Coordinates from ORCA-job dimethylurea_thymine_opt_freq E -757.648987463216
  O       3.383340      3.730610      3.883731
  N       2.589775      2.274812      2.307964
  N       4.640036      3.355717      2.015233
  C       3.528393      3.146675      2.803893
  H       2.789144      1.693948      1.503014
  H       5.313184      3.980411      2.430980
  C       1.434080      1.928349      3.120274
  H       0.868846      1.139907      2.610388
  H       1.737835      1.562058      4.108211
  H       0.783150      2.795223      3.273013
  C       4.948409      2.710970      0.751055
  H       5.035837      1.620089      0.845236
  H       4.192242      2.928393     -0.014003
  H       5.907407      3.093195      0.393675
  O      -1.852881      1.214913     -1.636074
  O       2.340276      0.303323     -0.022559
  N       0.223957      0.723630     -0.818724
  N       0.742206     -1.342358      0.064026
  C      -1.507860     -0.963360     -0.699147
  C      -1.119105      0.397001     -1.099061
  C      -0.561758     -1.760205     -0.146278
  C      -2.925820     -1.395916     -0.941077
  C       1.191539     -0.072332     -0.245872
  H      -0.772584     -2.779316      0.160869
  H       0.539861      1.641087     -1.116109
  H       1.419192     -1.951920      0.501835
  H      -3.177582     -1.331529     -2.005099
  H      -3.626668     -0.740613     -0.412422
  H      -3.086737     -2.423876     -0.603558
29
Coordinates from ORCA-job dimethylurea_thymine_opt_freq E -757.649068126597
  O       3.395298      3.759708      3.873501
  N       2.611066      2.255234      2.340202
  N       4.642430      3.357555      2.003944
  C       3.538962      3.153165      2.806209
  H       2.795358      1.674453      1.532025
  H       5.303132      4.012648      2.391831
  C       1.456245      1.926108      3.159706
  H       0.889720      1.125071      2.672727
  H       1.759761      1.584362      4.156573
  H       0.804417      2.795545      3.295475
  C       4.938828      2.704086      0.742044
  H       5.042412      1.615591      0.846497
  H       4.167659      2.901305     -0.013824
  H       5.886395      3.094723      0.363818
  O      -1.853210      1.212181     -1.654272
  O       2.327551      0.311186     -0.003762
  N       0.219037      0.723153     -0.824897
  N       0.732426     -1.338334      0.068521
  C      -1.511385     -0.966415     -0.716636
  C      -1.121846      0.394283     -1.114110
  C      -0.569192     -1.758428     -0.150565
  C      -2.927075     -1.400725     -0.967940
  C       1.182718     -0.067480     -0.239801
  H      -0.781767     -2.774349      0.166013
  H       0.532072      1.643583     -1.116098
  H       1.408529     -1.947299      0.508479
  H      -3.170619     -1.335519     -2.033894
  H      -3.633375     -0.746847     -0.444891
  H      -3.087837     -2.429657     -0.633461
29
Coordinates from ORCA-job dimethylurea_thymine_opt_freq E -757.649145591066
  O       3.405504      3.792861      3.858497
  N       2.633098      2.235350      2.373837
  N       4.643291      3.360722      1.989443
  C       3.548498      3.161361      2.805705
  H       2.800354      1.656434      1.560875
  H       5.287194      4.049026      2.346857
  C       1.481590      1.922878      3.203525
  H       0.914451      1.110538      2.739526
  H       1.785383      1.605392      4.208269
  H       0.828644      2.794384      3.322306
  C       4.927563      2.695110      0.731696
  H       5.053755      1.610516      0.850756
  H       4.138658      2.865013     -0.012708
  H       5.859781      3.097326      0.328281
  O      -1.851643      1.212133     -1.669038
  O       2.316262      0.315751      0.015427
  N       0.214783      0.722592     -0.828148
  N       0.720424     -1.334276      0.077421
  C      -1.514942     -0.968670     -0.733930
  C      -1.123907      0.392832     -1.126664
  C      -0.577680     -1.757025     -0.155030
  C      -2.927660     -1.404506     -0.998906
  C       1.174498     -0.063918     -0.230836
  H      -0.791430     -2.771225      0.166398
  H       0.525887      1.646542     -1.110112
  H       1.395291     -1.943586      0.518884
  H      -3.159935     -1.336909     -2.067303
  H      -3.640592     -0.752908     -0.482178
  H      -3.089410     -2.434854     -0.669438
29
Coordinates from ORCA-job dimethylurea_thymine_opt_freq E -757.649220897037
  O       3.419145      3.825147      3.842872
  N       2.653872      2.218813      2.408297
  N       4.644852      3.361592      1.973680
  C       3.559333      3.169417      2.804359
  H       2.801089      1.644334      1.588202
  H       5.271700      4.080519      2.299774
  C       1.508218      1.922865      3.251641
  H       0.941768      1.097906      2.811582
  H       1.814730      1.631555      4.263260
  H       0.853205      2.795514      3.352384
  C       4.914923      2.681975      0.720476
  H       5.060110      1.601666      0.855167
  H       4.109822      2.827283     -0.011809
  H       5.833040      3.091548      0.292852
  O      -1.852550      1.212012     -1.683289
  O       2.303739      0.324058      0.033290
  N       0.208007      0.724133     -0.830314
  N       0.707907     -1.327034      0.088279
  C      -1.518438     -0.970739     -0.750788
  C      -1.127925      0.392397     -1.137978
  C      -0.584997     -1.755294     -0.160879
  C      -2.926585     -1.411200     -1.032382
  C       1.164687     -0.057400     -0.220919
  H      -0.797314     -2.770466      0.158433
  H       0.516122      1.652161     -1.101921
  H       1.381656     -1.935546      0.532678
  H      -3.146158     -1.341931     -2.103393
  H      -3.647868     -0.763412     -0.522592
  H      -3.088379     -2.442988     -0.707546
29
Coordinates from ORCA-job dimethylurea_thymine_opt_freq E -757.649271335755
  O       3.427030      3.856628      3.826526
  N       2.672927      2.205223      2.438765
  N       4.644405      3.366136      1.959177
  C       3.567211      3.179105      2.801685
  H       2.802460      1.638286      1.610728
  H       5.253918      4.111741      2.257130
  C       1.533470      1.921921      3.294550
  H       0.967756      1.086971      2.874347
  H       1.845139      1.653189      4.310489
  H       0.875230      2.794002      3.380751
  C       4.907032      2.670247      0.712993
  H       5.065912      1.594386      0.865343
  H       4.092516      2.794396     -0.012682
  H       5.816103      3.082644      0.269097
  O      -1.855960      1.212431     -1.694869
  O       2.292409      0.329054      0.044217
  N       0.200994      0.724933     -0.833516
  N       0.696012     -1.322012      0.096894
  C      -1.522809     -0.972109     -0.764826
  C      -1.133182      0.392694     -1.147372
  C      -0.592193     -1.754936     -0.167871
  C      -2.926718     -1.417110     -1.060742
  C       1.155082     -0.053623     -0.214116
  H      -0.802809     -2.772762      0.143944
  H       0.507603      1.656653     -1.094013
  H       1.367899     -1.929729      0.545303
  H      -3.136197     -1.347488     -2.133727
  H      -3.654634     -0.772392     -0.556515
  H      -3.088896     -2.449595     -0.738277
29
Coordinates from ORCA-job dimethylurea_thymine_opt_freq E -757.649315089388
  O       3.454865      3.873022      3.822455
  N       2.687464      2.199093      2.469803
  N       4.650369      3.357999      1.947979
  C       3.583400      3.181624      2.804955
  H       2.792398      1.641092      1.631013
  H       5.253058      4.118518      2.221140
  C       1.555457      1.931733      3.341491
  H       0.994781      1.078637      2.946176
  H       1.875454      1.693297      4.361957
  H       0.891221      2.801401      3.407898
  C       4.893483      2.652694      0.702595
  H       5.041972      1.576706      0.862202
  H       4.074519      2.781006     -0.017318
  H       5.804144      3.051980      0.250085
  O      -1.866662      1.206335     -1.713517
  O       2.274793      0.353214      0.056008
  N       0.187480      0.731610     -0.840488
  N       0.687665     -1.306662      0.102993
  C      -1.525180     -0.975711     -0.780656
  C      -1.142665      0.391665     -1.160881
  C      -0.593632     -1.751312     -0.175989
  C      -2.922374     -1.432970     -1.089795
  C       1.140769     -0.036934     -0.209408
  H      -0.797800     -2.772604      0.128515
  H       0.486412      1.667817     -1.093632
  H       1.358898     -1.907797      0.561135
  H      -3.122836     -1.367560     -2.164698
  H      -3.659678     -0.793283     -0.592756
  H      -3.080064     -2.465725     -0.765848
29
Coordinates from ORCA-job dimethylurea_thymine_opt_freq E -757.649352616308
  O       3.452438      3.895271      3.812144
  N       2.699829      2.192671      2.487170
  N       4.645747      3.369945      1.939453
  C       3.584783      3.192264      2.802843
  H       2.794146      1.647860      1.640004
  H       5.237035      4.144898      2.196895
  C       1.571853      1.928177      3.364609
  H       1.010978      1.073074      2.976823
  H       1.901215      1.699936      4.383937
  H       0.900845      2.793008      3.426810
  C       4.896834      2.648488      0.704035
  H       5.038325      1.574509      0.880493
  H       4.086370      2.772142     -0.026168
  H       5.815166      3.037534      0.258196
  O      -1.875259      1.206322     -1.719370
  O       2.268449      0.350423      0.049915
  N       0.182393      0.729959     -0.848638
  N       0.680961     -1.308565      0.102704
  C      -1.530051     -0.976450     -0.788053
  C      -1.148955      0.392112     -1.167245
  C      -0.599219     -1.753563     -0.182975
  C      -2.925696     -1.436029     -1.101031
  C       1.134538     -0.040379     -0.212624
  H      -0.803783     -2.777387      0.112424
  H       0.483366      1.668371     -1.091268
  H       1.348522     -1.908296      0.567934
  H      -3.124756     -1.374274     -2.176306
  H      -3.663963     -0.795673     -0.606119
  H      -3.084401     -2.467460     -0.773180
29
Coordinates from ORCA-job dimethylurea_thymine_opt_freq E -757.649388684237
  O       3.474591      3.894827      3.818734
  N       2.706218      2.192177      2.502695
  N       4.650525      3.362552      1.936945
  C       3.596260      3.190054      2.809412
  H       2.786716      1.651254      1.650831
  H       5.243792      4.139146      2.184531
  C       1.580885      1.936385      3.386765
  H       1.025433      1.069328      3.012896
  H       1.915726      1.725551      4.407865
  H       0.904997      2.798386      3.437334
  C       4.887972      2.640326      0.699382
  H       5.009722      1.563723      0.873468
  H       4.080077      2.779854     -0.031061
  H       5.813771      3.013183      0.255134
  O      -1.883021      1.198895     -1.734315
  O       2.256684      0.370221      0.054150
  N       0.173865      0.734335     -0.856745
  N       0.679694     -1.298210      0.100440
  C      -1.530422     -0.979908     -0.797359
  C      -1.154684      0.389443     -1.178521
  C      -0.597834     -1.750181     -0.186648
  C      -2.922974     -1.447166     -1.112433
  C       1.126065     -0.027614     -0.214616
  H      -0.799300     -2.773496      0.112687
  H       0.468552      1.674561     -1.100031
  H       1.347320     -1.891816      0.573280
  H      -3.119798     -1.390519     -2.188397
  H      -3.665585     -0.808331     -0.622039
  H      -3.077536     -2.478075     -0.780970
29
Coordinates from ORCA-job dimethylurea_thymine_opt_freq E -757.649431321651
  O       3.508281      3.881285      3.836721
  N       2.710560      2.194367      2.517160
  N       4.658724      3.350754      1.938585
  C       3.612430      3.182684      2.821607
  H       2.773840      1.660588      1.658501
  H       5.260734      4.122182      2.181071
  C       1.586347      1.947915      3.406676
  H       1.039664      1.067504      3.048583
  H       1.929241      1.757471      4.428841
  H       0.901816      2.803986      3.443572
  C       4.877615      2.634783      0.694363
  H       4.959505      1.552915      0.857208
  H       4.079959      2.809646     -0.040195
  H       5.819478      2.978155      0.260123
  O      -1.894990      1.186526     -1.754330
  O       2.242870      0.397016      0.055217
  N       0.163869      0.739673     -0.871564
  N       0.680960     -1.285355      0.095026
  C      -1.529883     -0.985451     -0.807529
  C      -1.161874      0.384342     -1.194270
  C      -0.594600     -1.745369     -0.188437
  C      -2.919526     -1.462133     -1.120639
  C       1.117103     -0.011445     -0.220986
  H      -0.793286     -2.765724      0.122781
  H       0.450067      1.682010     -1.116658
  H       1.349103     -1.869996      0.578045
  H      -3.115423     -1.414716     -2.197259
  H      -3.666466     -0.823248     -0.636954
  H      -3.068406     -2.491479     -0.781844
29
Coordinates from ORCA-job dimethylurea_thymine_opt_freq E -757.649450311269
  O       3.535110      3.876236      3.849582
  N       2.719370      2.195084      2.533421
  N       4.666693      3.345839      1.940178
  C       3.627143      3.179974      2.831984
  H       2.766724      1.670260      1.668428
  H       5.271093      4.117445      2.176229
  C       1.597830      1.956675      3.428741
  H       1.059305      1.064817      3.087511
  H       1.948635      1.786693      4.451499
  H       0.904827      2.806566      3.452529
  C       4.872860      2.632996      0.692159
  H       4.923807      1.548569      0.848673
  H       4.084984      2.833325     -0.046843
  H       5.826887      2.952069      0.265896
  O      -1.906148      1.174443     -1.774463
  O       2.228086      0.415037      0.053267
  N       0.153129      0.740751     -0.886825
  N       0.676670     -1.276886      0.091209
  C      -1.533293     -0.991784     -0.818182
  C      -1.170339      0.377796     -1.210255
  C      -0.596765     -1.743373     -0.191130
  C      -2.920420     -1.475459     -1.131335
  C       1.106816     -0.001686     -0.227870
  H      -0.793118     -2.761296      0.129504
  H       0.433325      1.684900     -1.131888
  H       1.345191     -1.855030      0.581473
  H      -3.113440     -1.435836     -2.208842
  H      -3.671260     -0.835944     -0.654639
  H      -3.065991     -2.503295     -0.786598
29
Coordinates from ORCA-job dimethylurea_thymine_opt_freq E -757.649494503441
  O       3.576707      3.860151      3.870801
  N       2.727718      2.198228      2.550903
  N       4.682323      3.332029      1.946042
  C       3.649377      3.171356      2.846755
  H       2.753580      1.686829      1.677036
  H       5.293558      4.099287      2.178896
  C       1.609026      1.970816      3.453647
  H       1.083051      1.064497      3.135576
  H       1.968596      1.829539      4.477204
  H       0.904561      2.811808      3.458933
  C       4.864829      2.632455      0.687059
  H       4.871830      1.544967      0.827129
  H       4.088830      2.874400     -0.052493
  H       5.833069      2.918672      0.269391
  O      -1.921762      1.157419     -1.800432
  O       2.209561      0.440584      0.051875
  N       0.139222      0.743235     -0.906542
  N       0.670483     -1.263529      0.091392
  C      -1.537008     -1.000341     -0.829923
  C      -1.181537      0.368945     -1.229921
  C      -0.598766     -1.740300     -0.191791
  C      -2.919915     -1.494522     -1.145102
  C       1.094104      0.012437     -0.234414
  H      -0.790269     -2.755778      0.139439
  H       0.410781      1.690105     -1.150762
  H       1.340998     -1.833696      0.588289
  H      -3.107050     -1.465295     -2.224056
  H      -3.677091     -0.855018     -0.678685
  H      -3.061096     -2.520393     -0.792830
29
Coordinates from ORCA-job dimethylurea_thymine_opt_freq E -757.649527328737
  O       3.618491      3.852149      3.888620
  N       2.742538      2.199560      2.574444
  N       4.700606      3.319949      1.952279
  C       3.674232      3.165498      2.861963
  H       2.745764      1.702593      1.692510
  H       5.312715      4.088907      2.177648
  C       1.627964      1.984845      3.485252
  H       1.116316      1.061732      3.195830
  H       1.995268      1.878266      4.509750
  H       0.911704      2.815989      3.468449
  C       4.857608      2.633427      0.682758
  H       4.828339      1.544965      0.808803
  H       4.089465      2.910558     -0.053022
  H       5.834840      2.891532      0.267490
  O      -1.935742      1.138433     -1.832110
  O       2.186642      0.463126      0.052090
  N       0.123125      0.742677     -0.927379
  N       0.658269     -1.251099      0.093924
  C      -1.544163     -1.009999     -0.844102
  C      -1.194116      0.358040     -1.252688
  C      -0.605543     -1.738773     -0.193871
  C      -2.922228     -1.514304     -1.164459
  C       1.077643      0.024282     -0.240168
  H      -0.791678     -2.752630      0.145273
  H       0.386707      1.691573     -1.172360
  H       1.330676     -1.814273      0.596335
  H      -3.100920     -1.494647     -2.245126
  H      -3.686385     -0.875208     -0.709151
  H      -3.060425     -2.538281     -0.805571
29
Coordinates from ORCA-job dimethylurea_thymine_opt_freq E -757.649561393262
  O       3.659854      3.835737      3.908761
  N       2.752828      2.202193      2.591248
  N       4.721455      3.301920      1.962236
  C       3.698385      3.155001      2.877090
  H       2.738554      1.718067      1.702875
  H       5.336776      4.069064      2.185610
  C       1.639605      1.998155      3.505793
  H       1.140416      1.062626      3.240662
  H       2.010819      1.921785      4.531170
  H       0.913521      2.820345      3.469578
  C       4.848242      2.638716      0.677030
  H       4.791351      1.549366      0.781976
  H       4.081012      2.951013     -0.045709
  H       5.828360      2.878669      0.257479
  O      -1.944248      1.121123     -1.861202
  O       2.169488      0.480037      0.054164
  N       0.112172      0.741405     -0.943839
  N       0.647563     -1.241109      0.101174
  C      -1.549263     -1.017609     -0.853470
  C      -1.202353      0.348337     -1.271427
  C      -0.611282     -1.737638     -0.192328
  C      -2.923164     -1.529962     -1.179170
  C       1.065668      0.032480     -0.242152
  H      -0.793108     -2.750501      0.152017
  H       0.370030      1.690618     -1.193445
  H       1.321924     -1.799501      0.606394
  H      -3.094025     -1.518186     -2.261245
  H      -3.692993     -0.891132     -0.733240
  H      -3.059874     -2.552136     -0.814617
29
Coordinates from ORCA-job dimethylurea_thymine_opt_freq E -757.649597472277
  O       3.703026      3.823215      3.925759
  N       2.768796      2.200129      2.613744
  N       4.743923      3.281426      1.970721
  C       3.725152      3.144079      2.892215
  H       2.734740      1.729640      1.718531
  H       5.355944      4.053948      2.185182
  C       1.656441      2.010343      3.532190
  H       1.171388      1.058987      3.296666
  H       2.029317      1.971251      4.558694
  H       0.920303      2.822525      3.471665
  C       4.834623      2.643559      0.669472
  H       4.760394      1.553775      0.754534
  H       4.059965      2.984083     -0.032503
  H       5.811315      2.874282      0.236916
  O      -1.948199      1.103493     -1.895481
  O       2.149618      0.496503      0.063251
  N       0.102250      0.739031     -0.960210
  N       0.633408     -1.229787      0.112245
  C      -1.554532     -1.024655     -0.865491
  C      -1.208718      0.338435     -1.292868
  C      -0.619362     -1.735654     -0.190723
  C      -2.923434     -1.545188     -1.199487
  C       1.051147      0.041240     -0.240678
  H      -0.798087     -2.747628      0.157742
  H       0.354781      1.687722     -1.216990
  H       1.307512     -1.782415      0.624168
  H      -3.085072     -1.541087     -2.282996
  H      -3.699480     -0.906940     -0.763587
  H      -3.059446     -2.565431     -0.829267
29
Coordinates from ORCA-job dimethylurea_thymine_opt_freq E -757.649625907457
  O       3.747751      3.783536      3.956576
  N       2.773641      2.204731      2.617642
  N       4.774990      3.248561      1.992453
  C       3.751788      3.121268      2.911646
  H       2.736529      1.745230      1.718734
  H       5.392054      4.014924      2.215945
  C       1.656049      2.020543      3.526754
  H       1.174958      1.065496      3.309580
  H       2.024715      2.005567      4.555362
  H       0.913311      2.825602      3.450484
  C       4.819709      2.668795      0.661325
  H       4.745487      1.576438      0.700318
  H       4.022692      3.043041      0.002886
  H       5.781747      2.917901      0.206792
  O      -1.936318      1.086176     -1.927593
  O       2.143501      0.491517      0.069761
  N       0.105284      0.729519     -0.969281
  N       0.622333     -1.230705      0.130434
  C      -1.557401     -1.029154     -0.866294
  C      -1.204064      0.327461     -1.307644
  C      -0.628371     -1.737505     -0.179724
  C      -2.925334     -1.549533     -1.204963
  C       1.047740      0.034027     -0.235374
  H      -0.810080     -2.747543      0.172659
  H       0.360307      1.671172     -1.248168
  H       1.294341     -1.782196      0.646365
  H      -3.082118     -1.550244     -2.289065
  H      -3.702076     -0.908329     -0.774472
  H      -3.065454     -2.567412     -0.829726
29
Coordinates from ORCA-job dimethylurea_thymine_opt_freq E -757.649661544928
  O       3.786070      3.764560      3.971014
  N       2.784165      2.201798      2.633235
  N       4.791734      3.226739      1.996129
  C       3.773712      3.107919      2.922852
  H       2.729861      1.754393      1.726808
  H       5.409338      3.995069      2.211723
  C       1.666624      2.030430      3.547852
  H       1.199453      1.060342      3.353840
  H       2.035656      2.046572      4.575941
  H       0.915337      2.825822      3.450748
  C       4.805350      2.670420      0.653858
  H       4.706394      1.579820      0.675711
  H       4.008928      3.073912      0.011888
  H       5.767622      2.904976      0.192213
  O      -1.940733      1.072531     -1.952734
  O       2.126766      0.512612      0.080722
  N       0.097606      0.731140     -0.982211
  N       0.614174     -1.216082      0.138445
  C      -1.558201     -1.034388     -0.877040
  C      -1.208225      0.320948     -1.324632
  C      -0.631374     -1.732230     -0.177414
  C      -2.921024     -1.564248     -1.221355
  C       1.034668      0.048179     -0.233442
  H      -0.811717     -2.740148      0.181706
  H       0.346145      1.673221     -1.265457
  H       1.282939     -1.757836      0.668633
  H      -3.071639     -1.573516     -2.306238
  H      -3.703676     -0.924048     -0.800030
  H      -3.058242     -2.580021     -0.839351
29
Coordinates from ORCA-job dimethylurea_thymine_opt_freq E -757.649678110720
  O       3.785171      3.757070      3.974199
  N       2.780388      2.203171      2.628110
  N       4.790733      3.225508      1.996856
  C       3.772034      3.105368      2.923466
  H       2.731247      1.753328      1.722753
  H       5.412404      3.989874      2.214931
  C       1.662577      2.028812      3.541659
  H       1.192411      1.060677      3.342603
  H       2.030838      2.040209      4.570137
  H       0.912042      2.825240      3.447150
  C       4.804376      2.673854      0.652335
  H       4.704574      1.583240      0.669472
  H       4.008422      3.080155      0.011478
  H       5.766971      2.909901      0.192167
  O      -1.937594      1.074024     -1.949768
  O       2.130174      0.509030      0.080249
  N       0.100437      0.730975     -0.978992
  N       0.616791     -1.217587      0.138430
  C      -1.556169     -1.033841     -0.875812
  C      -1.205298      0.321650     -1.322528
  C      -0.630424     -1.731565     -0.174935
  C      -2.919624     -1.562583     -1.218943
  C       1.036653      0.046833     -0.232826
  H      -0.814098     -2.737713      0.187528
  H       0.350190      1.672529     -1.263054
  H       1.282529     -1.757438      0.674248
  H      -3.071658     -1.572407     -2.303621
  H      -3.701542     -0.921372     -0.797714
  H      -3.056845     -2.578057     -0.836164
29
Coordinates from ORCA-job dimethylurea_thymine_opt_freq E -757.649699385713
  O       3.812750      3.723308      3.993706
  N       2.780179      2.206153      2.625901
  N       4.806421      3.203573      2.006689
  C       3.786667      3.087684      2.934010
  H       2.732107      1.759388      1.719220
  H       5.435951      3.959786      2.230813
  C       1.660448      2.033711      3.536953
  H       1.192519      1.063032      3.344742
  H       2.026939      2.056611      4.565687
  H       0.905373      2.825006      3.433414
  C       4.794849      2.691666      0.646076
  H       4.680530      1.602559      0.631747
  H       3.996110      3.127332      0.028160
  H       5.754575      2.929057      0.180657
  O      -1.931361      1.064084     -1.965976
  O       2.127759      0.508123      0.083079
  N       0.102058      0.727224     -0.982503
  N       0.612505     -1.215341      0.148366
  C      -1.555675     -1.037086     -0.877288
  C      -1.201921      0.315506     -1.330666
  C      -0.634595     -1.729585     -0.165362
  C      -2.917809     -1.567409     -1.222758
  C       1.033834      0.046330     -0.229779
  H      -0.823480     -2.731379      0.206439
  H       0.352272      1.666279     -1.274235
  H       1.272496     -1.748958      0.697283
  H      -3.066149     -1.583937     -2.307854
  H      -3.701395     -0.923335     -0.808955
  H      -3.056246     -2.580497     -0.834152
29
Coordinates from ORCA-job dimethylurea_thymine_opt_freq E -757.649716554993
  O       3.839395      3.689427      4.012555
  N       2.779313      2.211249      2.622509
  N       4.822949      3.181717      2.017212
  C       3.801122      3.070183      2.943829
  H       2.733010      1.765721      1.715425
  H       5.461279      3.927983      2.250338
  C       1.658121      2.039922      3.531489
  H       1.193666      1.066488      3.346598
  H       2.023609      2.074099      4.560112
  H       0.898411      2.825672      3.418953
  C       4.789526      2.710863      0.641827
  H       4.655759      1.624931      0.595526
  H       3.992944      3.178975      0.044962
  H       5.749044      2.945202      0.174409
  O      -1.928139      1.052328     -1.982250
  O       2.124191      0.508328      0.083283
  N       0.100879      0.723435     -0.987068
  N       0.606990     -1.212673      0.157424
  C      -1.556999     -1.041327     -0.877910
  C      -1.201218      0.308159     -1.338795
  C      -0.639385     -1.728364     -0.156376
  C      -2.917664     -1.573861     -1.225535
  C       1.030062      0.046251     -0.228046
  H      -0.831116     -2.726634      0.223404
  H       0.350462      1.661060     -1.283821
  H       1.263453     -1.741132      0.715487
  H      -3.061177     -1.597776     -2.311169
  H      -3.703253     -0.926940     -0.820083
  H      -3.057522     -2.584402     -0.830876
29
Coordinates from ORCA-job dimethylurea_thymine_opt_freq E -757.649741565889
  O       3.889727      3.625794      4.045384
  N       2.777658      2.223392      2.616848
  N       4.853538      3.138920      2.035092
  C       3.828289      3.037204      2.960638
  H       2.732840      1.778717      1.709585
  H       5.509187      3.864361      2.286363
  C       1.654754      2.054254      3.523631
  H       1.200159      1.073553      3.354885
  H       2.019198      2.111879      4.551299
  H       0.886016      2.828395      3.392707
  C       4.782548      2.745264      0.636403
  H       4.603749      1.669932      0.532764
  H       3.998294      3.277534      0.077718
  H       5.744950      2.964998      0.167748
  O      -1.927010      1.028021     -2.013231
  O       2.114177      0.514569      0.082598
  N       0.094454      0.717870     -0.997430
  N       0.595840     -1.204500      0.172632
  C      -1.560837     -1.050303     -0.879261
  C      -1.203613      0.293545     -1.354656
  C      -0.647760     -1.725854     -0.141466
  C      -2.917880     -1.589306     -1.230866
  C       1.020645      0.049920     -0.226207
  H      -0.840948     -2.718909      0.251055
  H       0.340365      1.654209     -1.301159
  H       1.248449     -1.723571      0.743933
  H      -3.051348     -1.628075     -2.317421
  H      -3.708114     -0.938068     -0.841817
  H      -3.059619     -2.594859     -0.824354
29
Coordinates from ORCA-job dimethylurea_thymine_opt_freq E -757.649756653441
  O       3.922567      3.582554      4.066612
  N       2.773898      2.237775      2.611236
  N       4.872914      3.110518      2.046345
  C       3.845156      3.016371      2.970818
  H       2.730922      1.791218      1.704835
  H       5.544028      3.816366      2.312995
  C       1.651192      2.066532      3.517882
  H       1.205544      1.080189      3.358960
  H       2.016107      2.138366      4.544373
  H       0.875815      2.831916      3.376117
  C       4.782579      2.766019      0.635398
  H       4.563178      1.702262      0.497239
  H       4.017540      3.346090      0.097813
  H       5.751402      2.963468      0.169973
  O      -1.932622      1.010598     -2.031074
  O       2.105216      0.524153      0.079090
  N       0.085245      0.716503     -1.004620
  N       0.589205     -1.196666      0.179337
  C      -1.564431     -1.057386     -0.879545
  C      -1.209570      0.283654     -1.363907
  C      -0.651553     -1.724508     -0.133983
  C      -2.918360     -1.603126     -1.232848
  C       1.012580      0.056083     -0.227232
  H      -0.841499     -2.715821      0.264471
  H       0.326133      1.653521     -1.310254
  H       1.242097     -1.709760      0.755765
  H      -3.045343     -1.652179     -2.319818
  H      -3.712356     -0.950402     -0.854262
  H      -3.059871     -2.605422     -0.818305
29
Coordinates from ORCA-job dimethylurea_thymine_opt_freq E -757.649761593892
  O       3.935567      3.572467      4.072883
  N       2.771885      2.248388      2.610389
  N       4.880157      3.101174      2.049901
  C       3.851612      3.012425      2.974082
  H       2.729366      1.798715      1.705348
  H       5.557937      3.798539      2.322064
  C       1.650873      2.073522      3.518746
  H       1.211913      1.083012      3.364515
  H       2.016868      2.151682      4.544429
  H       0.872096      2.834420      3.372943
  C       4.784967      2.767313      0.636658
  H       4.545907      1.708719      0.492438
  H       4.032046      3.365448      0.101839
  H       5.758185      2.948221      0.173608
  O      -1.941088      1.003841     -2.035963
  O       2.097955      0.534736      0.077343
  N       0.076466      0.719062     -1.007179
  N       0.586510     -1.190207      0.179477
  C      -1.566709     -1.060819     -0.880710
  C      -1.216310      0.280580     -1.366823
  C      -0.651385     -1.723987     -0.134632
  C      -2.918240     -1.612017     -1.234973
  C       1.006595      0.063397     -0.228525
  H      -0.835622     -2.716789      0.262757
  H       0.312724      1.657774     -1.311277
  H       1.242775     -1.701885      0.753377
  H      -3.042790     -1.664313     -2.322073
  H      -3.714827     -0.960902     -0.859142
  H      -3.057723     -2.613632     -0.818086
29
Coordinates from ORCA-job dimethylurea_thymine_opt_freq E -757.649772491655
  O       3.945097      3.559438      4.078570
  N       2.768627      2.257005      2.606996
  N       4.885770      3.091930      2.052992
  C       3.855966      3.007030      2.976179
  H       2.726477      1.805427      1.702559
  H       5.568887      3.781711      2.331048
  C       1.648280      2.078868      3.515782
  H       1.213361      1.085916      3.364379
  H       2.014168      2.161193      4.541201
  H       0.867085      2.836786      3.367841
  C       4.787190      2.769154      0.637431
  H       4.536535      1.714310      0.486168
  H       4.041403      3.379765      0.106815
  H       5.762686      2.942045      0.176081
  O      -1.946776      0.999553     -2.037764
  O       2.093143      0.542683      0.077716
  N       0.071239      0.721149     -1.008323
  N       0.585471     -1.185560      0.180552
  C      -1.567389     -1.063031     -0.880703
  C      -1.220333      0.278833     -1.367694
  C      -0.650362     -1.723577     -0.134417
  C      -2.917460     -1.617928     -1.234921
  C       1.002739      0.068775     -0.228368
  H      -0.830894     -2.717263      0.262434
  H       0.304468      1.660451     -1.312988
  H       1.244539     -1.696504      0.751888
  H      -3.041797     -1.671753     -2.321932
  H      -3.715424     -0.968269     -0.859451
  H      -3.054982     -2.619252     -0.816656
29
Coordinates from ORCA-job dimethylurea_thymine_opt_freq E -757.649774609464
  O       3.956774      3.544462      4.085522
  N       2.765481      2.267669      2.603302
  N       4.892258      3.082306      2.056407
  C       3.861475      3.001361      2.978973
  H       2.723428      1.814399      1.699540
  H       5.581188      3.763806      2.340522
  C       1.646525      2.085037      3.512899
  H       1.215948      1.089374      3.364711
  H       2.012320      2.172280      4.537942
  H       0.861848      2.838924      3.362933
  C       4.790035      2.771336      0.638497
  H       4.527164      1.720628      0.479841
  H       4.051781      3.394867      0.112404
  H       5.767751      2.935992      0.178789
  O      -1.953482      0.994976     -2.039675
  O       2.086543      0.551286      0.078766
  N       0.064948      0.723050     -1.009366
  N       0.583725     -1.180678      0.181987
  C      -1.568407     -1.065866     -0.881564
  C      -1.225207      0.276832     -1.368879
  C      -0.649808     -1.723317     -0.134461
  C      -2.916701     -1.625033     -1.235939
  C       0.997364      0.074467     -0.227825
  H      -0.827041     -2.717557      0.262479
  H       0.295319      1.662535     -1.315681
  H       1.245552     -1.690538      0.751077
  H      -3.041210     -1.680023     -2.322820
  H      -3.716339     -0.977414     -0.860401
  H      -3.051522     -2.626276     -0.816567
29
Coordinates from ORCA-job dimethylurea_thymine_opt_freq E -757.649780691877
  O       3.970034      3.527294      4.093313
  N       2.762702      2.278662      2.599636
  N       4.898887      3.072516      2.059567
  C       3.867742      2.995070      2.982158
  H       2.719900      1.825069      1.695963
  H       5.594153      3.745222      2.349243
  C       1.645493      2.091283      3.510351
  H       1.219095      1.093131      3.365561
  H       2.011053      2.184097      4.534940
  H       0.856326      2.840076      3.358227
  C       4.792439      2.774524      0.639198
  H       4.516417      1.728508      0.472420
  H       4.062047      3.411589      0.118327
  H       5.772163      2.930677      0.180768
  O      -1.959891      0.990497     -2.041814
  O       2.079251      0.559591      0.081052
  N       0.059040      0.724395     -1.010644
  N       0.581527     -1.176239      0.184277
  C      -1.569336     -1.068914     -0.882944
  C      -1.229841      0.274721     -1.370411
  C      -0.649741     -1.723135     -0.134182
  C      -2.915714     -1.632363     -1.237817
  C       0.991464      0.079665     -0.226393
  H      -0.824865     -2.717411      0.263596
  H       0.287262      1.663789     -1.318883
  H       1.245250     -1.684502      0.752547
  H      -3.040309     -1.688222     -2.324599
  H      -3.717259     -0.987007     -0.862339
  H      -3.047580     -2.633699     -0.817704
29
Coordinates from ORCA-job dimethylurea_thymine_opt_freq E -757.649787035635
  O       3.989297      3.507876      4.103040
  N       2.763314      2.289566      2.598722
  N       4.908793      3.061120      2.063381
  C       3.878212      2.987613      2.987206
  H       2.718158      1.836959      1.694749
  H       5.610455      3.725335      2.357405
  C       1.648294      2.098815      3.511272
  H       1.227985      1.096717      3.373701
  H       2.013738      2.201935      4.534822
  H       0.852861      2.839964      3.353944
  C       4.794641      2.781572      0.639826
  H       4.503282      1.741658      0.461667
  H       4.072122      3.434960      0.128133
  H       5.775412      2.929201      0.180772
  O      -1.966206      0.983047     -2.049653
  O       2.068003      0.567965      0.084997
  N       0.051503      0.723594     -1.013947
  N       0.575451     -1.171679      0.188829
  C      -1.572201     -1.073532     -0.886486
  C      -1.235608      0.270365     -1.375537
  C      -0.653025     -1.723159     -0.133072
  C      -2.915862     -1.641991     -1.243584
  C       0.982325      0.084226     -0.224141
  H      -0.827363     -2.716561      0.267245
  H       0.278053      1.662448     -1.325076
  H       1.239861     -1.677345      0.758577
  H      -3.038413     -1.699579     -2.330493
  H      -3.720403     -0.998956     -0.870459
  H      -3.044969     -2.643248     -0.822424
29
Coordinates from ORCA-job dimethylurea_thymine_opt_freq E -757.649793208778
  O       4.004773      3.491973      4.110958
  N       2.763026      2.300695      2.597059
  N       4.915642      3.054055      2.065543
  C       3.886199      2.982823      2.990939
  H       2.716373      1.848761      1.692953
  H       5.625165      3.708364      2.363056
  C       1.650961      2.105038      3.511834
  H       1.235464      1.100502      3.378942
  H       2.016228      2.215419      4.534601
  H       0.849216      2.838661      3.351350
  C       4.796897      2.786837      0.639924
  H       4.492225      1.752068      0.453972
  H       4.082036      3.452866      0.133709
  H       5.778956      2.925779      0.180913
  O      -1.972005      0.978181     -2.053817
  O       2.057914      0.575239      0.090700
  N       0.045136      0.723040     -1.015623
  N       0.570464     -1.168847      0.192790
  C      -1.574522     -1.077327     -0.889275
  C      -1.240750      0.267389     -1.378460
  C      -0.655666     -1.723655     -0.132532
  C      -2.915622     -1.650062     -1.249065
  C       0.974547      0.087751     -0.220548
  H      -0.829711     -2.716620      0.269015
  H       0.270975      1.661894     -1.327331
  H       1.234834     -1.672400      0.764430
  H      -3.035908     -1.707517     -2.336256
  H      -3.723248     -1.009963     -0.877549
  H      -3.041886     -2.652057     -0.828820
29
Coordinates from ORCA-job dimethylurea_thymine_opt_freq E -757.649800670731
  O       4.028290      3.476343      4.119613
  N       2.769230      2.307348      2.601643
  N       4.926954      3.043713      2.067721
  C       3.900329      2.976158      2.996742
  H       2.718132      1.857833      1.696677
  H       5.642200      3.691765      2.365343
  C       1.659345      2.112227      3.519109
  H       1.252457      1.102209      3.398257
  H       2.024291      2.238153      4.540030
  H       0.850381      2.835846      3.349206
  C       4.796278      2.796580      0.639396
  H       4.479595      1.767616      0.441579
  H       4.084923      3.476350      0.146537
  H       5.776635      2.931367      0.175548
  O      -1.975173      0.968389     -2.069037
  O       2.042939      0.582996      0.099768
  N       0.037839      0.719403     -1.020995
  N       0.559796     -1.164904      0.200314
  C      -1.579243     -1.082612     -0.895148
  C      -1.245937      0.261042     -1.387855
  C      -0.663173     -1.723604     -0.130316
  C      -2.916827     -1.660153     -1.260247
  C       0.963134      0.090818     -0.216037
  H      -0.838238     -2.715027      0.274604
  H       0.263116      1.657688     -1.334820
  H       1.222006     -1.664779      0.777662
  H      -3.031102     -1.719742     -2.348018
  H      -3.728679     -1.022108     -0.894494
  H      -3.041785     -2.662030     -0.839370
29
Coordinates from ORCA-job dimethylurea_thymine_opt_freq E -757.649810932788
  O       4.052098      3.461762      4.128159
  N       2.775509      2.316401      2.605886
  N       4.937170      3.036940      2.068602
  C       3.914467      2.971465      3.002174
  H       2.721527      1.867393      1.701020
  H       5.662145      3.673854      2.366747
  C       1.669034      2.119549      3.526624
  H       1.271868      1.104432      3.417542
  H       2.033426      2.260458      4.545684
  H       0.851794      2.831557      3.347972
  C       4.795997      2.806618      0.638251
  H       4.471183      1.782117      0.429964
  H       4.085907      3.496555      0.157884
  H       5.774115      2.940059      0.169368
  O      -1.977774      0.958589     -2.084582
  O       2.025598      0.591473      0.113499
  N       0.029933      0.715104     -1.025284
  N       0.547826     -1.162246      0.208379
  C      -1.584755     -1.088171     -0.901238
  C      -1.251440      0.254429     -1.397137
  C      -0.671838     -1.724316     -0.128409
  C      -2.918431     -1.670374     -1.273165
  C       0.950944      0.093266     -0.209199
  H      -0.847771     -2.714776      0.278502
  H       0.255296      1.653622     -1.338418
  H       1.206429     -1.658313      0.793111
  H      -3.025059     -1.730835     -2.361747
  H      -3.735067     -1.035003     -0.913596
  H      -3.042420     -2.672722     -0.853179
29
Coordinates from ORCA-job dimethylurea_thymine_opt_freq E -757.649825089726
  O       4.082945      3.435962      4.139544
  N       2.781981      2.325628      2.611041
  N       4.950024      3.021903      2.070001
  C       3.931897      2.960138      3.009054
  H       2.722849      1.879364      1.704971
  H       5.685576      3.645247      2.370942
  C       1.677574      2.128995      3.534350
  H       1.293887      1.106740      3.440773
  H       2.041390      2.289394      4.550580
  H       0.851776      2.827821      3.343726
  C       4.792885      2.819690      0.636778
  H       4.454345      1.803044      0.412266
  H       4.086632      3.526925      0.176372
  H       5.768233      2.950071      0.161337
  O      -1.979404      0.944019     -2.106554
  O       2.006911      0.603918      0.126593
  N       0.021826      0.710956     -1.032958
  N       0.535378     -1.156056      0.217295
  C      -1.589674     -1.094533     -0.907711
  C      -1.256258      0.245673     -1.409899
  C      -0.680351     -1.723412     -0.124704
  C      -2.919096     -1.682585     -1.285679
  C       0.938064      0.098475     -0.204013
  H      -0.855838     -2.712328      0.286134
  H       0.245417      1.649537     -1.347225
  H       1.189644     -1.645841      0.812132
  H      -3.017647     -1.748080     -2.374749
  H      -3.740208     -1.048250     -0.934633
  H      -3.043049     -2.683528     -0.862352
29
Coordinates from ORCA-job dimethylurea_thymine_opt_freq E -757.649829858642
  O       4.114263      3.395931      4.153346
  N       2.782881      2.342100      2.610179
  N       4.961977      3.002306      2.071675
  C       3.947740      2.943790      3.015237
  H       2.721080      1.895745      1.704442
  H       5.714307      3.600506      2.381845
  C       1.681280      2.140794      3.535462
  H       1.311469      1.112407      3.454555
  H       2.044403      2.317673      4.549221
  H       0.847046      2.826614      3.335953
  C       4.791214      2.834878      0.635294
  H       4.439285      1.827629      0.389557
  H       4.090154      3.561527      0.198121
  H       5.764529      2.964638      0.155546
  O      -1.981761      0.928391     -2.126790
  O       1.988747      0.618983      0.138318
  N       0.013037      0.708526     -1.038459
  N       0.525205     -1.148789      0.226125
  C      -1.593244     -1.101091     -0.912131
  C      -1.260944      0.236940     -1.420807
  C      -0.686622     -1.722198     -0.119731
  C      -2.918395     -1.695702     -1.294920
  C       0.926276      0.105128     -0.199013
  H      -0.860000     -2.709846      0.295008
  H       0.233883      1.647751     -1.352850
  H       1.175427     -1.631581      0.831067
  H      -3.009825     -1.767642     -2.384176
  H      -3.743501     -1.062017     -0.952149
  H      -3.042199     -2.694506     -0.866511
29
Coordinates from ORCA-job dimethylurea_thymine_opt_freq E -757.649840949453
  O       4.142455      3.354753      4.166038
  N       2.781895      2.358246      2.609018
  N       4.971717      2.982341      2.073128
  C       3.961125      2.926826      3.020802
  H       2.714797      1.916895      1.700894
  H       5.737689      3.558174      2.392146
  C       1.682482      2.151689      3.536073
  H       1.325913      1.117451      3.465900
  H       2.045428      2.342792      4.547287
  H       0.840632      2.825752      3.329697
  C       4.789428      2.846117      0.634726
  H       4.419785      1.849617      0.371841
  H       4.098090      3.593117      0.217034
  H       5.762125      2.969333      0.152002
  O      -1.985771      0.914504     -2.142628
  O       1.973838      0.634971      0.144883
  N       0.005320      0.708193     -1.045241
  N       0.518728     -1.140054      0.231784
  C      -1.594718     -1.106808     -0.915861
  C      -1.265145      0.229748     -1.430049
  C      -0.689544     -1.720079     -0.115928
  C      -2.916236     -1.708138     -1.300779
  C       0.916489      0.113468     -0.197505
  H      -0.860105     -2.706299      0.303330
  H       0.222315      1.647864     -1.360988
  H       1.165881     -1.615200      0.845995
  H      -3.003458     -1.787710     -2.389772
  H      -3.744268     -1.074546     -0.964830
  H      -3.039175     -2.704132     -0.865582
29
Coordinates from ORCA-job dimethylurea_thymine_opt_freq E -757.649850803784
  O       4.170533      3.294339      4.180882
  N       2.774849      2.383114      2.601466
  N       4.981054      2.954215      2.075451
  C       3.972659      2.902456      3.025536
  H       2.703089      1.945888      1.691846
  H       5.764972      3.496506      2.409242
  C       1.678853      2.165957      3.530206
  H       1.335375      1.126687      3.468020
  H       2.041829      2.368785      4.539206
  H       0.829328      2.828516      3.319879
  C       4.790190      2.860272      0.634806
  H       4.398729      1.878939      0.347542
  H       4.113483      3.633109      0.241147
  H       5.763578      2.976219      0.151664
  O      -1.992334      0.899770     -2.155545
  O       1.960335      0.653225      0.146570
  N      -0.003802      0.710207     -1.049815
  N       0.514757     -1.129325      0.237870
  C      -1.594655     -1.112969     -0.917353
  C      -1.270071      0.222724     -1.437060
  C      -0.689826     -1.717179     -0.110261
  C      -2.912123     -1.722672     -1.303034
  C       0.907390      0.123710     -0.196927
  H      -0.856627     -2.701597      0.314693
  H       0.208164      1.650328     -1.367617
  H       1.160298     -1.596140      0.860103
  H      -2.995879     -1.811897     -2.391461
  H      -3.743323     -1.089235     -0.974533
  H      -3.033114     -2.715071     -0.859110
29
Coordinates from ORCA-job dimethylurea_thymine_opt_freq E -757.649856572319
  O       4.192969      3.253208      4.190946
  N       2.772057      2.401210      2.599688
  N       4.988244      2.935397      2.076581
  C       3.982664      2.886540      3.029640
  H       2.693150      1.972362      1.686403
  H       5.783223      3.456778      2.417601
  C       1.679251      2.176446      3.531118
  H       1.347463      1.132458      3.476813
  H       2.042869      2.389848      4.537658
  H       0.822924      2.828479      3.316716
  C       4.790865      2.868546      0.635352
  H       4.379084      1.899727      0.334428
  H       4.128243      3.660798      0.256561
  H       5.764751      2.973364      0.150665
  O      -1.998939      0.888862     -2.165662
  O       1.948098      0.667806      0.148071
  N      -0.011745      0.711365     -1.055423
  N       0.510171     -1.120493      0.242041
  C      -1.595381     -1.118057     -0.920238
  C      -1.275143      0.217275     -1.443650
  C      -0.691009     -1.714824     -0.107290
  C      -2.909125     -1.734959     -1.307147
  C       0.898410      0.132245     -0.196904
  H      -0.855619     -2.697598      0.322299
  H       0.196473      1.651510     -1.375552
  H       1.154560     -1.580661      0.870376
  H      -2.989289     -1.831373     -2.395211
  H      -3.743641     -1.102454     -0.985262
  H      -3.027868     -2.724919     -0.857203
29
Coordinates from ORCA-job dimethylurea_thymine_opt_freq E -757.649862402361
  O       4.205285      3.221988      4.197698
  N       2.767450      2.417271      2.596318
  N       4.991640      2.922761      2.077711
  C       3.987355      2.875634      3.031714
  H       2.683171      1.996312      1.679893
  H       5.795090      3.427293      2.424163
  C       1.678394      2.183730      3.530470
  H       1.353717      1.137323      3.479531
  H       2.042815      2.401872      4.535684
  H       0.817583      2.829246      3.315778
  C       4.792983      2.873130      0.636171
  H       4.366775      1.913426      0.326129
  H       4.141634      3.678448      0.265287
  H       5.767874      2.969155      0.151728
  O      -2.004914      0.883137     -2.168749
  O       1.941769      0.676490      0.145684
  N      -0.017490      0.713371     -1.057762
  N       0.508439     -1.114949      0.244253
  C      -1.595472     -1.121142     -0.920939
  C      -1.279193      0.214605     -1.445917
  C      -0.690628     -1.713334     -0.105264
  C      -2.906563     -1.743305     -1.308397
  C       0.893180      0.137718     -0.197441
  H      -0.854041     -2.695079      0.327142
  H       0.188335      1.653429     -1.379612
  H       1.153305     -1.571285      0.874885
  H      -2.983813     -1.844824     -2.396260
  H      -3.743814     -1.111772     -0.991842
  H      -3.023155     -2.731763     -0.854642
29
Coordinates from ORCA-job dimethylurea_thymine_opt_freq E -757.649864692590
  O       4.238483      3.160633      4.209530
  N       2.767118      2.442229      2.596428
  N       5.003099      2.892133      2.077746
  C       4.003434      2.850587      3.036799
  H       2.672943      2.029607      1.677321
  H       5.822019      3.366461      2.430787
  C       1.682976      2.200093      3.534760
  H       1.376444      1.146711      3.498729
  H       2.048415      2.435864      4.535449
  H       0.812279      2.828462      3.310500
  C       4.793397      2.892446      0.636841
  H       4.335451      1.956292      0.301013
  H       4.164789      3.728335      0.295142
  H       5.767274      2.973151      0.147617
  O      -2.010069      0.864629     -2.190147
  O       1.922499      0.693079      0.151726
  N      -0.028487      0.711379     -1.065180
  N       0.496218     -1.103201      0.255806
  C      -1.599061     -1.128994     -0.925091
  C      -1.285833      0.204370     -1.457880
  C      -0.697262     -1.710073     -0.097953
  C      -2.903718     -1.761299     -1.317816
  C       0.878113      0.147566     -0.193273
  H      -0.859984     -2.688932      0.341225
  H       0.174046      1.650202     -1.392613
  H       1.139518     -1.551771      0.893577
  H      -2.970401     -1.872807     -2.405500
  H      -3.747346     -1.131588     -1.015080
  H      -3.018641     -2.746681     -0.857050
29
Coordinates from ORCA-job dimethylurea_thymine_opt_freq E -757.649870704013
  O       4.226118      3.190602      4.205318
  N       2.768440      2.432719      2.598657
  N       4.998414      2.910089      2.077819
  C       3.998115      2.864693      3.035472
  H       2.675643      2.022625      1.678217
  H       5.811591      3.398616      2.424504
  C       1.684651      2.192151      3.537799
  H       1.372243      1.141270      3.497788
  H       2.050202      2.421586      4.539930
  H       0.817085      2.826216      3.317801
  C       4.793260      2.884397      0.636626
  H       4.348988      1.936943      0.314155
  H       4.154234      3.705755      0.279318
  H       5.767252      2.970642      0.148611
  O      -2.006849      0.872399     -2.182864
  O       1.930513      0.681839      0.148792
  N      -0.023964      0.710599     -1.062825
  N       0.498650     -1.110296      0.251747
  C      -1.599522     -1.125836     -0.923909
  C      -1.283518      0.207953     -1.453906
  C      -0.697194     -1.712381     -0.101168
  C      -2.906564     -1.753484     -1.316209
  C       0.883404      0.140808     -0.194443
  H      -0.862122     -2.692416      0.334560
  H       0.181557      1.649145     -1.389164
  H       1.142961     -1.563281      0.885379
  H      -2.974041     -1.861666     -2.404273
  H      -3.748526     -1.122602     -1.011509
  H      -3.023308     -2.740198     -0.858810
29
Coordinates from ORCA-job dimethylurea_thymine_opt_freq E -757.649871046805
  O       4.231862      3.176244      4.206919
  N       2.766992      2.437516      2.597750
  N       4.998682      2.903972      2.076254
  C       3.999949      2.858700      3.035469
  H       2.673551      2.026777      1.677758
  H       5.816654      3.383281      2.424379
  C       1.684252      2.195010      3.537310
  H       1.375144      1.143190      3.499970
  H       2.049326      2.427315      4.538978
  H       0.814806      2.825918      3.316102
  C       4.790410      2.888882      0.635265
  H       4.342035      1.945369      0.306883
  H       4.154055      3.715395      0.285343
  H       5.763875      2.974498      0.146069
  O      -2.003961      0.868983     -2.187597
  O       1.928845      0.683742      0.152303
  N      -0.023560      0.710232     -1.062963
  N       0.497422     -1.108824      0.254937
  C      -1.598940     -1.126464     -0.923649
  C      -1.282090      0.206285     -1.455589
  C      -0.697692     -1.711723     -0.098779
  C      -2.905294     -1.754801     -1.317169
  C       0.882745      0.141903     -0.192180
  H      -0.862531     -2.691502      0.337553
  H       0.181880      1.648607     -1.389874
  H       1.140809     -1.560736      0.890290
  H      -2.970643     -1.864949     -2.405157
  H      -3.747697     -1.123296     -1.015006
  H      -3.023179     -2.740637     -0.858157
29
Coordinates from ORCA-job dimethylurea_thymine_opt_freq E -757.649878645622
  O       4.241353      3.166655      4.207216
  N       2.768024      2.439353      2.600541
  N       4.998426      2.900973      2.071999
  C       4.003746      2.854582      3.035284
  H       2.673121      2.026736      1.681615
  H       5.821290      3.373026      2.418233
  C       1.687342      2.196766      3.541982
  H       1.384424      1.142826      3.511543
  H       2.051691      2.434879      4.542597
  H       0.815043      2.822629      3.318161
  C       4.782986      2.894841      0.631764
  H       4.334183      1.953075      0.298952
  H       4.144942      3.723654      0.290919
  H       5.754413      2.983551      0.139004
  O      -1.994745      0.863702     -2.199353
  O       1.927193      0.681829      0.160372
  N      -0.020854      0.707643     -1.062925
  N       0.492879     -1.108347      0.261281
  C      -1.598963     -1.126835     -0.924984
  C      -1.277705      0.203304     -1.460352
  C      -0.701332     -1.711123     -0.095313
  C      -2.904747     -1.754226     -1.321948
  C       0.881860      0.140943     -0.187327
  H      -0.867798     -2.690265      0.341816
  H       0.186228      1.645035     -1.391651
  H       1.134257     -1.560184      0.898733
  H      -2.965704     -1.867411     -2.409844
  H      -3.747061     -1.120347     -1.024528
  H      -3.026779     -2.738380     -0.860375
29
Coordinates from ORCA-job dimethylurea_thymine_opt_freq E -757.649883280291
  O       4.252805      3.150475      4.208175
  N       2.768002      2.444062      2.602400
  N       4.998419      2.896256      2.067548
  C       4.008125      2.848332      3.035082
  H       2.669834      2.032406      1.683353
  H       5.826737      3.359181      2.412921
  C       1.690628      2.198668      3.546655
  H       1.395442      1.142145      3.524219
  H       2.054413      2.443858      4.545756
  H       0.813776      2.817248      3.320738
  C       4.776043      2.902616      0.628227
  H       4.322856      1.965055      0.289520
  H       4.139456      3.736625      0.297673
  H       5.745641      2.991888      0.131953
  O      -1.985494      0.857633     -2.211373
  O       1.925623      0.679504      0.167682
  N      -0.018133      0.705020     -1.063363
  N       0.487691     -1.107428      0.268506
  C      -1.598827     -1.127702     -0.926521
  C      -1.273188      0.199763     -1.465476
  C      -0.705533     -1.710196     -0.090961
  C      -2.903770     -1.754587     -1.327049
  C       0.880328      0.140090     -0.182313
  H      -0.874734     -2.687802      0.348540
  H       0.190889      1.640965     -1.394926
  H       1.126710     -1.558470      0.908886
  H      -2.959849     -1.872287     -2.414708
  H      -3.746230     -1.117955     -1.035972
  H      -3.029949     -2.736477     -0.861758
29
Coordinates from ORCA-job dimethylurea_thymine_opt_freq E -757.649892061833
  O       4.265806      3.142857      4.206645
  N       2.769476      2.446469      2.606660
  N       4.996732      2.898389      2.059973
  C       4.013072      2.846637      3.033807
  H       2.667528      2.033821      1.688455
  H       5.829163      3.356251      2.402018
  C       1.698147      2.197006      3.556292
  H       1.413559      1.137122      3.545313
  H       2.061454      2.451932      4.553123
  H       0.814285      2.805027      3.329109
  C       4.765410      2.910612      0.621986
  H       4.312455      1.973468      0.281800
  H       4.125218      3.744987      0.299649
  H       5.731971      3.004147      0.120583
  O      -1.969372      0.851584     -2.228166
  O       1.925518      0.670932      0.179154
  N      -0.012415      0.700569     -1.061993
  N       0.479297     -1.108651      0.278828
  C      -1.598975     -1.127878     -0.929981
  C      -1.265047      0.195845     -1.472650
  C      -0.713320     -1.709420     -0.085731
  C      -2.903386     -1.751996     -1.336488
  C       0.878978      0.136017     -0.174062
  H      -0.888442     -2.684463      0.357133
  H       0.201457      1.634115     -1.397144
  H       1.114003     -1.560005      0.923266
  H      -2.953054     -1.875091     -2.423799
  H      -3.745132     -1.110614     -1.053747
  H      -3.036674     -2.730785     -0.866621
29
Coordinates from ORCA-job dimethylurea_thymine_opt_freq E -757.649906215172
  O       4.278381      3.148168      4.202598
  N       2.773471      2.444603      2.613177
  N       4.994212      2.908355      2.050584
  C       4.018394      2.850993      3.031733
  H       2.667325      2.030223      1.696088
  H       5.827347      3.368952      2.387141
  C       1.710019      2.190565      3.570078
  H       1.438090      1.127011      3.573092
  H       2.073141      2.458029      4.563632
  H       0.817145      2.784979      3.341814
  C       4.753147      2.917377      0.614194
  H       4.304762      1.976506      0.278283
  H       4.104531      3.746732      0.295824
  H       5.715599      3.017900      0.106352
  O      -1.948753      0.846464     -2.247464
  O       1.925486      0.657918      0.194332
  N      -0.004516      0.694488     -1.059983
  N       0.468042     -1.112018      0.290780
  C      -1.599866     -1.127312     -0.935206
  C      -1.254702      0.192047     -1.481197
  C      -0.724494     -1.708787     -0.080441
  C      -2.903981     -1.746842     -1.349530
  C       0.877189      0.129177     -0.163464
  H      -0.908314     -2.680409      0.366407
  H       0.216914      1.624972     -1.398658
  H       1.095991     -1.564037      0.941328
  H      -2.946300     -1.875114     -2.436489
  H      -3.744483     -1.099694     -1.076174
  H      -3.046069     -2.722360     -0.875416
29
Coordinates from ORCA-job dimethylurea_thymine_opt_freq E -757.649939130096
  O       4.284770      3.179648      4.193975
  N       2.780870      2.435050      2.622055
  N       4.989350      2.932612      2.039381
  C       4.021728      2.867199      3.027968
  H       2.672658      2.014056      1.708196
  H       5.816641      3.409733      2.367321
  C       1.727717      2.176041      3.588520
  H       1.469477      1.109114      3.607100
  H       2.091314      2.458279      4.577772
  H       0.824254      2.754710      3.360702
  C       4.740095      2.920120      0.604640
  H       4.306878      1.967198      0.283078
  H       4.073780      3.733191      0.280710
  H       5.697287      3.033325      0.089699
  O      -1.922499      0.844583     -2.267769
  O       1.926804      0.637265      0.212870
  N       0.006096      0.686777     -1.055241
  N       0.453969     -1.119639      0.303626
  C      -1.602016     -1.124866     -0.942107
  C      -1.241673      0.189614     -1.490039
  C      -0.739692     -1.708880     -0.076043
  C      -2.906615     -1.736522     -1.366359
  C       0.875820      0.117399     -0.150277
  H      -0.935584     -2.676570      0.374212
  H       0.239067      1.613431     -1.396584
  H       1.072672     -1.574125      0.961259
  H      -2.940959     -1.868267     -2.453122
  H      -3.744833     -1.082436     -1.102419
  H      -3.059665     -2.709155     -0.889709
29
Coordinates from ORCA-job dimethylurea_thymine_opt_freq E -757.649933419996
  O       4.303723      3.302917      4.160671
  N       2.814021      2.398755      2.657411
  N       4.973153      3.018226      2.000266
  C       4.034242      2.928478      3.014632
  H       2.696012      1.956870      1.753734
  H       5.770985      3.564185      2.295347
  C       1.798346      2.122064      3.658820
  H       1.599553      1.043321      3.734967
  H       2.165120      2.459130      4.629822
  H       0.856228      2.635884      3.427278
  C       4.697763      2.923100      0.573936
  H       4.312494      1.932018      0.309094
  H       3.975395      3.678064      0.226538
  H       5.634868      3.070380      0.031381
  O      -1.837747      0.834745     -2.341679
  O       1.915642      0.581844      0.284635
  N       0.036846      0.660689     -1.044412
  N       0.399124     -1.138092      0.348998
  C      -1.611999     -1.116237     -0.968878
  C      -1.201835      0.180665     -1.524604
  C      -0.795777     -1.704472     -0.061914
  C      -2.914146     -1.706287     -1.429893
  C       0.861932      0.084266     -0.103875
  H      -1.032045     -2.658110      0.399303
  H       0.311129      1.573537     -1.392467
  H       0.980266     -1.594294      1.039215
  H      -2.916388     -1.850086     -2.515756
  H      -3.747907     -1.032706     -1.202172
  H      -3.101288     -2.669971     -0.946986
29
Coordinates from ORCA-job dimethylurea_thymine_opt_freq E -757.649990041355
  O       4.300087      3.285749      4.167768
  N       2.809636      2.406469      2.653077
  N       4.977174      3.005350      2.009045
  C       4.032756      2.920418      3.018354
  H       2.694589      1.968427      1.748530
  H       5.780663      3.539364      2.307853
  C       1.788745      2.132323      3.648335
  H       1.574510      1.059046      3.715891
  H       2.155991      2.464309      4.620597
  H       0.853279      2.657674      3.419367
  C       4.707718      2.918538      0.581407
  H       4.312499      1.933780      0.310123
  H       3.997429      3.683640      0.233194
  H       5.649361      3.055045      0.044153
  O      -1.860343      0.834088     -2.325227
  O       1.913146      0.592536      0.268661
  N       0.026588      0.673443     -1.047468
  N       0.406570     -1.133939      0.336880
  C      -1.611553     -1.119252     -0.963667
  C      -1.212992      0.182062     -1.516261
  C      -0.786004     -1.706691     -0.066943
  C      -2.912962     -1.715027     -1.419204
  C       0.860537      0.092030     -0.115386
  H      -1.011775     -2.664758      0.389917
  H       0.296081      1.587895     -1.394654
  H       0.996236     -1.589643      1.019835
  H      -2.918607     -1.855177     -2.505527
  H      -3.749328     -1.047113     -1.185593
  H      -3.092321     -2.681703     -0.939646
