29
Coordinates from ORCA-job dimethylurea_thymine_opt_freq E -757.649990041355
  O           4.30008697038064      3.28574900666573      4.16776780233150
  N           2.80963573009707      2.40646857154956      2.65307728516139
  N           4.97717383036963      3.00535004928133      2.00904458347450
  C           4.03275552004554      2.92041829344262      3.01835446566387
  H           2.69458929710530      1.96842724987508      1.74853033300220
  H           5.78066304337156      3.53936421570869      2.30785299221245
  C           1.78874542715659      2.13232320789657      3.64833549107625
  H           1.57450960814541      1.05904620350199      3.71589075861696
  H           2.15599089249412      2.46430864610300      4.62059729226651
  H           0.85327871119584      2.65767402206692      3.41936742619113
  C           4.70771764965419      2.91853818039236      0.58140697192144
  H           4.31249921669706      1.93378030968094      0.31012333866029
  H           3.99742933597592      3.68363996656803      0.23319449978687
  H           5.64936128660629      3.05504454687013      0.04415329964250
  O          -1.86034290209379      0.83408844609364     -2.32522666494929
  O           1.91314624105248      0.59253619295606      0.26866139283029
  N           0.02658824411065      0.67344278290509     -1.04746838611710
  N           0.40657022224369     -1.13393912103498      0.33687961748631
  C          -1.61155302116008     -1.11925195532937     -0.96366719274236
  C          -1.21299171604772      0.18206198406796     -1.51626070061127
  C          -0.78600353173713     -1.70669111634396     -0.06694285452359
  C          -2.91296214133348     -1.71502663743113     -1.41920386050154
  C           0.86053672022425      0.09202997239874     -0.11538631657668
  H          -1.01177483792165     -2.66475784492843      0.38991667823362
  H           0.29608106349572      1.58789482041553     -1.39465410611876
  H           0.99623610325872     -1.58964308544538      1.01983460864790
  H          -2.91860693120768     -1.85517658282822     -2.50552683923318
  H          -3.74932827526208     -1.04711260166693     -1.18559279956861
  H          -3.09232075691723     -2.68170272343169     -0.93964611626369
