21
Coordinates from ORCA-job formamide_thymine_opt_freq E -623.650087146469
  O       1.664888      3.907639      1.501100
  N       2.385320      1.722497      1.501100
  C       2.581078      3.088020      1.500700
  H       3.165065      1.073542      1.500800
  H       1.452035      1.324666      1.501100
  H       3.605258      3.461056      1.499990
  O      -1.519300      1.806700     -0.000900
  O       2.839400      0.291300     -0.000700
  N       0.664300      1.062300      0.001100
  N       1.114800     -1.231600     -0.000200
  C      -1.161200     -0.543200      0.000200
  C      -0.712900      0.880200      0.000400
  C      -0.226000     -1.501300     -0.000100
  C      -2.630000     -0.818900     -0.000100
  C       1.631000      0.054500      0.000300
  H      -0.478700     -2.555300     -0.000400
  H       1.001400      2.020900      0.001100
  H       1.756400     -2.019100     -0.000900
  H      -3.100400     -0.386000     -0.888900
  H      -3.100600     -0.386200      0.888700
  H      -2.843300     -1.893100     -0.000300
21
Coordinates from ORCA-job formamide_thymine_opt_freq E -623.674890141609
  O       1.720702      3.967797      1.575278
  N       2.427269      1.792708      1.520721
  C       2.630761      3.138255      1.558892
  H       3.193386      1.141340      1.479009
  H       1.494879      1.396282      1.490931
  H       3.672286      3.483814      1.558494
  O      -1.524025      1.786967     -0.028829
  O       2.826395      0.270762     -0.026415
  N       0.648108      1.027717     -0.020760
  N       1.104355     -1.250402     -0.006479
  C      -1.189529     -0.567508     -0.009262
  C      -0.739017      0.847553     -0.021402
  C      -0.247224     -1.529285     -0.001846
  C      -2.662422     -0.838055     -0.006565
  C       1.619057      0.031927     -0.018755
  H      -0.496813     -2.585242      0.006355
  H       0.997459      1.984635     -0.024093
  H       1.756301     -2.024096     -0.003506
  H      -3.134727     -0.409617     -0.896696
  H      -3.134142     -0.394671      0.876541
  H      -2.874516     -1.912262      0.002476
21
Coordinates from ORCA-job formamide_thymine_opt_freq E -623.692243153750
  O       1.747194      4.018956      1.669896
  N       2.462453      1.856077      1.531704
  C       2.655607      3.188946      1.619656
  H       3.225722      1.205859      1.440242
  H       1.534941      1.452327      1.478096
  H       3.709839      3.512293      1.621201
  O      -1.512864      1.777389     -0.063312
  O       2.814932      0.241051     -0.059456
  N       0.642034      0.992627     -0.048722
  N       1.091627     -1.275975     -0.012623
  C      -1.209812     -0.586231     -0.016091
  C      -0.756212      0.819455     -0.045586
  C      -0.266982     -1.555071      0.000202
  C      -2.686397     -0.848328     -0.007125
  C       1.610799      0.002102     -0.042880
  H      -0.517485     -2.610669      0.020752
  H       1.005193      1.943478     -0.061937
  H       1.754157     -2.039280     -0.005229
  H      -3.161001     -0.424871     -0.898462
  H      -3.156516     -0.389543      0.868991
  H      -2.898686     -1.921970      0.014771
21
Coordinates from ORCA-job formamide_thymine_opt_freq E -623.709287155011
  O       1.805307      4.100682      1.812537
  N       2.513423      1.940032      1.545236
  C       2.703400      3.269917      1.703467
  H       3.268794      1.289648      1.381234
  H       1.585970      1.539565      1.468701
  H       3.768644      3.565307      1.708239
  O      -1.511596      1.760972     -0.114673
  O       2.796065      0.190224     -0.104019
  N       0.628462      0.950574     -0.085909
  N       1.064021     -1.317569     -0.020222
  C      -1.233169     -0.612421     -0.026750
  C      -0.779017      0.786234     -0.079918
  C      -0.295444     -1.587931      0.002371
  C      -2.712012     -0.868899     -0.010470
  C       1.592135     -0.041970     -0.074854
  H      -0.550274     -2.641502      0.039626
  H       1.001824      1.895664     -0.113528
  H       1.735150     -2.074313     -0.007334
  H      -3.188589     -0.453673     -0.904723
  H      -3.180341     -0.390263      0.856034
  H      -2.924208     -1.941656      0.029046
21
Coordinates from ORCA-job formamide_thymine_opt_freq E -623.722489081064
  O       1.855908      4.163468      2.005195
  N       2.576200      2.032340      1.555259
  C       2.751765      3.357548      1.798468
  H       3.320604      1.399394      1.291977
  H       1.649636      1.632500      1.481145
  H       3.820708      3.645552      1.792351
  O      -1.509764      1.739375     -0.184562
  O       2.777776      0.122169     -0.151905
  N       0.617814      0.903218     -0.130023
  N       1.032255     -1.368405     -0.026384
  C      -1.255972     -0.638933     -0.038473
  C      -0.795660      0.752282     -0.122737
  C      -0.327029     -1.622709      0.006342
  C      -2.737720     -0.887189     -0.013071
  C       1.572109     -0.096925     -0.109842
  H      -0.592213     -2.672959      0.065075
  H       0.997585      1.844567     -0.186903
  H       1.706354     -2.121832     -0.006370
  H      -3.215088     -0.483614     -0.912496
  H      -3.202174     -0.383726      0.841647
  H      -2.954549     -1.957502      0.049398
21
Coordinates from ORCA-job formamide_thymine_opt_freq E -623.729973178976
  O       1.908794      4.200772      2.177797
  N       2.638581      2.114154      1.563457
  C       2.805180      3.428733      1.880986
  H       3.366532      1.504473      1.208040
  H       1.708049      1.718875      1.513499
  H       3.870328      3.729751      1.842067
  O      -1.516107      1.713597     -0.244802
  O       2.760652      0.062409     -0.181906
  N       0.605567      0.863954     -0.161986
  N       1.004031     -1.410590     -0.029460
  C      -1.277390     -0.663322     -0.051078
  C      -0.808509      0.722650     -0.161278
  C      -0.355324     -1.652512      0.007326
  C      -2.760828     -0.904616     -0.020267
  C       1.552132     -0.143034     -0.132544
  H      -0.630462     -2.699312      0.082759
  H       0.982712      1.804036     -0.245795
  H       1.677226     -2.164870     -0.002911
  H      -3.236761     -0.512657     -0.925714
  H      -3.222297     -0.381674      0.824452
  H      -2.983564     -1.972197      0.061447
21
Coordinates from ORCA-job formamide_thymine_opt_freq E -623.734381774937
  O       1.964343      4.215544      2.344624
  N       2.700239      2.190047      1.567101
  C       2.859159      3.490004      1.943729
  H       3.407056      1.611229      1.127834
  H       1.768449      1.794342      1.564324
  H       3.913398      3.820102      1.864934
  O      -1.524120      1.685429     -0.298192
  O       2.744034      0.011060     -0.199573
  N       0.593070      0.828496     -0.184644
  N       0.978956     -1.446579     -0.029294
  C      -1.298999     -0.687122     -0.062829
  C      -0.819016      0.694353     -0.190237
  C      -0.382146     -1.680618      0.007995
  C      -2.783630     -0.919853     -0.032350
  C       1.533422     -0.183503     -0.146912
  H      -0.665730     -2.724385      0.095764
  H       0.964220      1.768134     -0.295074
  H       1.648302     -2.203506      0.003608
  H      -3.255093     -0.537050     -0.944078
  H      -3.243693     -0.382796      0.804274
  H      -3.013676     -1.984708      0.063088
21
Coordinates from ORCA-job formamide_thymine_opt_freq E -623.736879967719
  O       2.025069      4.222033      2.485022
  N       2.757245      2.254633      1.576214
  C       2.912800      3.540445      1.996970
  H       3.441253      1.710791      1.064162
  H       1.830636      1.851374      1.635053
  H       3.944303      3.914778      1.851547
  O      -1.533721      1.659634     -0.335003
  O       2.728089     -0.029435     -0.202975
  N       0.579674      0.798174     -0.200540
  N       0.956185     -1.476645     -0.030124
  C      -1.319646     -0.709754     -0.076777
  C      -0.829362      0.667959     -0.219184
  C      -0.406834     -1.706348      0.004009
  C      -2.804929     -0.933449     -0.047568
  C       1.516173     -0.217318     -0.153748
  H      -0.695891     -2.747879      0.099839
  H       0.944690      1.737548     -0.328819
  H       1.620262     -2.237887      0.009464
  H      -3.271717     -0.559242     -0.965199
  H      -3.263690     -0.385026      0.782330
  H      -3.042045     -1.995767      0.059417
21
Coordinates from ORCA-job formamide_thymine_opt_freq E -623.738247913050
  O       2.113719      4.225387      2.625366
  N       2.812332      2.317643      1.580852
  C       2.971182      3.592894      2.026492
  H       3.470240      1.807987      1.006583
  H       1.901169      1.898291      1.713778
  H       3.978519      4.003299      1.823041
  O      -1.550897      1.632657     -0.371295
  O       2.708059     -0.056426     -0.197646
  N       0.559759      0.772767     -0.207226
  N       0.933622     -1.499940     -0.023890
  C      -1.342867     -0.733447     -0.088805
  C      -0.847109      0.643353     -0.228871
  C      -0.430998     -1.730363      0.002763
  C      -2.828456     -0.952588     -0.072204
  C       1.496082     -0.243042     -0.152140
  H      -0.720643     -2.771531      0.100963
  H       0.919871      1.711928     -0.349673
  H       1.593699     -2.263909      0.022763
  H      -3.286388     -0.580810     -0.995222
  H      -3.292788     -0.401463      0.752712
  H      -3.069563     -2.014067      0.035749
21
Coordinates from ORCA-job formamide_thymine_opt_freq E -623.739054781167
  O       2.202676      4.238446      2.730426
  N       2.860701      2.367230      1.598086
  C       3.027939      3.635658      2.058787
  H       3.492503      1.890139      0.970702
  H       1.974221      1.925669      1.802855
  H       3.995394      4.087340      1.768988
  O      -1.569208      1.612302     -0.385023
  O       2.689200     -0.075505     -0.179816
  N       0.539765      0.751689     -0.216424
  N       0.912952     -1.519353     -0.023623
  C      -1.363601     -0.754665     -0.107045
  C      -0.865238      0.620466     -0.257457
  C      -0.452283     -1.751108     -0.006433
  C      -2.849378     -0.970635     -0.094921
  C       1.477328     -0.263170     -0.147968
  H      -0.740583     -2.792312      0.094595
  H       0.898221      1.691792     -0.355665
  H       1.569845     -2.285464      0.032547
  H      -3.302788     -0.606656     -1.023196
  H      -3.316358     -0.412371      0.723636
  H      -3.092764     -2.030872      0.021037
21
Coordinates from ORCA-job formamide_thymine_opt_freq E -623.739640127976
  O       2.323357      4.262040      2.826839
  N       2.910143      2.416638      1.614090
  C       3.094337      3.682399      2.074911
  H       3.511772      1.965388      0.940881
  H       2.058185      1.949293      1.892766
  H       4.022388      4.157995      1.705087
  O      -1.598946      1.589670     -0.402719
  O       2.663705     -0.081342     -0.154741
  N       0.510646      0.736574     -0.212899
  N       0.891105     -1.531882     -0.014842
  C      -1.387885     -0.777160     -0.122055
  C      -0.893811      0.600982     -0.256727
  C      -0.473496     -1.769780     -0.012477
  C      -2.872992     -0.998408     -0.129480
  C       1.452670     -0.273890     -0.134095
  H      -0.756218     -2.813011      0.083199
  H       0.867390      1.678138     -0.345474
  H       1.548484     -2.296970      0.048974
  H      -3.316537     -0.631882     -1.061507
  H      -3.352169     -0.445984      0.685937
  H      -3.113583     -2.060187     -0.021576
21
Coordinates from ORCA-job formamide_thymine_opt_freq E -623.740143593189
  O       2.474950      4.299051      2.919254
  N       2.958946      2.468988      1.635821
  C       3.167215      3.735450      2.083784
  H       3.526749      2.037991      0.921903
  H       2.155852      1.969925      1.992651
  H       4.054103      4.219930      1.632215
  O      -1.638283      1.566466     -0.408273
  O       2.632246     -0.078405     -0.115086
  N       0.474353      0.723391     -0.211486
  N       0.867533     -1.541764     -0.006824
  C      -1.414716     -0.801954     -0.144130
  C      -0.929381      0.579446     -0.270359
  C      -0.495270     -1.788607     -0.023684
  C      -2.898515     -1.033163     -0.169357
  C       1.422660     -0.279447     -0.115147
  H      -0.770189     -2.834404      0.066977
  H       0.829708      1.668118     -0.321718
  H       1.528363     -2.302719      0.068384
  H      -3.333591     -0.668559     -1.106146
  H      -3.391269     -0.484449      0.640468
  H      -3.132920     -2.096666     -0.065157
21
Coordinates from ORCA-job formamide_thymine_opt_freq E -623.740586113598
  O       2.637005      4.352308      2.982617
  N       3.010034      2.516227      1.664759
  C       3.250113      3.785070      2.090795
  H       3.539054      2.097241      0.914286
  H       2.269061      1.983231      2.099878
  H       4.075091      4.274651      1.537605
  O      -1.683826      1.543685     -0.405492
  O       2.595905     -0.067931     -0.064030
  N       0.433891      0.715361     -0.199145
  N       0.843091     -1.548408      0.003165
  C      -1.441919     -0.826169     -0.165755
  C      -0.969248      0.561121     -0.266538
  C      -0.516346     -1.805827     -0.037584
  C      -2.923164     -1.072004     -0.216887
  C       1.388441     -0.279661     -0.088015
  H      -0.782724     -2.854867      0.040449
  H       0.783761      1.663951     -0.279588
  H       1.510027     -2.303121      0.087098
  H      -3.347252     -0.701157     -1.156333
  H      -3.434135     -0.536316      0.590399
  H      -3.148318     -2.138764     -0.127592
21
Coordinates from ORCA-job formamide_thymine_opt_freq E -623.740887677276
  O       2.797664      4.405672      3.027259
  N       3.054930      2.561413      1.688807
  C       3.329745      3.831513      2.089903
  H       3.547115      2.139263      0.914933
  H       2.375892      2.005386      2.188714
  H       4.105870      4.311713      1.461949
  O      -1.732838      1.521050     -0.395742
  O       2.558198     -0.050457     -0.006360
  N       0.391508      0.710254     -0.183284
  N       0.820947     -1.550308      0.012715
  C      -1.468099     -0.849484     -0.187947
  C      -1.009571      0.543554     -0.266935
  C      -0.534574     -1.820821     -0.053259
  C      -2.945718     -1.112063     -0.263244
  C       1.353310     -0.274235     -0.056706
  H      -0.792128     -2.873010      0.011218
  H       0.734818      1.664242     -0.230779
  H       1.496256     -2.296621      0.104294
  H      -3.360300     -0.736566     -1.205139
  H      -3.474790     -0.589787      0.541220
  H      -3.159694     -2.182087     -0.187529
21
Coordinates from ORCA-job formamide_thymine_opt_freq E -623.741120942945
  O       2.911948      4.449775      3.038466
  N       3.085949      2.592262      1.703261
  C       3.392401      3.862374      2.082022
  H       3.552391      2.151061      0.923504
  H       2.448173      2.029522      2.247844
  H       4.140236      4.327747      1.410024
  O      -1.773799      1.503799     -0.381548
  O       2.527894     -0.030813      0.045434
  N       0.356931      0.710426     -0.161914
  N       0.805907     -1.547533      0.019694
  C      -1.486892     -0.866239     -0.203739
  C      -1.041099      0.532221     -0.260368
  C      -0.545664     -1.830070     -0.067467
  C      -2.960497     -1.143661     -0.299632
  C       1.325438     -0.265002     -0.027169
  H      -0.796000     -2.884797     -0.017906
  H       0.692509      1.668535     -0.183884
  H       1.489192     -2.286287      0.113922
  H      -3.367971     -0.761192     -1.241847
  H      -3.504563     -0.636821      0.504737
  H      -3.163939     -2.216686     -0.239343
21
Coordinates from ORCA-job formamide_thymine_opt_freq E -623.741438098237
  O       3.083549      4.515417      3.033211
  N       3.129496      2.635211      1.720075
  C       3.489932      3.902840      2.058411
  H       3.555342      2.148411      0.943280
  H       2.552637      2.077075      2.333406
  H       4.199688      4.340888      1.329533
  O      -1.840534      1.476587     -0.350945
  O       2.477644      0.006507      0.136960
  N       0.300576      0.714888     -0.115001
  N       0.784991     -1.538406      0.031237
  C      -1.513943     -0.890881     -0.226819
  C      -1.090639      0.516389     -0.241676
  C      -0.558970     -1.841654     -0.091709
  C      -2.979614     -1.192271     -0.358612
  C       1.281002     -0.245872      0.026840
  H      -0.796165     -2.900371     -0.071196
  H       0.620873      1.678858     -0.098392
  H       1.481320     -2.264827      0.126254
  H      -3.375735     -0.794192     -1.299208
  H      -3.548433     -0.716031      0.447353
  H      -3.164475     -2.269946     -0.328913
21
Coordinates from ORCA-job formamide_thymine_opt_freq E -623.741652091517
  O       3.222124      4.558656      3.018952
  N       3.161087      2.663919      1.730264
  C       3.564485      3.928127      2.030592
  H       3.548842      2.138008      0.958341
  H       2.635917      2.120206      2.401301
  H       4.236971      4.348745      1.257972
  O      -1.893544      1.454820     -0.321763
  O       2.435991      0.038187      0.217213
  N       0.254796      0.720246     -0.065846
  N       0.770020     -1.528709      0.042705
  C      -1.533154     -0.909104     -0.243674
  C      -1.129553      0.504549     -0.220281
  C      -0.566773     -1.848765     -0.111167
  C      -2.991309     -1.228316     -0.408436
  C       1.245954     -0.229394      0.076531
  H      -0.790907     -2.910488     -0.117791
  H       0.560727      1.688043     -0.022021
  H       1.475450     -2.246474      0.136528
  H      -3.377043     -0.813955     -1.346277
  H      -3.581050     -0.780642      0.398838
  H      -3.160490     -2.309039     -0.407888
21
Coordinates from ORCA-job formamide_thymine_opt_freq E -623.741875336681
  O       3.349169      4.589031      2.993615
  N       3.185055      2.681210      1.737610
  C       3.625834      3.942420      1.994297
  H       3.530294      2.118819      0.970815
  H       2.708473      2.163529      2.464405
  H       4.255739      4.350407      1.180676
  O      -1.939679      1.436071     -0.289231
  O       2.398825      0.067809      0.297955
  N       0.213519      0.726872     -0.006988
  N       0.759133     -1.517041      0.055516
  C      -1.547249     -0.923409     -0.257237
  C      -1.163345      0.494952     -0.193435
  C      -0.570178     -1.852344     -0.129451
  C      -2.997612     -1.256990     -0.456477
  C       1.216193     -0.213086      0.129319
  H      -0.779059     -2.916581     -0.165308
  H       0.503925      1.697720      0.057913
  H       1.471294     -2.228559      0.145775
  H      -3.372397     -0.823274     -1.389917
  H      -3.607486     -0.839350      0.351877
  H      -3.151902     -2.339587     -0.487640
21
Coordinates from ORCA-job formamide_thymine_opt_freq E -623.742126581313
  O       3.486830      4.614514      2.949351
  N       3.203160      2.688354      1.747523
  C       3.680260      3.947045      1.943229
  H       3.492150      2.090229      0.984494
  H       2.780146      2.211471      2.533769
  H       4.251855      4.339134      1.080605
  O      -1.984249      1.418621     -0.245770
  O       2.361717      0.099045      0.390647
  N       0.171532      0.734203      0.070189
  N       0.751239     -1.501844      0.071657
  C      -1.557577     -0.935039     -0.269899
  C      -1.196587      0.486209     -0.156578
  C      -0.569072     -1.852301     -0.149814
  C      -2.998668     -1.281459     -0.510444
  C       1.187812     -0.194952      0.193142
  H      -0.757783     -2.918484     -0.221672
  H       0.444052      1.707964      0.157527
  H       1.469471     -2.208009      0.155087
  H      -3.360267     -0.822083     -1.436681
  H      -3.630981     -0.899465      0.298257
  H      -3.136496     -2.364534     -0.580529
21
Coordinates from ORCA-job formamide_thymine_opt_freq E -623.742361607434
  O       3.623563      4.639191      2.885431
  N       3.212866      2.687492      1.764953
  C       3.722329      3.942866      1.884492
  H       3.435756      2.059337      1.004108
  H       2.844277      2.257731      2.604225
  H       4.224564      4.307831      0.968434
  O      -2.023061      1.404264     -0.194247
  O       2.328287      0.127840      0.483770
  N       0.133526      0.739565      0.152351
  N       0.746993     -1.485719      0.087864
  C      -1.563112     -0.942281     -0.281441
  C      -1.226016      0.479119     -0.115214
  C      -0.563644     -1.848426     -0.171207
  C      -2.994250     -1.299224     -0.564177
  C       1.162919     -0.177900      0.258742
  H      -0.730518     -2.914992     -0.281220
  H       0.389256      1.715061      0.267071
  H       1.471404     -2.186559      0.162168
  H      -3.342910     -0.811542     -1.480779
  H      -3.648369     -0.954146      0.243798
  H      -3.115315     -2.380887     -0.675033
21
Coordinates from ORCA-job formamide_thymine_opt_freq E -623.742635298311
  O       3.760611      4.667783      2.791654
  N       3.213737      2.681324      1.794139
  C       3.753091      3.929610      1.816009
  H       3.355265      2.024925      1.037781
  H       2.899080      2.306810      2.680523
  H       4.175435      4.246916      0.843240
  O      -2.057172      1.392204     -0.131200
  O       2.298698      0.152694      0.579014
  N       0.099757      0.742644      0.239198
  N       0.747049     -1.468729      0.102023
  C      -1.563474     -0.944594     -0.292503
  C      -1.251460      0.473790     -0.068383
  C      -0.553228     -1.840013     -0.195810
  C      -2.983804     -1.310133     -0.617908
  C       1.141425     -0.162380      0.326010
  H      -0.697634     -2.904740     -0.347397
  H       0.339254      1.717653      0.388986
  H       1.478656     -2.163330      0.163787
  H      -3.320615     -0.791165     -1.521649
  H      -3.658838     -1.004476      0.188822
  H      -3.087290     -2.388173     -0.772248
21
Coordinates from ORCA-job formamide_thymine_opt_freq E -623.742998001741
  O       3.894593      4.702679      2.658796
  N       3.205579      2.675521      1.839431
  C       3.773503      3.906941      1.737875
  H       3.245353      1.989207      1.096703
  H       2.939547      2.367193      2.765863
  H       4.109830      4.145999      0.709983
  O      -2.085966      1.381231     -0.055027
  O       2.274659      0.169740      0.673676
  N       0.072337      0.742446      0.326946
  N       0.752170     -1.451835      0.110178
  C      -1.558407     -0.941624     -0.303583
  C      -1.271488      0.469885     -0.016715
  C      -0.537681     -1.826894     -0.225811
  C      -2.967650     -1.313575     -0.669555
  C       1.124433     -0.150179      0.391506
  H      -0.661150     -2.886830     -0.422536
  H       0.296009      1.713562      0.521192
  H       1.492591     -2.138446      0.155024
  H      -3.295409     -0.761438     -1.556876
  H      -3.661174     -1.049430      0.136248
  H      -3.053135     -2.385532     -0.869228
21
Coordinates from ORCA-job formamide_thymine_opt_freq E -623.743479825476
  O       4.020395      4.740891      2.478010
  N       3.186010      2.679935      1.902521
  C       3.789923      3.871648      1.650038
  H       3.105597      1.952711      1.199114
  H       2.953186      2.458142      2.861196
  H       4.050647      3.990063      0.579283
  O      -2.112141      1.367582      0.035662
  O       2.256298      0.178615      0.763969
  N       0.051248      0.739701      0.411168
  N       0.763287     -1.433494      0.106035
  C      -1.548502     -0.934157     -0.315159
  C      -1.286303      0.466341      0.039224
  C      -0.516540     -1.808406     -0.264708
  C      -2.947105     -1.311530     -0.715710
  C       1.111937     -0.140725      0.450447
  H      -0.622386     -2.859824     -0.510942
  H       0.257842      1.702417      0.659207
  H       1.515324     -2.108673      0.128033
  H      -3.271835     -0.725838     -1.582517
  H      -3.654554     -1.091946      0.091402
  H      -3.013782     -2.374831     -0.962185
21
Coordinates from ORCA-job formamide_thymine_opt_freq E -623.743934720141
  O       4.149872      4.761475      2.282029
  N       3.161784      2.708925      1.970547
  C       3.818033      3.828485      1.566030
  H       2.969000      1.930383      1.339441
  H       2.957098      2.587095      2.953096
  H       4.023109      3.809753      0.476624
  O      -2.146297      1.343375      0.126510
  O       2.234510      0.189333      0.842295
  N       0.027127      0.735588      0.481609
  N       0.775035     -1.412102      0.090447
  C      -1.540729     -0.929097     -0.328054
  C      -1.303970      0.458344      0.091631
  C      -0.495135     -1.788694     -0.308500
  C      -2.929146     -1.313649     -0.755254
  C       1.096657     -0.131194      0.497036
  H      -0.586022     -2.828977     -0.603123
  H       0.215595      1.687016      0.784689
  H       1.541173     -2.071788      0.088433
  H      -3.257697     -0.699151     -1.600493
  H      -3.645949     -1.139636      0.054647
  H      -2.975505     -2.366865     -1.045549
21
Coordinates from ORCA-job formamide_thymine_opt_freq E -623.744190270815
  O       4.207936      4.773138      2.179610
  N       3.147653      2.740628      2.016303
  C       3.834737      3.807282      1.530213
  H       2.906017      1.935242      1.437928
  H       2.952523      2.676090      3.005868
  H       4.023857      3.710430      0.442496
  O      -2.160158      1.326865      0.169259
  O       2.229388      0.179744      0.864994
  N       0.020800      0.731928      0.501129
  N       0.780434     -1.405809      0.071222
  C      -1.538082     -0.928797     -0.335405
  C      -1.308343      0.451686      0.113121
  C      -0.487278     -1.782021     -0.334512
  C      -2.924210     -1.314310     -0.766900
  C       1.092736     -0.133145      0.506784
  H      -0.577616     -2.815909     -0.650953
  H       0.199056      1.676231      0.827058
  H       1.552299     -2.058682      0.055941
  H      -3.258125     -0.690045     -1.602826
  H      -3.640682     -1.158824      0.046943
  H      -2.964399     -2.363101     -1.074181
21
Coordinates from ORCA-job formamide_thymine_opt_freq E -623.744318178531
  O       4.364500      4.732513      2.021212
  N       3.138461      2.792769      2.061103
  C       3.877949      3.760379      1.460426
  H       2.833302      1.942117      1.572499
  H       3.033899      2.817217      3.070871
  H       3.994141      3.585872      0.372940
  O      -2.219346      1.283243      0.239247
  O       2.180019      0.221823      0.949188
  N      -0.028163      0.725918      0.566958
  N       0.783849     -1.376945      0.064692
  C      -1.540667     -0.934867     -0.351158
  C      -1.345452      0.431682      0.156731
  C      -0.470808     -1.765428     -0.371317
  C      -2.913570     -1.330374     -0.813134
  C       1.058672     -0.117418      0.555527
  H      -0.537968     -2.787183     -0.730175
  H       0.131608      1.661120      0.935345
  H       1.569987     -2.011930      0.035793
  H      -3.251903     -0.681750     -1.628381
  H      -3.641754     -1.223264     -0.001975
  H      -2.928213     -2.366874     -1.162304
21
Coordinates from ORCA-job formamide_thymine_opt_freq E -623.744464187298
  O       4.366571      4.740000      2.029817
  N       3.138409      2.809598      2.073379
  C       3.881217      3.767899      1.464558
  H       2.837099      1.965322      1.607199
  H       3.057586      2.839391      3.081137
  H       4.002488      3.607809      0.376599
  O      -2.213531      1.277111      0.232289
  O       2.183616      0.198915      0.935015
  N      -0.023035      0.721500      0.557116
  N       0.780733     -1.386503      0.056005
  C      -1.543437     -0.942145     -0.353511
  C      -1.339820      0.424373      0.152071
  C      -0.476468     -1.775565     -0.375024
  C      -2.920453     -1.328684     -0.809159
  C       1.063705     -0.129704      0.547024
  H      -0.550524     -2.797517     -0.732144
  H       0.128481      1.658664      0.910508
  H       1.561855     -2.027268      0.028869
  H      -3.258154     -0.681998     -1.626056
  H      -3.645380     -1.216254      0.004072
  H      -2.942414     -2.366324     -1.155675
21
Coordinates from ORCA-job formamide_thymine_opt_freq E -623.744675687957
  O       4.390097      4.720870      1.936429
  N       3.135423      2.810401      2.098743
  C       3.868037      3.736050      1.429620
  H       2.817242      1.946302      1.659152
  H       3.078102      2.884247      3.106472
  H       3.945403      3.527121      0.345357
  O      -2.227070      1.270691      0.260669
  O       2.178672      0.207897      0.966623
  N      -0.034784      0.722643      0.589033
  N       0.787803     -1.369222      0.058033
  C      -1.537901     -0.935199     -0.356712
  C      -1.348847      0.424062      0.171096
  C      -0.464525     -1.759621     -0.386222
  C      -2.909222     -1.326015     -0.826807
  C       1.059565     -0.118851      0.570950
  H      -0.525863     -2.776302     -0.760098
  H       0.110666      1.655339      0.958079
  H       1.573677     -2.004145      0.024358
  H      -3.246932     -0.668731     -1.635291
  H      -3.639915     -1.230588     -0.016541
  H      -2.921084     -2.358330     -1.188855
21
Coordinates from ORCA-job formamide_thymine_opt_freq E -623.744763869990
  O       4.429321      4.704132      1.864910
  N       3.144893      2.821579      2.126122
  C       3.866671      3.718386      1.406546
  H       2.813450      1.950253      1.709484
  H       3.135394      2.917693      3.134403
  H       3.889606      3.480335      0.325366
  O      -2.245827      1.260832      0.277257
  O       2.165115      0.220367      0.992061
  N      -0.051710      0.721263      0.607814
  N       0.788192     -1.356872      0.060100
  C      -1.538746     -0.934342     -0.363005
  C      -1.363258      0.419920      0.180330
  C      -0.459203     -1.750896     -0.395106
  C      -2.904639     -1.330633     -0.845304
  C       1.049242     -0.109452      0.587350
  H      -0.508680     -2.764235     -0.779598
  H       0.090813      1.650918      0.993623
  H       1.578059     -1.986923      0.026478
  H      -3.242372     -0.666636     -1.648347
  H      -3.640822     -1.247923     -0.038575
  H      -2.906955     -2.359147     -1.217820
21
Coordinates from ORCA-job formamide_thymine_opt_freq E -623.744693034153
  O       4.443344      4.672256      1.747649
  N       3.142712      2.822928      2.162853
  C       3.851712      3.669965      1.367440
  H       2.801731      1.936437      1.779743
  H       3.181082      2.977493      3.164355
  H       3.828759      3.367988      0.301013
  O      -2.266354      1.251039      0.306152
  O       2.155111      0.240660      1.025771
  N      -0.070650      0.724629      0.645856
  N       0.796014     -1.329827      0.058241
  C      -1.533524     -0.927360     -0.367025
  C      -1.377402      0.418640      0.199899
  C      -0.444111     -1.730037     -0.409089
  C      -2.892068     -1.331524     -0.864968
  C       1.042772     -0.087517      0.610224
  H      -0.475527     -2.737097     -0.811912
  H       0.060125      1.651067      1.040756
  H       1.591874     -1.952196      0.021240
  H      -3.232463     -0.655354     -1.656782
  H      -3.634139     -1.270552     -0.061477
  H      -2.880454     -2.353019     -1.255847
21
Coordinates from ORCA-job formamide_thymine_opt_freq E -623.703509899553
  O       4.251267      4.604468      1.902820
  N       3.101615      2.807235      2.053117
  C       3.814553      3.661480      1.460203
  H       2.874157      1.918977      1.645720
  H       3.000566      2.917190      2.998485
  H       3.964625      3.406752      0.484564
  O      -2.227144      1.268882      0.248030
  O       2.177582      0.259724      0.940070
  N      -0.032837      0.719181      0.562535
  N       0.807403     -1.341503      0.040334
  C      -1.522842     -0.912992     -0.350890
  C      -1.346059      0.431178      0.153844
  C      -0.441610     -1.726678     -0.382957
  C      -2.889136     -1.307856     -0.794487
  C       1.060940     -0.100555      0.536712
  H      -0.494581     -2.730774     -0.737224
  H       0.130306      1.645937      0.952750
  H       1.603571     -1.960723      0.010908
  H      -3.251626     -0.666322     -1.590745
  H      -3.602326     -1.208741      0.007563
  H      -2.889880     -2.326239     -1.137261
21
Coordinates from ORCA-job formamide_thymine_opt_freq E -623.741767589392
  O       4.341002      4.740043      1.939104
  N       3.118020      2.792374      2.073931
  C       3.863583      3.702994      1.445058
  H       2.878924      1.900852      1.664778
  H       3.029423      2.895596      3.050655
  H       4.004166      3.433154      0.416594
  O      -2.245396      1.272492      0.253767
  O       2.173177      0.246435      0.946933
  N      -0.046722      0.733163      0.578639
  N       0.793661     -1.346755      0.044334
  C      -1.537264     -0.928416     -0.357209
  C      -1.361103      0.430770      0.160454
  C      -0.456220     -1.742877     -0.388838
  C      -2.906120     -1.332660     -0.813658
  C       1.054325     -0.093217      0.552921
  H      -0.507359     -2.757661     -0.752980
  H       0.101814      1.668769      0.965534
  H       1.587738     -1.973151      0.011056
  H      -3.258403     -0.684195     -1.615638
  H      -3.631268     -1.236796     -0.004765
  H      -2.907433     -2.362296     -1.166580
21
Coordinates from ORCA-job formamide_thymine_opt_freq E -623.723742622044
  O       4.259320      4.694827      1.787855
  N       3.119883      2.790229      2.130939
  C       3.839385      3.709436      1.340728
  H       2.886674      1.882161      1.737292
  H       3.024530      2.888132      3.215059
  H       3.993424      3.466542      0.173762
  O      -2.229538      1.276995      0.322760
  O       2.185377      0.213269      1.019630
  N      -0.031351      0.732566      0.670678
  N       0.799496     -1.350602      0.078622
  C      -1.529239     -0.920626     -0.355344
  C      -1.342004      0.436460      0.221327
  C      -0.453060     -1.738992     -0.394208
  C      -2.899471     -1.316777     -0.868814
  C       1.064850     -0.103470      0.631889
  H      -0.516959     -2.751871     -0.806627
  H       0.107815      1.656523      1.070037
  H       1.590911     -1.977766      0.028639
  H      -3.221147     -0.630073     -1.670808
  H      -3.652548     -1.251442     -0.057042
  H      -2.907805     -2.346898     -1.272284
21
Coordinates from ORCA-job formamide_thymine_opt_freq E -623.744225941255
  O       4.335308      4.732774      1.841439
  N       3.129855      2.802275      2.129791
  C       3.851890      3.700396      1.401707
  H       2.878581      1.892793      1.728623
  H       3.074091      2.933126      3.140112
  H       3.951436      3.414515      0.306979
  O      -2.242048      1.266900      0.284763
  O       2.171008      0.224280      0.979618
  N      -0.049594      0.727664      0.622076
  N       0.792736     -1.345013      0.056190
  C      -1.535511     -0.925904     -0.356550
  C      -1.359865      0.427512      0.189981
  C      -0.454753     -1.739977     -0.395955
  C      -2.901018     -1.325319     -0.841935
  C       1.053465     -0.097443      0.589041
  H      -0.504455     -2.753004     -0.787486
  H       0.091221      1.651057      1.000069
  H       1.584823     -1.971424      0.012033
  H      -3.239297     -0.655131     -1.642451
  H      -3.636604     -1.248220     -0.032516
  H      -2.902727     -2.353238     -1.221440
21
Coordinates from ORCA-job formamide_thymine_opt_freq E -623.725955466250
  O       4.190898      4.798304      1.650415
  N       3.089671      2.728112      2.122931
  C       3.774820      3.706174      1.328539
  H       2.895171      1.782631      1.780294
  H       3.009083      2.876937      3.089301
  H       3.892590      3.430120      0.384141
  O      -2.179914      1.313066      0.319796
  O       2.225276      0.171624      1.063504
  N       0.001256      0.741064      0.663018
  N       0.802705     -1.363159      0.066924
  C      -1.515213     -0.909733     -0.368697
  C      -1.314286      0.451153      0.203484
  C      -0.451010     -1.744238     -0.417498
  C      -2.888273     -1.288121     -0.853621
  C       1.097419     -0.110265      0.635249
  H      -0.515311     -2.764741     -0.825539
  H       0.144371      1.681424      1.066113
  H       1.576227     -2.012495      0.023524
  H      -3.215171     -0.587366     -1.646728
  H      -3.619513     -1.218299     -0.023633
  H      -2.912253     -2.323574     -1.257426
21
Coordinates from ORCA-job formamide_thymine_opt_freq E -623.744212545012
  O       4.248917      4.735364      1.806952
  N       3.105320      2.759684      2.106367
  C       3.791877      3.680622      1.377429
  H       2.893859      1.847159      1.728628
  H       3.036590      2.879048      3.108284
  H       3.899639      3.386737      0.320909
  O      -2.216427      1.290629      0.282349
  O       2.195374      0.221261      1.015375
  N      -0.027077      0.732935      0.619408
  N       0.803891     -1.343548      0.059101
  C      -1.520799     -0.909998     -0.363707
  C      -1.341340      0.441501      0.177030
  C      -0.444398     -1.729415     -0.398780
  C      -2.887992     -1.303120     -0.835294
  C       1.072101     -0.096950      0.593043
  H      -0.495464     -2.740067     -0.777942
  H       0.121491      1.665779      1.019731
  H       1.592904     -1.973564      0.026499
  H      -3.231080     -0.637157     -1.631451
  H      -3.615391     -1.219559     -0.024528
  H      -2.893449     -2.328722     -1.205314
21
Coordinates from ORCA-job formamide_thymine_opt_freq E -623.736218587285
  O       4.378332      4.704438      1.652549
  N       3.130587      2.845518      2.178377
  C       3.863620      3.647396      1.353785
  H       2.873782      1.849131      1.885364
  H       3.177807      3.135430      3.149699
  H       3.904494      3.253875      0.294573
  O      -2.280465      1.233715      0.378087
  O       2.125159      0.225136      0.987575
  N      -0.084428      0.726957      0.702012
  N       0.795515     -1.315117      0.063456
  C      -1.535382     -0.923006     -0.339740
  C      -1.382903      0.417237      0.274085
  C      -0.438912     -1.720766     -0.404150
  C      -2.890422     -1.328134     -0.891638
  C       1.029910     -0.084856      0.628053
  H      -0.468257     -2.725802     -0.858412
  H       0.035613      1.633453      1.060910
  H       1.594517     -1.936219     -0.005492
  H      -3.212581     -0.602136     -1.666914
  H      -3.661335     -1.330139     -0.078155
  H      -2.866108     -2.347490     -1.359935
21
Coordinates from ORCA-job formamide_thymine_opt_freq E -623.744665023104
  O       4.342241      4.732606      1.758099
  N       3.123273      2.831943      2.154948
  C       3.852014      3.677099      1.378352
  H       2.890288      1.886900      1.827254
  H       3.108250      3.030944      3.152655
  H       3.940066      3.326552      0.336751
  O      -2.258388      1.248857      0.310481
  O       2.163797      0.219222      0.984063
  N      -0.058420      0.720118      0.630316
  N       0.794868     -1.340660      0.036605
  C      -1.535602     -0.927012     -0.363813
  C      -1.367393      0.417661      0.199225
  C      -0.449879     -1.734991     -0.416152
  C      -2.900204     -1.321952     -0.848955
  C       1.048989     -0.101337      0.586317
  H      -0.495381     -2.740349     -0.821410
  H       0.076482      1.646036      1.021933
  H       1.588944     -1.965079     -0.009172
  H      -3.245801     -0.650339     -1.638183
  H      -3.631895     -1.256757     -0.040708
  H      -2.897707     -2.340841     -1.234514
21
Coordinates from ORCA-job formamide_thymine_opt_freq E -623.740093678563
  O       4.197442      4.811229      2.053980
  N       3.184050      2.760145      2.072822
  C       3.844839      3.781284      1.492505
  H       3.012282      1.924424      1.574028
  H       3.040220      2.746378      3.038048
  H       4.034992      3.604558      0.396179
  O      -2.193328      1.315946      0.205683
  O       2.225708      0.188807      0.926815
  N      -0.008953      0.743284      0.543068
  N       0.771999     -1.377139      0.081701
  C      -1.554363     -0.935567     -0.347597
  C      -1.338257      0.444684      0.137718
  C      -0.493167     -1.772466     -0.355347
  C      -2.939311     -1.339307     -0.815222
  C       1.084196     -0.102153      0.550487
  H      -0.567303     -2.806520     -0.697942
  H       0.148151      1.700005      0.878549
  H       1.547181     -2.024476      0.074643
  H      -3.266740     -0.652025     -1.625720
  H      -3.673083     -1.258893      0.029340
  H      -2.968009     -2.393577     -1.209648
21
Coordinates from ORCA-job formamide_thymine_opt_freq E -623.744798030354
  O       4.279359      4.776640      1.896968
  N       3.142796      2.793030      2.118099
  C       3.842548      3.733710      1.430180
  H       2.926957      1.898792      1.698600
  H       3.059694      2.890483      3.125581
  H       3.968317      3.470244      0.362516
  O      -2.215964      1.284024      0.249249
  O       2.193233      0.193751      0.954115
  N      -0.028533      0.725740      0.585910
  N       0.783704     -1.365964      0.052167
  C      -1.539972     -0.929295     -0.357989
  C      -1.345593      0.430973      0.163083
  C      -0.469564     -1.754865     -0.389747
  C      -2.912917     -1.321124     -0.823971
  C       1.066861     -0.111314      0.564990
  H      -0.530196     -2.772745     -0.762520
  H       0.119968      1.660560      0.939674
  H       1.566553     -2.004170      0.021238
  H      -3.255365     -0.651239     -1.623106
  H      -3.635402     -1.235554     -0.003794
  H      -2.927939     -2.353059     -1.197154
21
Coordinates from ORCA-job formamide_thymine_opt_freq E -623.741901441724
  O       4.268083      4.653806      1.549432
  N       3.048994      2.781668      2.169522
  C       3.765956      3.576929      1.293004
  H       2.803798      1.807545      1.926285
  H       3.018677      3.050682      3.113742
  H       3.839406      3.144395      0.253924
  O      -2.242063      1.256718      0.388477
  O       2.166312      0.261463      1.060333
  N      -0.045540      0.718351      0.703760
  N       0.831603     -1.308685      0.042345
  C      -1.497694     -0.889973     -0.360428
  C      -1.349199      0.431652      0.249552
  C      -0.403712     -1.689465     -0.430734
  C      -2.851923     -1.276409     -0.865759
  C       1.061941     -0.088002      0.628796
  H      -0.432468     -2.677318     -0.862695
  H       0.096500      1.629172      1.142867
  H       1.633522     -1.920803     -0.021183
  H      -3.204707     -0.581009     -1.629612
  H      -3.586112     -1.246859     -0.064525
  H      -2.832829     -2.275238     -1.283013
21
Coordinates from ORCA-job formamide_thymine_opt_freq E -623.744583438796
  O       4.315542      4.727303      1.776172
  N       3.119437      2.810758      2.128897
  C       3.838844      3.673275      1.370051
  H       2.887696      1.875261      1.786686
  H       3.074853      2.993953      3.123333
  H       3.942571      3.333284      0.326741
  O      -2.248347      1.260717      0.332443
  O       2.166315      0.231128      0.980758
  N      -0.051945      0.721076      0.642918
  N       0.800318     -1.340256      0.052439
  C      -1.531590     -0.920519     -0.357215
  C      -1.362598      0.424239      0.212934
  C      -0.445225     -1.730887     -0.402862
  C      -2.897267     -1.316335     -0.856716
  C       1.053011     -0.100979      0.588491
  H      -0.489692     -2.736359     -0.806904
  H       0.090299      1.650275      1.049544
  H       1.595997     -1.963405      0.005984
  H      -3.237199     -0.639629     -1.644754
  H      -3.642330     -1.260476     -0.050577
  H      -2.890146     -2.333805     -1.254272
21
Coordinates from ORCA-job formamide_thymine_opt_freq E -623.742778706237
  O       4.289137      4.783200      1.869491
  N       3.152906      2.787134      2.137551
  C       3.826160      3.741258      1.436425
  H       2.923131      1.897473      1.720854
  H       3.101575      2.883605      3.155659
  H       3.898262      3.489715      0.352599
  O      -2.206374      1.286801      0.194710
  O       2.205706      0.182053      1.002076
  N      -0.025364      0.724059      0.581628
  N       0.779934     -1.371105      0.046526
  C      -1.540387     -0.930148     -0.372509
  C      -1.342884      0.430691      0.140045
  C      -0.475683     -1.759407     -0.413694
  C      -2.910353     -1.316147     -0.809496
  C       1.074396     -0.111758      0.585088
  H      -0.535089     -2.780839     -0.788001
  H       0.124397      1.650936      0.902834
  H       1.555984     -2.014835      0.022711
  H      -3.266985     -0.629302     -1.595101
  H      -3.609293     -1.232900      0.023639
  H      -2.930633     -2.351864     -1.188945
21
Coordinates from ORCA-job formamide_thymine_opt_freq E -623.744810507606
  O       4.305196      4.765887      1.872757
  N       3.148942      2.802803      2.141162
  C       3.845964      3.726230      1.422761
  H       2.899375      1.907920      1.729304
  H       3.088428      2.924190      3.139029
  H       3.941466      3.453436      0.352545
  O      -2.221684      1.277446      0.254624
  O       2.188512      0.189907      0.955349
  N      -0.032850      0.722860      0.593150
  N       0.785668     -1.365093      0.042855
  C      -1.539198     -0.930928     -0.363008
  C      -1.348262      0.426360      0.164855
  C      -0.466367     -1.754527     -0.398576
  C      -2.911865     -1.321168     -0.826986
  C       1.066374     -0.112931      0.565514
  H      -0.524227     -2.770758     -0.775532
  H       0.111069      1.659175      0.957564
  H       1.568999     -2.003215      0.007814
  H      -3.257214     -0.664922     -1.629346
  H      -3.636094     -1.225065     -0.016594
  H      -2.923689     -2.348985     -1.185150
21
Coordinates from ORCA-job formamide_thymine_opt_freq E -623.743046409814
  O       4.364942      4.662152      1.664298
  N       3.086848      2.810447      2.126403
  C       3.818660      3.619335      1.318531
  H       2.817512      1.874572      1.836032
  H       3.071072      3.028589      3.124755
  H       3.874603      3.240346      0.287900
  O      -2.258667      1.250223      0.378951
  O       2.148115      0.269169      1.041042
  N      -0.064106      0.710817      0.676733
  N       0.813950     -1.319264      0.064276
  C      -1.517599     -0.906009     -0.347432
  C      -1.368871      0.422346      0.246038
  C      -0.422965     -1.704478     -0.402531
  C      -2.874183     -1.305185     -0.877070
  C       1.043360     -0.094063      0.614140
  H      -0.451512     -2.696281     -0.819558
  H       0.083610      1.628207      1.098460
  H       1.617038     -1.929760      0.014327
  H      -3.218520     -0.567356     -1.626738
  H      -3.625685     -1.326330     -0.056987
  H      -2.849057     -2.308856     -1.357479
21
Coordinates from ORCA-job formamide_thymine_opt_freq E -623.744916863577
  O       4.321290      4.740897      1.789240
  N       3.130070      2.809638      2.136151
  C       3.839055      3.691540      1.385036
  H       2.888465      1.885503      1.779661
  H       3.090373      2.975334      3.134466
  H       3.928265      3.371908      0.327532
  O      -2.239870      1.267004      0.302285
  O       2.172710      0.219693      0.996119
  N      -0.046923      0.720033      0.631562
  N       0.794990     -1.349765      0.051338
  C      -1.534471     -0.924631     -0.363624
  C      -1.358887      0.424685      0.196391
  C      -0.453006     -1.739793     -0.408453
  C      -2.901442     -1.317695     -0.849079
  C       1.056523     -0.105415      0.592222
  H      -0.500915     -2.749538     -0.809632
  H       0.097987      1.649361      1.017913
  H       1.586416     -1.977995      0.009177
  H      -3.246521     -0.637138     -1.634083
  H      -3.634609     -1.257292     -0.036359
  H      -2.900957     -2.337714     -1.243774
21
Coordinates from ORCA-job formamide_thymine_opt_freq E -623.744777579911
  O       4.324365      4.743526      1.848852
  N       3.140919      2.800219      2.145206
  C       3.839263      3.710745      1.409058
  H       2.860156      1.915457      1.737960
  H       3.082286      2.926773      3.144156
  H       3.913930      3.429591      0.342315
  O      -2.221333      1.275163      0.258279
  O       2.187035      0.198440      0.959425
  N      -0.033563      0.719636      0.596319
  N       0.790637     -1.360353      0.045715
  C      -1.533751     -0.925950     -0.359354
  C      -1.347761      0.426482      0.168517
  C      -0.459728     -1.747056     -0.395773
  C      -2.903702     -1.316112     -0.827706
  C       1.066459     -0.111782      0.567512
  H      -0.513973     -2.758929     -0.769370
  H       0.111880      1.651527      0.962952
  H       1.575385     -1.995375      0.009973
  H      -3.251669     -0.640239     -1.618696
  H      -3.626648     -1.241490     -0.010432
  H      -2.911642     -2.341654     -1.210816
21
Coordinates from ORCA-job formamide_thymine_opt_freq E -623.744976164446
  O       4.326223      4.747603      1.820857
  N       3.137775      2.809146      2.139983
  C       3.845270      3.704432      1.400647
  H       2.878549      1.902486      1.760150
  H       3.085173      2.955990      3.139333
  H       3.933998      3.401465      0.339055
  O      -2.232861      1.270299      0.285224
  O       2.178947      0.209428      0.975819
  N      -0.041553      0.719824      0.613020
  N       0.791518     -1.356017      0.046741
  C      -1.535929     -0.926820     -0.360850
  C      -1.354799      0.425036      0.184773
  C      -0.457923     -1.744848     -0.402469
  C      -2.905053     -1.319721     -0.839428
  C       1.060063     -0.109178      0.577767
  H      -0.509883     -2.756303     -0.791837
  H       0.103477      1.650883      0.990613
  H       1.579925     -1.987394      0.006369
  H      -3.250038     -0.645150     -1.629820
  H      -3.635949     -1.249878     -0.026184
  H      -2.908387     -2.342663     -1.225673
21
Coordinates from ORCA-job formamide_thymine_opt_freq E -623.744972748208
  O       4.324055      4.744537      1.810948
  N       3.137865      2.809809      2.141548
  C       3.842363      3.700144      1.393706
  H       2.882731      1.897850      1.767609
  H       3.091332      2.963707      3.139893
  H       3.927220      3.391432      0.333824
  O      -2.235391      1.268687      0.286997
  O       2.176401      0.212813      0.982312
  N      -0.043657      0.719458      0.619680
  N       0.792246     -1.354131      0.048528
  C      -1.535793     -0.926191     -0.363318
  C      -1.356597      0.424566      0.186617
  C      -0.456757     -1.743322     -0.405327
  C      -2.903586     -1.318930     -0.842195
  C       1.058479     -0.108144      0.583079
  H      -0.507312     -2.753958     -0.796905
  H       0.101858      1.649351      0.999845
  H       1.581609     -1.984505      0.008255
  H      -3.249359     -0.640518     -1.629926
  H      -3.633622     -1.252854     -0.028355
  H      -2.905541     -2.341181     -1.232724
21
Coordinates from ORCA-job formamide_thymine_opt_freq E -623.744977842991
  O       4.322957      4.747222      1.814134
  N       3.138668      2.808770      2.141337
  C       3.843083      3.702198      1.396930
  H       2.882279      1.899294      1.764883
  H       3.088227      2.959581      3.140182
  H       3.930178      3.395256      0.336481
  O      -2.234167      1.269621      0.286357
  O       2.177782      0.211547      0.978115
  N      -0.042610      0.719616      0.616724
  N       0.791872     -1.355047      0.047833
  C      -1.535858     -0.926341     -0.361847
  C      -1.355771      0.424902      0.185877
  C      -0.457400     -1.743969     -0.403693
  C      -2.904214     -1.319198     -0.840935
  C       1.059275     -0.108568      0.580405
  H      -0.508671     -2.755053     -0.794220
  H       0.103049      1.650020      0.995933
  H       1.580765     -1.985939      0.007054
  H      -3.248975     -0.642907     -1.630564
  H      -3.635031     -1.250544     -0.027921
  H      -2.906894     -2.341840     -1.228974
21
Coordinates from ORCA-job formamide_thymine_opt_freq E -623.744973673006
  O       4.321724      4.749132      1.815428
  N       3.140320      2.808687      2.142167
  C       3.843669      3.703325      1.398220
  H       2.883822      1.899560      1.765224
  H       3.088514      2.959546      3.140871
  H       3.931517      3.396650      0.337712
  O      -2.234008      1.269744      0.286044
  O       2.178218      0.211068      0.976133
  N      -0.042547      0.719579      0.615307
  N       0.791413     -1.355582      0.047141
  C      -1.536198     -0.926592     -0.361418
  C      -1.355718      0.424873      0.185520
  C      -0.457996     -1.744434     -0.403269
  C      -2.904686     -1.319488     -0.840488
  C       1.059379     -0.108888      0.578859
  H      -0.509674     -2.755693     -0.793056
  H       0.103179      1.650095      0.993899
  H       1.580024     -1.986721      0.006261
  H      -3.248785     -0.644289     -1.631178
  H      -3.636057     -1.249470     -0.027936
  H      -2.907566     -2.342482     -1.227352
21
Coordinates from ORCA-job formamide_thymine_opt_freq E -623.744992701108
  O       4.312415      4.757323      1.817242
  N       3.148291      2.805893      2.145350
  C       3.843721      3.706771      1.401586
  H       2.891574      1.898262      1.767085
  H       3.089285      2.957700      3.143542
  H       3.934689      3.400167      0.341203
  O      -2.233331      1.270365      0.284863
  O       2.179724      0.211152      0.967732
  N      -0.042237      0.719240      0.612001
  N       0.790100     -1.357183      0.046490
  C      -1.537391     -0.927242     -0.360196
  C      -1.355617      0.424830      0.184609
  C      -0.460019     -1.745926     -0.401507
  C      -2.906029     -1.319849     -0.839409
  C       1.059811     -0.109655      0.574339
  H      -0.512922     -2.758021     -0.789268
  H       0.104554      1.650141      0.988851
  H       1.578051     -1.988970      0.004722
  H      -3.247027     -0.648106     -1.634366
  H      -3.639179     -1.244046     -0.029081
  H      -2.909919     -2.344224     -1.221698
21
Coordinates from ORCA-job formamide_thymine_opt_freq E -623.745008054524
  O       4.296488      4.768311      1.817245
  N       3.160937      2.801380      2.150763
  C       3.841942      3.710533      1.404126
  H       2.905817      1.893588      1.772143
  H       3.094547      2.957215      3.147787
  H       3.935422      3.403102      0.344192
  O      -2.233199      1.270963      0.282407
  O       2.181203      0.212051      0.958893
  N      -0.042294      0.718995      0.609306
  N       0.788338     -1.359030      0.045528
  C      -1.539015     -0.927967     -0.359066
  C      -1.355896      0.424804      0.183149
  C      -0.462534     -1.747718     -0.399485
  C      -2.907626     -1.319933     -0.838970
  C       1.060049     -0.110176      0.569835
  H      -0.516756     -2.760663     -0.784224
  H       0.105881      1.650367      0.983868
  H       1.575637     -1.991540      0.002857
  H      -3.244334     -0.652137     -1.639138
  H      -3.643242     -1.237141     -0.031341
  H      -2.912821     -2.346384     -1.215783
21
Coordinates from ORCA-job formamide_thymine_opt_freq E -623.745010098628
  O       4.278463      4.778239      1.816939
  N       3.175547      2.794637      2.156025
  C       3.838262      3.713557      1.405513
  H       2.919072      1.887799      1.776323
  H       3.101506      2.954723      3.151721
  H       3.932411      3.406717      0.345646
  O      -2.232496      1.271924      0.279849
  O       2.182232      0.214288      0.950961
  N      -0.042215      0.718483      0.607010
  N       0.787048     -1.360384      0.046904
  C      -1.540494     -0.928613     -0.358852
  C      -1.356043      0.424848      0.181748
  C      -0.464664     -1.749438     -0.397633
  C      -2.908891     -1.319339     -0.839081
  C       1.060244     -0.110306      0.566316
  H      -0.519747     -2.763505     -0.780516
  H       0.107626      1.650544      0.978777
  H       1.574139     -1.993098      0.004216
  H      -3.241707     -0.654981     -1.643990
  H      -3.645830     -1.229453     -0.033890
  H      -2.915919     -2.348025     -1.209897
21
Coordinates from ORCA-job formamide_thymine_opt_freq E -623.745011241623
  O       4.265616      4.783620      1.816485
  N       3.184214      2.789377      2.158842
  C       3.834399      3.714827      1.405866
  H       2.927862      1.882207      1.778776
  H       3.107486      2.951877      3.154098
  H       3.928617      3.408979      0.345754
  O      -2.232219      1.272888      0.275199
  O       2.182512      0.215524      0.948511
  N      -0.041733      0.719022      0.605905
  N       0.786581     -1.361025      0.047399
  C      -1.540981     -0.928743     -0.359537
  C      -1.355910      0.425384      0.179074
  C      -0.465401     -1.750239     -0.396639
  C      -2.909426     -1.318692     -0.839076
  C       1.060398     -0.109777      0.565440
  H      -0.520945     -2.764581     -0.777151
  H       0.108802      1.652020      0.976320
  H       1.573841     -1.993794      0.005288
  H      -3.241152     -0.655341     -1.645496
  H      -3.646070     -1.225970     -0.033822
  H      -2.917947     -2.348945     -1.207147
21
Coordinates from ORCA-job formamide_thymine_opt_freq E -623.745017278002
  O       4.258403      4.784033      1.816402
  N       3.189563      2.784147      2.159991
  C       3.829527      3.714584      1.404526
  H       2.930884      1.878350      1.777821
  H       3.114686      2.946263      3.155395
  H       3.919145      3.411768      0.343399
  O      -2.231195      1.274595      0.272303
  O       2.182197      0.217058      0.950762
  N      -0.041201      0.719786      0.605554
  N       0.786828     -1.360654      0.049739
  C      -1.540528     -0.928207     -0.359320
  C      -1.355511      0.426499      0.177907
  C      -0.464922     -1.750028     -0.395181
  C      -2.909152     -1.317972     -0.839875
  C       1.060407     -0.108695      0.566744
  H      -0.519982     -2.764880     -0.776684
  H       0.109979      1.653311      0.973769
  H       1.574366     -1.993204      0.008328
  H      -3.240279     -0.655670     -1.647177
  H      -3.645861     -1.223605     -0.034851
  H      -2.918809     -2.348858     -1.205464
21
Coordinates from ORCA-job formamide_thymine_opt_freq E -623.745031981047
  O       4.258740      4.783853      1.818784
  N       3.191938      2.782609      2.160845
  C       3.828990      3.715134      1.405858
  H       2.929353      1.878197      1.777558
  H       3.120023      2.943536      3.156639
  H       3.916164      3.415040      0.343700
  O      -2.231062      1.275361      0.268784
  O       2.181170      0.216824      0.952253
  N      -0.041102      0.720624      0.602098
  N       0.786822     -1.360504      0.050281
  C      -1.540515     -0.928471     -0.361158
  C      -1.355473      0.426965      0.174826
  C      -0.464757     -1.750254     -0.395813
  C      -2.909475     -1.318529     -0.839136
  C       1.059974     -0.108263      0.566117
  H      -0.519824     -2.765060     -0.776127
  H       0.109652      1.654944      0.969349
  H       1.574622     -1.992723      0.010921
  H      -3.242903     -0.656080     -1.645354
  H      -3.643950     -1.224664     -0.032167
  H      -2.919844     -2.349920     -1.204165
21
Coordinates from ORCA-job formamide_thymine_opt_freq E -623.745021326552
  O       4.256326      4.784433      1.822236
  N       3.196037      2.779069      2.162282
  C       3.826748      3.716248      1.407848
  H       2.930203      1.876788      1.776581
  H       3.129603      2.936161      3.159151
  H       3.909598      3.420659      0.343964
  O      -2.230577      1.277287      0.261515
  O       2.179898      0.216712      0.954502
  N      -0.040775      0.722812      0.597045
  N       0.786587     -1.360188      0.050903
  C      -1.540267     -0.928255     -0.362314
  C      -1.355244      0.428468      0.170142
  C      -0.464551     -1.750115     -0.395332
  C      -2.909865     -1.319582     -0.837774
  C       1.059436     -0.107187      0.565529
  H      -0.519652     -2.765202     -0.774207
  H       0.109751      1.658200      0.962550
  H       1.574389     -1.992493      0.013500
  H      -3.245495     -0.658428     -1.643939
  H      -3.642616     -1.225095     -0.029114
  H      -2.920989     -2.351671     -1.200978
21
Coordinates from ORCA-job formamide_thymine_opt_freq E -623.745017137105
  O       4.253450      4.785840      1.822006
  N       3.200019      2.776937      2.164634
  C       3.825032      3.716815      1.408718
  H       2.932969      1.875415      1.778444
  H       3.138463      2.931611      3.162209
  H       3.904520      3.422511      0.344140
  O      -2.230871      1.278666      0.257975
  O       2.178611      0.217261      0.955838
  N      -0.041113      0.724681      0.593548
  N       0.786245     -1.359614      0.051115
  C      -1.540268     -0.927909     -0.362876
  C      -1.355506      0.429664      0.167505
  C      -0.464521     -1.749618     -0.395039
  C      -2.910233     -1.320815     -0.837242
  C       1.058666     -0.106295      0.565064
  H      -0.519589     -2.764900     -0.772985
  H       0.109466      1.660275      0.958089
  H       1.573968     -1.992036      0.014654
  H      -3.246759     -0.661420     -1.644387
  H      -3.642773     -1.225287     -0.028331
  H      -2.921232     -2.353161     -1.198991
21
Coordinates from ORCA-job formamide_thymine_opt_freq E -623.745029308069
  O       4.249977      4.787628      1.819860
  N       3.206916      2.774307      2.168665
  C       3.822780      3.717170      1.409023
  H       2.937400      1.873581      1.782714
  H       3.152185      2.927418      3.166831
  H       3.895813      3.423739      0.343732
  O      -2.231939      1.279560      0.252839
  O       2.176627      0.218830      0.957394
  N      -0.042309      0.726757      0.590222
  N       0.785593     -1.358573      0.051602
  C      -1.540601     -0.927573     -0.363632
  C      -1.356403      0.430718      0.164590
  C      -0.464698     -1.748940     -0.394733
  C      -2.910555     -1.322264     -0.837005
  C       1.057368     -0.105042      0.564900
  H      -0.519292     -2.764753     -0.772121
  H       0.108166      1.662508      0.954227
  H       1.573161     -1.991191      0.016120
  H      -3.247666     -0.664829     -1.645610
  H      -3.643104     -1.225444     -0.028228
  H      -2.920873     -2.354986     -1.197301
21
Coordinates from ORCA-job formamide_thymine_opt_freq E -623.745031105515
  O       4.246312      4.788946      1.815659
  N       3.214951      2.771108      2.172884
  C       3.819595      3.717036      1.408050
  H       2.942549      1.871243      1.787325
  H       3.168062      2.922911      3.171645
  H       3.883734      3.424380      0.342002
  O      -2.233338      1.280545      0.249903
  O       2.174475      0.221196      0.959611
  N      -0.043852      0.728774      0.588518
  N       0.784991     -1.357120      0.052908
  C      -1.540978     -0.927225     -0.364868
  C      -1.357541      0.431735      0.162554
  C      -0.464831     -1.748173     -0.394456
  C      -2.910629     -1.323534     -0.838243
  C       1.055923     -0.103358      0.565766
  H      -0.518503     -2.764368     -0.770562
  H       0.106470      1.664406      0.952144
  H       1.572495     -1.989931      0.018941
  H      -3.247766     -0.667681     -1.648272
  H      -3.643613     -1.225759     -0.030003
  H      -2.919963     -2.356512     -1.197415
21
Coordinates from ORCA-job formamide_thymine_opt_freq E -623.745041507156
  O       4.249297      4.788053      1.811333
  N       3.219217      2.771002      2.175556
  C       3.819353      3.716321      1.406567
  H       2.943380      1.871402      1.791696
  H       3.178707      2.922871      3.174550
  H       3.876107      3.423290      0.340228
  O      -2.235650      1.279590      0.248638
  O       2.172292      0.223301      0.962111
  N      -0.045893      0.729564      0.588974
  N       0.784639     -1.355675      0.053411
  C      -1.541423     -0.927311     -0.365647
  C      -1.359050      0.431524      0.162059
  C      -0.464765     -1.747595     -0.394732
  C      -2.910467     -1.324483     -0.839676
  C       1.054414     -0.102144      0.567228
  H      -0.517353     -2.764019     -0.770980
  H       0.103464      1.664907      0.953737
  H       1.572266     -1.988431      0.020247
  H      -3.247755     -0.668475     -1.649698
  H      -3.643845     -1.227857     -0.031728
  H      -2.918391     -2.357214     -1.199783
21
Coordinates from ORCA-job formamide_thymine_opt_freq E -623.745035531373
  O       4.260837      4.783650      1.798487
  N       3.230676      2.770500      2.182057
  C       3.818730      3.713821      1.401679
  H       2.943839      1.872370      1.802603
  H       3.209062      2.921853      3.181672
  H       3.852335      3.420818      0.334392
  O      -2.242444      1.276880      0.247128
  O       2.165869      0.229621      0.970310
  N      -0.052069      0.731688      0.591757
  N       0.783893     -1.351122      0.055460
  C      -1.542486     -0.927636     -0.368140
  C      -1.363608      0.430961      0.161717
  C      -0.464174     -1.745844     -0.395235
  C      -2.909578     -1.327164     -0.845105
  C       1.049908     -0.098104      0.572164
  H      -0.513361     -2.762584     -0.771503
  H       0.094003      1.666205      0.959899
  H       1.572062     -1.983475      0.025360
  H      -3.247214     -0.669990     -1.654235
  H      -3.644316     -1.234856     -0.038076
  H      -2.913420     -2.358969     -1.208301
