21
Coordinates from ORCA-job formamide_thymine_opt_freq E -623.745035531373
  O           4.26083662687056      4.78364966338621      1.79848706997424
  N           3.23067579184152      2.77049986372636      2.18205673475514
  C           3.81873028820834      3.71382119274716      1.40167923186099
  H           2.94383922433339      1.87236976619321      1.80260336817182
  H           3.20906203347003      2.92185270284787      3.18167153921122
  H           3.85233486360109      3.42081752916579      0.33439191273003
  O          -2.24244375369031      1.27687978017444      0.24712847857825
  O           2.16586911278744      0.22962091221224      0.97030960845800
  N          -0.05206942895610      0.73168760993650      0.59175699270823
  N           0.78389256434095     -1.35112178826344      0.05546006286398
  C          -1.54248561441047     -0.92763635409086     -0.36813968047021
  C          -1.36360790351076      0.43096117850862      0.16171674275267
  C          -0.46417428268620     -1.74584367160740     -0.39523503178085
  C          -2.90957791476705     -1.32716372819542     -0.84510515042512
  C           1.04990833723671     -0.09810446321445      0.57216404949781
  H          -0.51336122966083     -2.76258385427676     -0.77150312706296
  H           0.09400330061053      1.66620478879633      0.95989899583759
  H           1.57206231253936     -1.98347543846960      0.02535950919645
  H          -3.24721448346955     -0.66999040771648     -1.65423507686816
  H          -3.64431555961449     -1.23485647684262     -0.03807559085290
  H          -2.91342028507415     -2.35896880501772     -1.20830063913623
