26
Coordinates from ORCA-job methylurea_thymine_opt_freq E -718.373624187060
  O           2.87299602547312      4.56447032900436      2.94669877951875
  N           2.50175460915270      2.34185260079050      2.50578825323104
  N           4.06929829656395      3.58502983311558      1.27251893819536
  C           3.15199948999000      3.56024080440185      2.29412211735928
  H           2.96371183975817      1.46737969975827      2.26866542003492
  H           2.03431760784962      2.33170994636674      3.40373224934841
  H           4.54516137323297      4.47219936841335      1.19805439135006
  C           4.59511464195427      2.44235111444610      0.54127819261194
  H           5.23411921967431      1.79615906306945      1.15982787546778
  H           3.78694443896067      1.83110701846032      0.12892670591152
  H           5.19272041745412      2.81265321776969     -0.29498887497267
  O          -1.40318962470026      1.63639542669163      0.27133148324797
  O           2.56927774490372     -0.43867231615165      1.26822112160569
  N           0.57008455750048      0.58882798611531      0.75292893232444
  N           0.92860547147200     -1.62837447861658      0.20111632217199
  C          -1.18809266319928     -0.65484805488842     -0.37379290459237
  C          -0.73515519011729      0.61268661823586      0.21967068362548
  C          -0.33735869324763     -1.70732278128126     -0.35237450546009
  C          -2.56808700074810     -0.70592359610647     -0.96443412416886
  C           1.43959255585290     -0.48078389094683      0.78072234494756
  H          -0.59721593233771     -2.67574015133470     -0.76752275198697
  H           0.91396494995083      1.45017529547995      1.18608556088796
  H           1.54521808432462     -2.42895679990314      0.20939028336604
  H          -2.67530678116298      0.03136105111788     -1.76754316019784
  H          -3.32291331331189     -0.45845329928640     -0.21017335426710
  H          -2.78732212524339     -1.69881700472143     -1.36813697956032
