26
Coordinates from ORCA-job methylurea_thymine_opt_freq E -718.270466690028
  O       1.664888      3.907639      1.501100
  N       2.385320      1.722497      1.501100
  N       3.916536      3.434416      1.501100
  C       2.581078      3.088020      1.500700
  H       3.165065      1.073542      1.500800
  H       1.452035      1.324666      1.501100
  H       4.208132      4.406017      1.501200
  C       4.976569      2.415971      1.500955
  H       5.238572      2.164100      2.528581
  H       4.621976      1.522544      0.986997
  H       5.855169      2.806095      0.987180
  O      -1.519300      1.806700     -0.000900
  O       2.839400      0.291300     -0.000700
  N       0.664300      1.062300      0.001100
  N       1.114800     -1.231600     -0.000200
  C      -1.161200     -0.543200      0.000200
  C      -0.712900      0.880200      0.000400
  C      -0.226000     -1.501300     -0.000100
  C      -2.630000     -0.818900     -0.000100
  C       1.631000      0.054500      0.000300
  H      -0.478700     -2.555300     -0.000400
  H       1.001400      2.020900      0.001100
  H       1.756400     -2.019100     -0.000900
  H      -3.100400     -0.386000     -0.888900
  H      -3.100600     -0.386200      0.888700
  H      -2.843300     -1.893100     -0.000300
26
Coordinates from ORCA-job methylurea_thymine_opt_freq E -718.298559536655
  O       1.709023      3.872774      1.566786
  N       2.417977      1.705959      1.512056
  N       3.967494      3.466809      1.558094
  C       2.639744      3.062931      1.549024
  H       3.162758      1.038691      1.480106
  H       1.480338      1.329808      1.481858
  H       4.170362      4.455161      1.589990
  C       5.132686      2.568818      1.525984
  H       5.433338      2.302484      2.544674
  H       4.898920      1.663159      0.971990
  H       5.962612      3.075868      1.030365
  O      -1.519556      1.786412     -0.049767
  O       2.797550      0.176058     -0.024972
  N       0.636509      0.981728     -0.030808
  N       1.042733     -1.306617     -0.005194
  C      -1.234739     -0.574142     -0.019184
  C      -0.753530      0.831237     -0.035481
  C      -0.313958     -1.555987     -0.004406
  C      -2.712975     -0.812998     -0.020773
  C       1.584946     -0.035351     -0.020719
  H      -0.586475     -2.606201      0.007228
  H       1.006319      1.931530     -0.036562
  H       1.677266     -2.094704      0.003496
  H      -3.172672     -0.378344     -0.914494
  H      -3.178021     -0.356016      0.858933
  H      -2.948409     -1.882362     -0.008109
26
Coordinates from ORCA-job methylurea_thymine_opt_freq E -718.316808894484
  O       1.748344      3.909953      1.634234
  N       2.456036      1.747364      1.517172
  N       3.997586      3.491788      1.603034
  C       2.677942      3.094092      1.593984
  H       3.192098      1.069817      1.442351
  H       1.518761      1.378400      1.462460
  H       4.173236      4.482702      1.660860
  C       5.167688      2.613786      1.541145
  H       5.491599      2.315257      2.546678
  H       4.943775      1.717603      0.958652
  H       5.986540      3.144255      1.049424
  O      -1.512750      1.771389     -0.090434
  O       2.778420      0.119605     -0.060218
  N       0.624681      0.934982     -0.062573
  N       1.012945     -1.346706     -0.010141
  C      -1.267242     -0.596448     -0.027736
  C      -0.775051      0.797898     -0.064205
  C      -0.351495     -1.589151     -0.001276
  C      -2.749990     -0.819273     -0.023280
  C       1.566440     -0.082198     -0.046083
  H      -0.630678     -2.637620      0.024849
  H       1.011618      1.877850     -0.077083
  H       1.651885     -2.129334      0.004985
  H      -3.209262     -0.389666     -0.919737
  H      -3.210735     -0.343006      0.848504
  H      -2.992150     -1.886632      0.004548
26
Coordinates from ORCA-job methylurea_thymine_opt_freq E -718.335004683439
  O       1.794802      3.928537      1.761819
  N       2.514244      1.778330      1.519838
  N       4.038150      3.534376      1.675381
  C       2.728843      3.119539      1.662900
  H       3.234815      1.092315      1.373421
  H       1.575385      1.419733      1.445229
  H       4.153322      4.529341      1.796488
  C       5.234026      2.715018      1.551051
  H       5.594533      2.350835      2.523725
  H       5.049431      1.853448      0.902377
  H       6.026923      3.308872      1.088091
  O      -1.488907      1.755243     -0.167999
  O       2.748466      0.000885     -0.101944
  N       0.615296      0.856824     -0.109943
  N       0.952129     -1.425681     -0.006305
  C      -1.313954     -0.623777     -0.041278
  C      -0.796977      0.752430     -0.111840
  C      -0.419179     -1.638815      0.010292
  C      -2.803047     -0.813604     -0.032891
  C       1.535048     -0.174720     -0.076240
  H      -0.719489     -2.680058      0.061642
  H       1.030694      1.785537     -0.143612
  H       1.589511     -2.209673      0.023197
  H      -3.254473     -0.391683     -0.937047
  H      -3.255849     -0.301352      0.822586
  H      -3.063504     -1.875193      0.021174
26
Coordinates from ORCA-job methylurea_thymine_opt_freq E -718.348870841261
  O       1.860308      3.970644      1.923332
  N       2.577877      1.836325      1.528235
  N       4.098007      3.590863      1.751601
  C       2.789049      3.172874      1.746540
  H       3.279568      1.148480      1.293474
  H       1.630894      1.498584      1.451139
  H       4.184647      4.577936      1.948157
  C       5.292227      2.795954      1.548937
  H       5.673752      2.346801      2.476717
  H       5.108927      1.992708      0.827540
  H       6.078487      3.428710      1.127074
  O      -1.487388      1.724803     -0.265317
  O       2.713145     -0.113624     -0.135562
  N       0.595833      0.785622     -0.157443
  N       0.888780     -1.502168      0.004459
  C      -1.356980     -0.657104     -0.058386
  C      -0.822234      0.706558     -0.168796
  C      -0.482008     -1.686308      0.024053
  C      -2.849531     -0.825890     -0.049225
  C       1.495918     -0.261929     -0.100833
  H      -0.801822     -2.719704      0.103564
  H       1.025346      1.705583     -0.217339
  H       1.521818     -2.289629      0.051531
  H      -3.292528     -0.420032     -0.965043
  H      -3.297786     -0.277838      0.786434
  H      -3.124066     -1.881510      0.035270
26
Coordinates from ORCA-job methylurea_thymine_opt_freq E -718.356812815291
  O       1.906318      3.971840      2.096801
  N       2.636260      1.876143      1.547693
  N       4.141269      3.643732      1.810973
  C       2.835943      3.205644      1.832167
  H       3.317930      1.202705      1.225569
  H       1.683663      1.552498      1.493738
  H       4.212188      4.615097      2.077607
  C       5.335474      2.878031      1.523024
  H       5.736355      2.350354      2.400529
  H       5.147102      2.140410      0.735490
  H       6.113066      3.548509      1.145282
  O      -1.471234      1.695197     -0.356468
  O       2.687324     -0.227256     -0.139677
  N       0.589962      0.716879     -0.189885
  N       0.834359     -1.573329      0.023296
  C      -1.391319     -0.682112     -0.076831
  C      -0.829155      0.666328     -0.219961
  C      -0.538267     -1.726607      0.036462
  C      -2.887646     -0.823798     -0.074255
  C       1.466626     -0.347496     -0.107502
  H      -0.882377     -2.750548      0.139127
  H       1.031470      1.629035     -0.277219
  H       1.455749     -2.367977      0.089301
  H      -3.316582     -0.431810     -1.002926
  H      -3.331450     -0.243575      0.742056
  H      -3.182786     -1.871189      0.035723
26
Coordinates from ORCA-job methylurea_thymine_opt_freq E -718.361515979877
  O       1.960078      3.971772      2.262410
  N       2.690072      1.917760      1.578569
  N       4.185108      3.694801      1.852182
  C       2.885895      3.237768      1.916473
  H       3.350558      1.263284      1.179642
  H       1.730129      1.608134      1.562921
  H       4.265523      4.649085      2.172657
  C       5.368221      2.944231      1.484514
  H       5.775603      2.345583      2.311965
  H       5.160856      2.274265      0.643238
  H       6.145993      3.636905      1.150801
  O      -1.463931      1.662420     -0.430429
  O       2.662870     -0.318073     -0.120537
  N       0.580285      0.660050     -0.204871
  N       0.788014     -1.630612      0.045042
  C      -1.422653     -0.707547     -0.097471
  C      -0.835782      0.629059     -0.260207
  C      -0.586699     -1.762307      0.043463
  C      -2.920662     -0.827871     -0.110412
  C       1.439273     -0.416663     -0.098563
  H      -0.950189     -2.778109      0.160106
  H       1.025707      1.567351     -0.313338
  H       1.397036     -2.433344      0.128482
  H      -3.332407     -0.447299     -1.051554
  H      -3.365236     -0.225678      0.689430
  H      -3.233421     -1.868261      0.015601
26
Coordinates from ORCA-job methylurea_thymine_opt_freq E -718.364240934675
  O       2.016679      3.956977      2.427066
  N       2.740264      1.947758      1.621554
  N       4.219497      3.742091      1.873568
  C       2.934557      3.258917      1.996486
  H       3.379560      1.319044      1.154972
  H       1.780472      1.641718      1.660504
  H       4.316898      4.679408      2.234549
  C       5.390654      3.008777      1.432962
  H       5.800754      2.347225      2.209651
  H       5.165120      2.406281      0.546176
  H       6.169298      3.719735      1.144174
  O      -1.451456      1.633572     -0.487800
  O       2.640872     -0.397326     -0.080020
  N       0.573296      0.608478     -0.206299
  N       0.745931     -1.680739      0.070186
  C      -1.451005     -0.729940     -0.119700
  C      -0.838689      0.595227     -0.289710
  C      -0.631752     -1.794595      0.046818
  C      -2.949764     -0.827742     -0.156274
  C       1.415902     -0.478582     -0.076332
  H      -1.012544     -2.803355      0.169724
  H       1.024478      1.510816     -0.330301
  H       1.340381     -2.491896      0.170714
  H      -3.340121     -0.453732     -1.109063
  H      -3.398282     -0.209778      0.629204
  H      -3.280758     -1.861633     -0.022696
26
Coordinates from ORCA-job methylurea_thymine_opt_freq E -718.365862362061
  O       2.084163      3.946751      2.581596
  N       2.785937      1.972547      1.679546
  N       4.249245      3.786114      1.875940
  C       2.985489      3.277441      2.074831
  H       3.404780      1.371741      1.154703
  H       1.832236      1.661325      1.780422
  H       4.370735      4.711445      2.259366
  C       5.403617      3.062508      1.373260
  H       5.809887      2.347667      2.102974
  H       5.158193      2.521623      0.452204
  H       6.188278      3.781036      1.123994
  O      -1.444063      1.609676     -0.525334
  O       2.618884     -0.457459     -0.022401
  N       0.563368      0.567303     -0.195935
  N       0.708290     -1.720871      0.095203
  C      -1.476191     -0.750978     -0.144483
  C      -0.844270      0.566447     -0.309698
  C      -0.670802     -1.822729      0.043841
  C      -2.974340     -0.831457     -0.210606
  C       1.393671     -0.527226     -0.043607
  H      -1.063533     -2.827060      0.164761
  H       1.020138      1.465954     -0.323867
  H       1.289276     -2.539740      0.211526
  H      -3.341470     -0.459419     -1.173257
  H      -3.431405     -0.205084      0.563120
  H      -3.319873     -1.860847     -0.077986
26
Coordinates from ORCA-job methylurea_thymine_opt_freq E -718.366868926736
  O       2.165008      3.945923      2.726654
  N       2.826757      1.995773      1.746213
  N       4.275834      3.825980      1.863398
  C       3.037306      3.297960      2.144762
  H       3.423950      1.422250      1.170500
  H       1.887536      1.670598      1.912528
  H       4.424123      4.741694      2.259543
  C       5.410065      3.104630      1.309998
  H       5.803447      2.341144      1.995963
  H       5.147377      2.622578      0.360717
  H       6.207819      3.820418      1.098990
  O      -1.444292      1.589664     -0.548872
  O       2.595224     -0.498472      0.045830
  N       0.548798      0.536211     -0.177253
  N       0.675084     -1.751035      0.120466
  C      -1.499065     -0.770972     -0.170021
  C      -0.855307      0.542854     -0.319046
  C      -0.703682     -1.846777      0.037228
  C      -2.995548     -0.841300     -0.270842
  C       1.371018     -0.562171     -0.003939
  H      -1.102670     -2.849588      0.149819
  H       1.010973      1.432884     -0.298498
  H       1.245711     -2.574827      0.251260
  H      -3.338274     -0.466799     -1.241446
  H      -3.466470     -0.213219      0.493083
  H      -3.350484     -1.868694     -0.146922
26
Coordinates from ORCA-job methylurea_thymine_opt_freq E -718.367557569243
  O       2.256970      3.961470      2.857269
  N       2.863152      2.018193      1.826246
  N       4.299210      3.860510      1.838650
  C       3.091213      3.320412      2.214260
  H       3.436098      1.468589      1.205637
  H       1.944844      1.674061      2.056930
  H       4.474253      4.772611      2.232295
  C       5.409749      3.132813      1.244387
  H       5.787784      2.332457      1.895788
  H       5.129331      2.696503      0.277505
  H       6.223641      3.836953      1.058567
  O      -1.453315      1.574833     -0.553881
  O       2.569878     -0.521503      0.124470
  N       0.530112      0.515050     -0.153055
  N       0.647035     -1.772406      0.141246
  C      -1.518611     -0.789726     -0.198647
  C      -0.870340      0.523894     -0.326618
  C      -0.729351     -1.867062      0.022976
  C      -3.012551     -0.856844     -0.334470
  C       1.347860     -0.583842      0.040486
  H      -1.129724     -2.870765      0.121672
  H       0.995767      1.412350     -0.253299
  H       1.211263     -2.598513      0.284750
  H      -3.332208     -0.477028     -1.310815
  H      -3.500210     -0.231955      0.421517
  H      -3.371609     -1.884350     -0.223754
26
Coordinates from ORCA-job methylurea_thymine_opt_freq E -718.368021104188
  O       2.367883      3.995485      2.978531
  N       2.897007      2.047116      1.911052
  N       4.326597      3.889693      1.806903
  C       3.149336      3.350915      2.275657
  H       3.439357      1.514197      1.250313
  H       2.006488      1.682208      2.207356
  H       4.530102      4.799145      2.193206
  C       5.408784      3.147529      1.177919
  H       5.768129      2.316979      1.801202
  H       5.109074      2.748827      0.200002
  H       6.242505      3.832021      1.007414
  O      -1.476834      1.560163     -0.550906
  O       2.538640     -0.524136      0.209320
  N       0.501485      0.504364     -0.117225
  N       0.622329     -1.784195      0.162653
  C      -1.538538     -0.809464     -0.226213
  C      -0.896554      0.509982     -0.313916
  C      -0.749565     -1.884846      0.005770
  C      -3.027818     -0.883543     -0.406197
  C       1.319892     -0.590989      0.091371
  H      -1.145048     -2.892479      0.081869
  H       0.966402      1.404670     -0.188846
  H       1.186294     -2.608826      0.315014
  H      -3.321744     -0.489898     -1.385152
  H      -3.541048     -0.273337      0.344838
  H      -3.382916     -1.914875     -0.321821
26
Coordinates from ORCA-job methylurea_thymine_opt_freq E -718.368301995395
  O       2.471399      4.039166      3.070543
  N       2.922721      2.074674      1.992026
  N       4.349755      3.908480      1.776355
  C       3.201826      3.379671      2.328638
  H       3.433219      1.546895      1.302207
  H       2.060105      1.693748      2.344010
  H       4.574767      4.819868      2.146373
  C       5.404786      3.149903      1.121293
  H       5.755694      2.305754      1.730662
  H       5.082892      2.766919      0.143850
  H       6.251941      3.816372      0.944923
  O      -1.505647      1.551049     -0.528224
  O       2.508650     -0.514768      0.291908
  N       0.473795      0.500653     -0.086257
  N       0.605368     -1.789640      0.173567
  C      -1.552688     -0.826010     -0.255678
  C      -0.919748      0.498689     -0.316920
  C      -0.761054     -1.898331     -0.018131
  C      -3.037607     -0.909711     -0.467835
  C       1.294463     -0.589259      0.136773
  H      -1.149970     -2.909904      0.037056
  H       0.933946      1.405732     -0.118420
  H       1.172635     -2.610516      0.333617
  H      -3.313536     -0.506872     -1.448292
  H      -3.571427     -0.311275      0.278350
  H      -3.386044     -1.944578     -0.402279
26
Coordinates from ORCA-job methylurea_thymine_opt_freq E -718.368505696108
  O       2.555121      4.081640      3.127919
  N       2.940475      2.099000      2.053683
  N       4.373011      3.916569      1.754550
  C       3.245538      3.403442      2.365858
  H       3.422169      1.563459      1.348689
  H       2.098589      1.712462      2.447184
  H       4.612783      4.831672      2.106338
  C       5.403095      3.142891      1.078415
  H       5.759923      2.299306      1.684980
  H       5.053836      2.756355      0.111918
  H       6.254099      3.797337      0.876513
  O      -1.536843      1.543385     -0.508875
  O       2.482112     -0.494958      0.358137
  N       0.445827      0.505309     -0.050813
  N       0.595290     -1.787318      0.181834
  C      -1.563289     -0.838350     -0.275796
  C      -0.945134      0.494281     -0.298120
  C      -0.765465     -1.906271     -0.038655
  C      -3.042655     -0.935360     -0.520089
  C       1.271904     -0.578886      0.176089
  H      -1.145593     -2.922210     -0.007271
  H       0.897733      1.415081     -0.051855
  H       1.169345     -2.603245      0.343220
  H      -3.302957     -0.517197     -1.498442
  H      -3.598592     -0.356575      0.225468
  H      -3.380080     -1.975113     -0.480763
26
Coordinates from ORCA-job methylurea_thymine_opt_freq E -718.368782330995
  O       2.655951      4.148058      3.176593
  N       2.952694      2.139016      2.120221
  N       4.409854      3.918853      1.732371
  C       3.295267      3.440752      2.397741
  H       3.397632      1.576766      1.410800
  H       2.133092      1.757475      2.562836
  H       4.672345      4.836967      2.060147
  C       5.401013      3.115768      1.034300
  H       5.770320      2.281259      1.645982
  H       5.007600      2.712071      0.092385
  H       6.253423      3.751057      0.782697
  O      -1.589560      1.533260     -0.470836
  O       2.447487     -0.450845      0.438787
  N       0.404946      0.520876     -0.003681
  N       0.591903     -1.774415      0.182491
  C      -1.572968     -0.853617     -0.300551
  C      -0.981223      0.490944     -0.274265
  C      -0.760606     -1.912264     -0.071116
  C      -3.044626     -0.973823     -0.579000
  C       1.243682     -0.552890      0.222078
  H      -1.124447     -2.934639     -0.072620
  H       0.838612      1.438497      0.038084
  H       1.179890     -2.580959      0.341290
  H      -3.292318     -0.536426     -1.552266
  H      -3.627686     -0.424511      0.168172
  H      -3.362038     -2.020522     -0.572528
26
Coordinates from ORCA-job methylurea_thymine_opt_freq E -718.369208019225
  O       2.782568      4.243666      3.216525
  N       2.958615      2.195515      2.207900
  N       4.458157      3.907585      1.703069
  C       3.359395      3.489079      2.433910
  H       3.351967      1.580025      1.510890
  H       2.165324      1.839695      2.715643
  H       4.756777      4.829372      1.987168
  C       5.381417      3.055092      0.973816
  H       5.787785      2.246866      1.597688
  H       4.908893      2.610463      0.088878
  H       6.219238      3.662008      0.622888
  O      -1.665891      1.521043     -0.402418
  O       2.402199     -0.373988      0.555104
  N       0.348993      0.552488      0.074015
  N       0.601653     -1.743393      0.177876
  C      -1.575418     -0.868480     -0.332290
  C      -1.027801      0.491803     -0.231876
  C      -0.737459     -1.910829     -0.121287
  C      -3.033971     -1.023318     -0.657453
  C       1.210234     -0.504657      0.289425
  H      -1.072832     -2.941494     -0.175088
  H       0.750051      1.480279      0.175523
  H       1.211999     -2.535038      0.327492
  H      -3.268664     -0.555762     -1.619930
  H      -3.654733     -0.522675      0.093551
  H      -3.318256     -2.078635     -0.700908
26
Coordinates from ORCA-job methylurea_thymine_opt_freq E -718.369731073949
  O       2.946277      4.355863      3.257351
  N       2.955318      2.268505      2.317228
  N       4.505885      3.877433      1.660478
  C       3.433997      3.544956      2.469928
  H       3.279054      1.582463      1.649102
  H       2.200788      1.963587      2.910519
  H       4.866275      4.793700      1.884264
  C       5.316834      2.953219      0.888544
  H       5.777660      2.174620      1.512952
  H       4.729622      2.467422      0.099552
  H       6.118094      3.512101      0.399759
  O      -1.755765      1.505077     -0.304788
  O       2.349291     -0.268786      0.712683
  N       0.283970      0.596859      0.186983
  N       0.631230     -1.690188      0.175792
  C      -1.561019     -0.877561     -0.369531
  C      -1.076118      0.496776     -0.171280
  C      -0.687412     -1.895174     -0.184163
  C      -2.998510     -1.073739     -0.757826
  C       1.177339     -0.436242      0.384248
  H      -0.979189     -2.932894     -0.309059
  H       0.638628      1.533008      0.362120
  H       1.269646     -2.462060      0.311355
  H      -3.218732     -0.565161     -1.702799
  H      -3.666656     -0.641309     -0.005163
  H      -3.236269     -2.135768     -0.868134
26
Coordinates from ORCA-job methylurea_thymine_opt_freq E -718.370186738170
  O       3.080223      4.422698      3.291212
  N       2.949119      2.316052      2.410136
  N       4.520761      3.841984      1.617946
  C       3.490276      3.573518      2.498328
  H       3.214446      1.579242      1.769730
  H       2.235314      2.065691      3.075443
  H       4.936704      4.745869      1.787267
  C       5.224778      2.866011      0.805550
  H       5.736840      2.102748      1.409089
  H       4.542954      2.362405      0.109674
  H       5.975529      3.386653      0.206749
  O      -1.804171      1.495794     -0.232187
  O       2.314650     -0.198368      0.853692
  N       0.245742      0.627772      0.287016
  N       0.663886     -1.645077      0.187913
  C      -1.533590     -0.874303     -0.397075
  C      -1.096650      0.503651     -0.122871
  C      -0.635816     -1.873218     -0.226214
  C      -2.950773     -1.093212     -0.842322
  C       1.162319     -0.387653      0.472658
  H      -0.891124     -2.912341     -0.406641
  H       0.564765      1.565703      0.512673
  H       1.318547     -2.404585      0.315332
  H      -3.154956     -0.552055     -1.772667
  H      -3.655795     -0.712410     -0.095531
  H      -3.153739     -2.155862     -1.004786
26
Coordinates from ORCA-job methylurea_thymine_opt_freq E -718.370771080158
  O       3.263753      4.479565      3.336807
  N       2.940927      2.366227      2.532273
  N       4.507350      3.787371      1.550839
  C       3.556795      3.593309      2.530207
  H       3.132718      1.580049      1.924808
  H       2.297491      2.193044      3.288165
  H       4.998231      4.663545      1.646327
  C       5.058250      2.755166      0.688578
  H       5.619278      1.989660      1.243890
  H       4.267934      2.259212      0.112986
  H       5.735910      3.227263     -0.026657
  O      -1.835013      1.489811     -0.150864
  O       2.281223     -0.132755      1.040097
  N       0.214767      0.657137      0.419040
  N       0.711381     -1.591842      0.221507
  C      -1.481528     -0.859181     -0.428222
  C      -1.101014      0.514769     -0.063507
  C      -0.560787     -1.838223     -0.266229
  C      -2.868895     -1.092924     -0.952125
  C       1.155483     -0.338884      0.595407
  H      -0.769712     -2.874308     -0.511673
  H       0.494094      1.592975      0.698725
  H       1.378723     -2.341303      0.342344
  H      -3.045830     -0.510924     -1.863117
  H      -3.619353     -0.770943     -0.222192
  H      -3.031935     -2.151110     -1.177300
26
Coordinates from ORCA-job methylurea_thymine_opt_freq E -718.371128363372
  O       3.409267      4.501456      3.368888
  N       2.938741      2.394331      2.626816
  N       4.467750      3.745785      1.491590
  C       3.601703      3.595990      2.552054
  H       3.079666      1.585616      2.036035
  H       2.364439      2.272681      3.446023
  H       5.005852      4.597997      1.529782
  C       4.907432      2.683542      0.600057
  H       5.489895      1.905911      1.114806
  H       4.054250      2.206757      0.104057
  H       5.533662      3.124618     -0.179148
  O      -1.829811      1.493185     -0.108348
  O       2.265993     -0.111831      1.174665
  N       0.207915      0.668332      0.510167
  N       0.744496     -1.564052      0.258821
  C      -1.434616     -0.841648     -0.448149
  C      -1.087285      0.524348     -0.026911
  C      -0.506125     -1.812661     -0.283453
  C      -2.798481     -1.074187     -1.031488
  C       1.158687     -0.318554      0.686879
  H      -0.685907     -2.844217     -0.567818
  H       0.466093      1.600154      0.821269
  H       1.413997     -2.311501      0.379619
  H      -2.948765     -0.464044     -1.928647
  H      -3.579849     -0.785062     -0.320469
  H      -2.938759     -2.126239     -1.296984
26
Coordinates from ORCA-job methylurea_thymine_opt_freq E -718.371422758661
  O       3.583565      4.521282      3.387059
  N       2.939396      2.432244      2.725374
  N       4.414147      3.698961      1.426077
  C       3.651209      3.599033      2.569232
  H       3.020952      1.605054      2.147419
  H       2.453121      2.354578      3.605386
  H       4.997209      4.521880      1.405230
  C       4.735025      2.607450      0.518841
  H       5.321745      1.810282      0.997515
  H       3.826409      2.162172      0.098509
  H       5.316946      3.010171     -0.313717
  O      -1.821367      1.496847     -0.066623
  O       2.252251     -0.094174      1.301946
  N       0.203823      0.676539      0.596727
  N       0.780205     -1.537891      0.294117
  C      -1.382820     -0.821513     -0.467470
  C      -1.070974      0.534033      0.009674
  C      -0.446983     -1.785103     -0.300420
  C      -2.720980     -1.051537     -1.109386
  C       1.163062     -0.300617      0.773272
  H      -0.598026     -2.810057     -0.622826
  H       0.442359      1.601966      0.944248
  H       1.453877     -2.281690      0.414219
  H      -2.845770     -0.411150     -1.989160
  H      -3.532126     -0.796825     -0.418848
  H      -2.836014     -2.095229     -1.416285
26
Coordinates from ORCA-job methylurea_thymine_opt_freq E -718.371546828126
  O       3.619284      4.522007      3.381825
  N       2.931222      2.432222      2.761773
  N       4.359503      3.684393      1.392790
  C       3.644463      3.594256      2.568941
  H       3.006620      1.604568      2.185986
  H       2.480821      2.363040      3.660477
  H       4.946835      4.503987      1.352783
  C       4.664277      2.585115      0.489749
  H       5.253508      1.788964      0.966942
  H       3.750230      2.138592      0.083081
  H       5.238853      2.977873     -0.352588
  O      -1.783163      1.513390     -0.064125
  O       2.272159     -0.125366      1.335012
  N       0.226002      0.675494      0.625918
  N       0.792474     -1.540235      0.312281
  C      -1.357161     -0.806480     -0.467617
  C      -1.043401      0.543586      0.020574
  C      -0.428937     -1.775681     -0.296948
  C      -2.688701     -1.024993     -1.128032
  C       1.181524     -0.307657      0.801721
  H      -0.580085     -2.798185     -0.627072
  H       0.462966      1.598452      0.969743
  H       1.461116     -2.288840      0.430747
  H      -2.798807     -0.374472     -2.002334
  H      -3.506975     -0.772300     -0.445169
  H      -2.804388     -2.065022     -1.446347
26
Coordinates from ORCA-job methylurea_thymine_opt_freq E -718.371641955877
  O       3.737591      4.546238      3.365689
  N       2.921964      2.482470      2.809317
  N       4.343105      3.647989      1.358848
  C       3.679873      3.606382      2.570036
  H       2.947128      1.637537      2.246053
  H       2.529389      2.433785      3.737902
  H       4.959957      4.444246      1.291610
  C       4.576721      2.523012      0.468038
  H       5.156649      1.715953      0.938747
  H       3.634213      2.099218      0.104497
  H       5.132646      2.878677     -0.402751
  O      -1.806847      1.502853     -0.018168
  O       2.261484     -0.090313      1.383620
  N       0.212050      0.683433      0.668304
  N       0.822967     -1.512819      0.303650
  C      -1.331455     -0.796931     -0.480325
  C      -1.049660      0.545247      0.047963
  C      -0.386518     -1.753599     -0.325125
  C      -2.651689     -1.025199     -1.160235
  C       1.180580     -0.284947      0.828881
  H      -0.517454     -2.769144     -0.684330
  H       0.430715      1.600196      1.050756
  H       1.507480     -2.248501      0.411967
  H      -2.766569     -0.352548     -2.017112
  H      -3.481726     -0.808566     -0.479122
  H      -2.742354     -2.057963     -1.508596
26
Coordinates from ORCA-job methylurea_thymine_opt_freq E -718.371738015617
  O       3.656646      4.551837      3.356873
  N       2.909092      2.469957      2.773750
  N       4.355253      3.666727      1.374524
  C       3.649233      3.610591      2.561112
  H       2.961884      1.629970      2.208060
  H       2.484296      2.403072      3.685515
  H       4.952382      4.479669      1.331949
  C       4.649329      2.546480      0.496450
  H       5.233890      1.756099      0.989314
  H       3.731189      2.097200      0.102476
  H       5.225013      2.914963     -0.356021
  O      -1.801411      1.504627     -0.025209
  O       2.275818     -0.110445      1.331838
  N       0.220931      0.677578      0.641747
  N       0.810295     -1.526610      0.286310
  C      -1.349949     -0.802282     -0.471705
  C      -1.049947      0.542365      0.039589
  C      -0.409657     -1.764342     -0.321953
  C      -2.682018     -1.028119     -1.128712
  C       1.184766     -0.296840      0.795804
  H      -0.555714     -2.781523     -0.670616
  H       0.446176      1.596581      1.012014
  H       1.493825     -2.263897      0.389827
  H      -2.806419     -0.363140     -1.990256
  H      -3.499957     -0.800301     -0.436686
  H      -2.784707     -2.063511     -1.465881
26
Coordinates from ORCA-job methylurea_thymine_opt_freq E -718.371826737179
  O       3.589178      4.567047      3.323738
  N       2.873832      2.474587      2.741025
  N       4.356223      3.665022      1.374011
  C       3.613599      3.617498      2.538177
  H       2.946571      1.628428      2.188627
  H       2.432584      2.409025      3.644694
  H       4.947077      4.483261      1.342596
  C       4.687555      2.533863      0.523588
  H       5.281747      1.766049      1.040087
  H       3.784366      2.057467      0.127641
  H       5.266238      2.898563     -0.328563
  O      -1.798101      1.504401      0.003701
  O       2.300442     -0.120075      1.290269
  N       0.232602      0.675354      0.641778
  N       0.818442     -1.525965      0.259202
  C      -1.352408     -0.798906     -0.462195
  C      -1.045028      0.542309      0.053554
  C      -0.409286     -1.761072     -0.332812
  C      -2.693315     -1.021622     -1.101395
  C       1.199951     -0.299463      0.771771
  H      -0.562158     -2.775151     -0.687450
  H       0.455155      1.593594      1.010576
  H       1.507541     -2.260534      0.344437
  H      -2.831687     -0.351026     -1.956361
  H      -3.501563     -0.801261     -0.395697
  H      -2.799319     -2.054686     -1.444888
26
Coordinates from ORCA-job methylurea_thymine_opt_freq E -718.371930267943
  O       3.513593      4.589007      3.273975
  N       2.821430      2.487605      2.699242
  N       4.351476      3.659164      1.366469
  C       3.568711      3.627876      2.503807
  H       2.920357      1.631429      2.169463
  H       2.366769      2.430394      3.596628
  H       4.941497      4.478449      1.345763
  C       4.723188      2.510481      0.556455
  H       5.324050      1.771146      1.105740
  H       3.837057      2.003557      0.160843
  H       5.308006      2.863585     -0.296527
  O      -1.792376      1.501814      0.056441
  O       2.333034     -0.131637      1.243860
  N       0.249508      0.668859      0.650620
  N       0.833031     -1.524520      0.223849
  C      -1.350702     -0.792981     -0.450910
  C      -1.036391      0.540793      0.079026
  C      -0.403230     -1.754747     -0.351457
  C      -2.701519     -1.008950     -1.070670
  C       1.221772     -0.304463      0.746454
  H      -0.561837     -2.763307     -0.719019
  H       0.469624      1.584372      1.027108
  H       1.528853     -2.255384      0.282333
  H      -2.856712     -0.325874     -1.912673
  H      -3.498474     -0.803113     -0.347937
  H      -2.810474     -2.036846     -1.428769
26
Coordinates from ORCA-job methylurea_thymine_opt_freq E -718.372084548265
  O       3.419379      4.613673      3.206504
  N       2.746313      2.504997      2.640434
  N       4.340959      3.648896      1.355516
  C       3.509125      3.638836      2.456488
  H       2.883525      1.634385      2.145676
  H       2.275934      2.463552      3.530948
  H       4.935802      4.465073      1.349470
  C       4.757645      2.479769      0.596302
  H       5.359792      1.773430      1.186117
  H       3.891812      1.940983      0.199292
  H       5.354702      2.816179     -0.255060
  O      -1.777561      1.498911      0.130833
  O       2.376704     -0.147903      1.189503
  N       0.277222      0.658166      0.664091
  N       0.854060     -1.524072      0.180260
  C      -1.343918     -0.783642     -0.435532
  C      -1.019967      0.538868      0.115680
  C      -0.392763     -1.745553     -0.375500
  C      -2.706949     -0.988090     -1.031522
  C       1.253540     -0.313562      0.716842
  H      -0.558091     -2.746420     -0.760612
  H       0.499999      1.568243      1.053289
  H       1.555093     -2.251930      0.204058
  H      -2.881400     -0.287124     -1.854755
  H      -3.489233     -0.800874     -0.287988
  H      -2.821483     -2.008084     -1.410223
26
Coordinates from ORCA-job methylurea_thymine_opt_freq E -718.372309630710
  O       3.302614      4.632840      3.127173
  N       2.651323      2.518242      2.561224
  N       4.322365      3.636403      1.345821
  C       3.433256      3.645585      2.399277
  H       2.844675      1.631870      2.117019
  H       2.161385      2.494386      3.442772
  H       4.924423      4.447265      1.362225
  C       4.789709      2.450002      0.641671
  H       5.383943      1.777042      1.276785
  H       3.949064      1.881379      0.233957
  H       5.409403      2.770592     -0.199623
  O      -1.746112      1.499707      0.213892
  O       2.431328     -0.172740      1.126269
  N       0.320511      0.645515      0.672295
  N       0.878357     -1.527588      0.132922
  C      -1.332030     -0.770529     -0.415207
  C      -0.991320      0.539056      0.155958
  C      -0.381723     -1.735336     -0.398651
  C      -2.710106     -0.958290     -0.981117
  C       1.295832     -0.328307      0.680917
  H      -0.557700     -2.728024     -0.799806
  H       0.555618      1.548115      1.072533
  H       1.579051     -2.256014      0.119414
  H      -2.903632     -0.238763     -1.783766
  H      -3.473232     -0.786295     -0.214346
  H      -2.836760     -1.969406     -1.379495
26
Coordinates from ORCA-job methylurea_thymine_opt_freq E -718.372609902986
  O       3.194537      4.641962      3.056041
  N       2.560194      2.523500      2.482982
  N       4.296811      3.623760      1.337888
  C       3.360088      3.646253      2.347237
  H       2.820357      1.622600      2.105724
  H       2.054351      2.514638      3.355726
  H       4.907223      4.427714      1.375873
  C       4.804698      2.427945      0.674761
  H       5.381301      1.776126      1.347024
  H       3.987405      1.842186      0.245656
  H       5.453604      2.739494     -0.147635
  O      -1.706115      1.503971      0.287830
  O       2.481556     -0.202824      1.081115
  N       0.368310      0.634150      0.675332
  N       0.900780     -1.534588      0.096385
  C      -1.315876     -0.755537     -0.395934
  C      -0.957088      0.541983      0.191803
  C      -0.371100     -1.725575     -0.415188
  C      -2.706844     -0.924556     -0.936030
  C       1.337672     -0.346417      0.653249
  H      -0.557209     -2.711443     -0.828407
  H       0.625276      1.527889      1.085302
  H       1.593855     -2.269081      0.054589
  H      -2.912237     -0.189191     -1.721226
  H      -3.452632     -0.760616     -0.150651
  H      -2.848678     -1.927634     -1.349336
26
Coordinates from ORCA-job methylurea_thymine_opt_freq E -718.372923959492
  O       3.125403      4.632433      3.028405
  N       2.516543      2.503135      2.455050
  N       4.259913      3.617735      1.330608
  C       3.311747      3.635619      2.327877
  H       2.844526      1.594407      2.147410
  H       2.007770      2.498701      3.326598
  H       4.870365      4.421558      1.367444
  C       4.782748      2.430196      0.661054
  H       5.348398      1.773750      1.338009
  H       3.976865      1.847749      0.206761
  H       5.448856      2.752862     -0.142852
  O      -1.660384      1.520378      0.310544
  O       2.503933     -0.242824      1.099533
  N       0.408655      0.626381      0.675142
  N       0.910729     -1.551012      0.100791
  C      -1.296458     -0.739918     -0.387624
  C      -0.921762      0.551585      0.205271
  C      -0.365371     -1.722035     -0.410846
  C      -2.690994     -0.888131     -0.925858
  C       1.363165     -0.370765      0.661402
  H      -0.558752     -2.706089     -0.825200
  H       0.696451      1.511520      1.087164
  H       1.585250     -2.302473      0.061627
  H      -2.885808     -0.147845     -1.709308
  H      -3.432508     -0.711815     -0.139122
  H      -2.849039     -1.888396     -1.339765
26
Coordinates from ORCA-job methylurea_thymine_opt_freq E -718.373133793340
  O       3.041095      4.618481      2.995735
  N       2.488487      2.467817      2.432198
  N       4.223898      3.611643      1.327168
  C       3.260481      3.620101      2.309253
  H       2.861365      1.559903      2.167656
  H       1.967175      2.459863      3.298046
  H       4.815590      4.429565      1.360486
  C       4.766413      2.433995      0.657414
  H       5.338789      1.783913      1.334836
  H       3.970942      1.841364      0.198431
  H       5.431785      2.768563     -0.142166
  O      -1.603465      1.547100      0.307575
  O       2.533557     -0.282849      1.097217
  N       0.452921      0.622083      0.672127
  N       0.917767     -1.566661      0.105288
  C      -1.277452     -0.721992     -0.377484
  C      -0.879406      0.566754      0.207717
  C      -0.363163     -1.719114     -0.399369
  C      -2.676270     -0.851398     -0.909667
  C       1.389952     -0.391219      0.660810
  H      -0.573990     -2.701901     -0.808371
  H       0.761515      1.503576      1.079366
  H       1.577807     -2.331012      0.070606
  H      -2.861622     -0.112986     -1.697271
  H      -3.411406     -0.657370     -0.121126
  H      -2.852525     -1.851512     -1.316364
26
Coordinates from ORCA-job methylurea_thymine_opt_freq E -718.373410523938
  O       2.976571      4.570554      3.016213
  N       2.513300      2.377709      2.503983
  N       4.118237      3.598734      1.300545
  C       3.208987      3.576607      2.333019
  H       2.950553      1.487966      2.258356
  H       2.017483      2.355689      3.388589
  H       4.655623      4.453524      1.279799
  C       4.631549      2.453301      0.563974
  H       5.248853      1.786232      1.182924
  H       3.817022      1.865184      0.132563
  H       5.248433      2.821940     -0.259070
  O      -1.467064      1.618177      0.224131
  O       2.552889     -0.375879      1.209055
  N       0.531939      0.613351      0.695137
  N       0.920659     -1.607517      0.183042
  C      -1.220400     -0.680946     -0.379575
  C      -0.782019      0.605855      0.183944
  C      -0.351715     -1.716958     -0.350468
  C      -2.607356     -0.767817     -0.950720
  C       1.420397     -0.440120      0.734191
  H      -0.595710     -2.698812     -0.743449
  H       0.875148      1.487881      1.093660
  H       1.543619     -2.402824      0.199013
  H      -2.736038     -0.046269     -1.765022
  H      -3.355249     -0.517717     -0.190473
  H      -2.815469     -1.771138     -1.333248
26
Coordinates from ORCA-job methylurea_thymine_opt_freq E -718.373505504994
  O       2.869577      4.560748      2.952965
  N       2.466394      2.353073      2.458854
  N       4.088261      3.588561      1.290660
  C       3.145720      3.562824      2.291581
  H       2.926119      1.468621      2.248365
  H       1.958196      2.339652      3.335936
  H       4.600978      4.458461      1.271775
  C       4.639066      2.443400      0.582242
  H       5.269773      1.805004      1.217856
  H       3.843076      1.824387      0.159524
  H       5.250494      2.812378     -0.244836
  O      -1.412854      1.636409      0.249958
  O       2.593234     -0.408788      1.179784
  N       0.574891      0.603270      0.705008
  N       0.932753     -1.617459      0.171337
  C      -1.202866     -0.662980     -0.364118
  C      -0.741605      0.615039      0.200007
  C      -0.346154     -1.710288     -0.348999
  C      -2.596278     -0.730056     -0.921206
  C       1.451774     -0.458758      0.722859
  H      -0.609888     -2.685692     -0.745174
  H       0.927055      1.474136      1.110274
  H       1.551819     -2.416008      0.175144
  H      -2.725869     -0.003769     -1.731039
  H      -3.333866     -0.476264     -0.152131
  H      -2.819557     -1.729193     -1.306515
26
Coordinates from ORCA-job methylurea_thymine_opt_freq E -718.373573587055
  O       2.908700      4.563427      2.979648
  N       2.501293      2.360187      2.482055
  N       4.107472      3.600763      1.296321
  C       3.177073      3.568721      2.308076
  H       2.939140      1.478775      2.233320
  H       2.004857      2.344127      3.364125
  H       4.612980      4.474665      1.270138
  C       4.648174      2.456858      0.577922
  H       5.283637      1.814757      1.204833
  H       3.845955      1.840604      0.162154
  H       5.251225      2.826445     -0.254954
  O      -1.433837      1.627934      0.233489
  O       2.570777     -0.400157      1.193071
  N       0.551189      0.599450      0.707171
  N       0.919042     -1.621409      0.180193
  C      -1.215371     -0.673420     -0.372957
  C      -0.760969      0.607013      0.190311
  C      -0.355952     -1.719299     -0.348816
  C      -2.604410     -0.744572     -0.939610
  C       1.431091     -0.460349      0.731617
  H      -0.616983     -2.695573     -0.744316
  H       0.893519      1.472245      1.119219
  H       1.543193     -2.416145      0.190263
  H      -2.730774     -0.021465     -1.752682
  H      -3.348658     -0.491323     -0.176792
  H      -2.822124     -1.745555     -1.323687
26
Coordinates from ORCA-job methylurea_thymine_opt_freq E -718.373593532228
  O       2.909543      4.558240      2.981406
  N       2.497717      2.351729      2.500595
  N       4.082659      3.590687      1.283503
  C       3.169374      3.561170      2.310126
  H       2.945880      1.471942      2.258974
  H       2.019201      2.343388      3.393066
  H       4.584689      4.465773      1.240985
  C       4.607291      2.447234      0.552264
  H       5.249837      1.801283      1.167802
  H       3.796785      1.835119      0.146503
  H       5.199576      2.816546     -0.288317
  O      -1.413201      1.636721      0.238655
  O       2.573406     -0.413112      1.229043
  N       0.563906      0.598459      0.724586
  N       0.926802     -1.622989      0.194006
  C      -1.198395     -0.663476     -0.374344
  C      -0.744115      0.613230      0.197743
  C      -0.343931     -1.713025     -0.346675
  C      -2.582763     -0.726424     -0.953481
  C       1.438686     -0.466459      0.754666
  H      -0.604728     -2.687138     -0.747634
  H       0.909097      1.466442      1.142665
  H       1.545696     -2.421728      0.208370
  H      -2.698458      0.000043     -1.765189
  H      -3.332546     -0.471795     -0.196566
  H      -2.801769     -1.725154     -1.342639
26
Coordinates from ORCA-job methylurea_thymine_opt_freq E -718.373603583925
  O       2.882278      4.554031      2.968728
  N       2.495601      2.340846      2.496892
  N       4.073800      3.590961      1.281592
  C       3.155698      3.556889      2.302785
  H       2.956812      1.464924      2.262007
  H       2.016759      2.330402      3.388944
  H       4.564079      4.472177      1.232004
  C       4.607256      2.450893      0.551295
  H       5.251221      1.809304      1.169728
  H       3.801993      1.834192      0.142062
  H       5.200830      2.823335     -0.286922
  O      -1.400217      1.641561      0.241393
  O       2.576765     -0.425880      1.233945
  N       0.573181      0.595375      0.725508
  N       0.925474     -1.628777      0.197236
  C      -1.194646     -0.659372     -0.372512
  C      -0.735083      0.615477      0.199837
  C      -0.345303     -1.712881     -0.344191
  C      -2.579130     -0.715924     -0.952025
  C       1.442524     -0.474650      0.757713
  H      -0.610494     -2.685961     -0.744773
  H       0.922567      1.460780      1.146722
  H       1.540414     -2.430560      0.212627
  H      -2.691177      0.010503     -1.764297
  H      -3.328000     -0.457078     -0.195641
  H      -2.802965     -1.713859     -1.340546
26
Coordinates from ORCA-job methylurea_thymine_opt_freq E -718.373607108639
  O       2.871942      4.556057      2.958150
  N       2.493803      2.339009      2.497530
  N       4.069298      3.588538      1.278001
  C       3.150047      3.556433      2.297682
  H       2.958749      1.464972      2.263073
  H       2.019443      2.328410      3.392143
  H       4.552703      4.472987      1.220001
  C       4.605069      2.447654      0.550512
  H       5.250083      1.809695      1.171516
  H       3.801492      1.828187      0.142149
  H       5.198466      2.818781     -0.288385
  O      -1.397864      1.641569      0.251228
  O       2.577341     -0.430680      1.240113
  N       0.575853      0.593910      0.730959
  N       0.926741     -1.629413      0.197435
  C      -1.191730     -0.656820     -0.372133
  C      -0.732551      0.615789      0.205666
  C      -0.343147     -1.710877     -0.346259
  C      -2.575599     -0.710702     -0.953370
  C       1.443885     -0.477436      0.761869
  H      -0.608588     -2.682443     -0.750349
  H       0.924255      1.456871      1.158169
  H       1.541919     -2.431074      0.210297
  H      -2.686511      0.018584     -1.763253
  H      -3.325281     -0.454139     -0.197014
  H      -2.799578     -1.707157     -1.345619
26
Coordinates from ORCA-job methylurea_thymine_opt_freq E -718.373606394463
  O       2.865844      4.559081      2.950129
  N       2.495677      2.338759      2.498166
  N       4.069664      3.587691      1.276955
  C       3.148168      3.557527      2.294347
  H       2.961213      1.465787      2.261391
  H       2.023483      2.326632      3.393832
  H       4.547539      4.474610      1.212272
  C       4.607254      2.446425      0.551448
  H       5.251991      1.810054      1.174331
  H       3.805050      1.825809      0.141982
  H       5.201668      2.817335     -0.286834
  O      -1.400343      1.639645      0.258898
  O       2.575415     -0.433136      1.244939
  N       0.574722      0.592822      0.734979
  N       0.926461     -1.629350      0.197261
  C      -1.191712     -0.656265     -0.372268
  C      -0.733867      0.614825      0.210012
  C      -0.342692     -1.709943     -0.348390
  C      -2.575062     -0.709251     -0.954863
  C       1.442647     -0.478594      0.765042
  H      -0.607186     -2.680572     -0.755372
  H       0.921181      1.454624      1.165616
  H       1.542610     -2.430282      0.207581
  H      -2.685708      0.022394     -1.762663
  H      -3.325534     -0.455291     -0.198410
  H      -2.798241     -1.704627     -1.350268
26
Coordinates from ORCA-job methylurea_thymine_opt_freq E -718.373624184723
  O       2.858554      4.564503      2.937007
  N       2.496791      2.339512      2.499888
  N       4.068452      3.584562      1.273214
  C       3.145131      3.559310      2.288889
  H       2.962768      1.467161      2.262485
  H       2.028957      2.327505      3.397661
  H       4.539577      4.474159      1.197453
  C       4.605665      2.441624      0.550265
  H       5.249653      1.806211      1.174801
  H       3.803771      1.820610      0.140548
  H       5.201099      2.811221     -0.287886
  O      -1.403789      1.636378      0.274772
  O       2.573006     -0.437123      1.256429
  N       0.573183      0.590689      0.745570
  N       0.928135     -1.628231      0.197160
  C      -1.189681     -0.654367     -0.372417
  C      -0.734994      0.613439      0.219482
  C      -0.339346     -1.707061     -0.352894
  C      -2.571631     -0.705538     -0.958496
  C       1.441631     -0.480110      0.772947
  H      -0.601213     -2.675614     -0.766477
  H       0.916893      1.450673      1.181427
  H       1.545741     -2.428083      0.202959
  H      -2.681478      0.031402     -1.761593
  H      -3.324084     -0.457600     -0.202012
  H      -2.792550     -1.698524     -1.361071
26
Coordinates from ORCA-job methylurea_thymine_opt_freq E -718.373625843435
  O       2.864710      4.564144      2.941728
  N       2.498926      2.340265      2.502380
  N       4.068934      3.584881      1.273313
  C       3.148078      3.559524      2.291446
  H       2.963061      1.467165      2.264359
  H       2.031266      2.328704      3.400237
  H       4.542099      4.473492      1.198663
  C       4.602283      2.442218      0.547253
  H       5.245292      1.803348      1.169276
  H       3.798211      1.824196      0.137188
  H       5.197699      2.812330     -0.290683
  O      -1.403859      1.636498      0.272148
  O       2.571586     -0.436952      1.259714
  N       0.571918      0.590463      0.747041
  N       0.928041     -1.628186      0.198756
  C      -1.189467     -0.654773     -0.373036
  C      -0.735320      0.613278      0.218625
  C      -0.338996     -1.707391     -0.352305
  C      -2.570793     -0.706250     -0.960558
  C       1.440728     -0.479891      0.775084
  H      -0.600197     -2.676139     -0.765841
  H       0.915669      1.451141      1.181457
  H       1.545319     -2.428266      0.205794
  H      -2.679780      0.030359     -1.764066
  H      -3.323998     -0.458023     -0.204921
  H      -2.791168     -1.699431     -1.362937
26
Coordinates from ORCA-job methylurea_thymine_opt_freq E -718.373624187060
  O       2.872996      4.564470      2.946699
  N       2.501755      2.341853      2.505788
  N       4.069298      3.585030      1.272519
  C       3.151999      3.560241      2.294122
  H       2.963712      1.467380      2.268665
  H       2.034318      2.331710      3.403732
  H       4.545161      4.472199      1.198054
  C       4.595115      2.442351      0.541278
  H       5.234119      1.796159      1.159828
  H       3.786944      1.831107      0.128927
  H       5.192720      2.812653     -0.294989
  O      -1.403190      1.636395      0.271331
  O       2.569278     -0.438672      1.268221
  N       0.570085      0.588828      0.752929
  N       0.928605     -1.628374      0.201116
  C      -1.188093     -0.654848     -0.373793
  C      -0.735155      0.612687      0.219671
  C      -0.337359     -1.707323     -0.352375
  C      -2.568087     -0.705924     -0.964434
  C       1.439593     -0.480784      0.780722
  H      -0.597216     -2.675740     -0.767523
  H       0.913965      1.450175      1.186086
  H       1.545218     -2.428957      0.209390
  H      -2.675307      0.031361     -1.767543
  H      -3.322913     -0.458453     -0.210173
  H      -2.787322     -1.698817     -1.368137
