33
Coordinates from ORCA-job phenylurea_thymine_opt_freq E -910.013336167202
  N           3.16107618438980     -0.04512204307388      0.61120741178030
  C           2.55280255280140      0.37740165418366      1.75180669039046
  O           1.32643759557796      0.55065936903774      1.83950740863016
  N           3.33646323759014      0.61860556859508      2.86939301765518
  C           4.70791379429577      0.38033761347894      3.11401663023781
  C           5.37895152036359     -0.75077115766708      2.61968494306152
  C           6.72481862366639     -0.95847935920179      2.93537131166255
  C           7.41309152824392     -0.06308996082716      3.75839750539616
  C           6.74063708916515      1.05386400700960      4.26494535133787
  C           5.40335987953143      1.28135736911738      3.93927492331225
  H           2.56873644211377     -0.08273918607147     -0.22082903099743
  H           4.15536751188038      0.07415783762026      0.48750145799505
  H           2.79877884257804      1.04749162167717      3.61088860093911
  H           4.84789302710178     -1.48111015000651      2.01860450470309
  H           7.22895355543968     -1.83951306258145      2.54762379903030
  H           8.45602420041548     -0.23593820828060      4.00674847830654
  H           7.26035003620092      1.75914356820777      4.90769847089161
  H           4.88827557704644      2.15987228401837      4.31954941943726
  O          -2.38271759921748      0.72287977296826      1.11134696188717
  O           1.22969478819564     -0.12480530027685     -1.60266363947098
  N          -0.58396784060673      0.30355559418420     -0.24079558369111
  N          -0.86935855860273     -0.12697266175310     -2.50013046807743
  C          -2.82767340218997      0.29816617035884     -1.19143834709091
  C          -1.96309948299963      0.46481668901342     -0.00992504682988
  C          -2.23960174361132      0.01079261751667     -2.37491075792616
  C          -4.30990601177992      0.45700663331605     -1.01130876085673
  C           0.01221991095027      0.01190255742591     -1.44180693683055
  H          -2.80368856357933     -0.12854454506736     -3.29169800794578
  H           0.05573892293134      0.40895917036345      0.56932815142442
  H          -0.44214963049720     -0.34791065729579     -3.38855763667716
  H          -4.54962696505952      1.45290231371816     -0.62284142414694
  H          -4.69238704658821     -0.26287392138376     -0.27942328983075
  H          -4.83950297574751      0.31155580167580     -1.95782610770715
