33
Coordinates from ORCA-job phenylurea_thymine_opt_freq E -909.483839807947
  N       3.891830      3.471752      1.495758
  C       2.608170      3.062308      1.518020
  O       1.698369      3.885812      1.494467
  N       2.349453      1.732700      1.495756
  C       3.160085      0.603106      1.712665
  C       2.618299     -0.641474      1.364854
  C       3.349476     -1.817564      1.551081
  C       4.625659     -1.762578      2.103502
  C       5.163079     -0.533883      2.478955
  C       4.431139      0.643495      2.290257
  H       3.982017      4.472796      1.376787
  H       4.509711      2.927661      0.910021
  H       1.368353      1.555440      1.317547
  H       1.624217     -0.711447      0.929878
  H       2.920267     -2.774931      1.266796
  H       5.195052     -2.676099      2.254403
  H       6.148807     -0.490016      2.935705
  H       4.865022      1.569280      2.652988
  O      -1.519300      1.806700     -0.000900
  O       2.839400      0.291300     -0.000700
  N       0.664300      1.062300      0.001100
  N       1.114800     -1.231600     -0.000200
  C      -1.161200     -0.543200      0.000200
  C      -0.712900      0.880200      0.000400
  C      -0.226000     -1.501300     -0.000100
  C      -2.630000     -0.818900     -0.000100
  C       1.631000      0.054500      0.000300
  H      -0.478700     -2.555300     -0.000400
  H       1.001400      2.020900      0.001100
  H       1.756400     -2.019100     -0.000900
  H      -3.100400     -0.386000     -0.888900
  H      -3.100600     -0.386200      0.888700
  H      -2.843300     -1.893100     -0.000300
33
Coordinates from ORCA-job phenylurea_thymine_opt_freq E -909.563137071326
  N       3.890113      3.517844      1.510743
  C       2.601896      3.075758      1.529592
  O       1.659647      3.871657      1.497843
  N       2.369100      1.735943      1.513307
  C       3.191401      0.604174      1.728056
  C       2.648414     -0.659794      1.382755
  C       3.384938     -1.829989      1.580399
  C       4.671741     -1.760429      2.128487
  C       5.202766     -0.527667      2.492618
  C       4.460890      0.652187      2.300830
  H       3.955986      4.519763      1.385956
  H       4.530383      2.985840      0.935620
  H       1.393125      1.530225      1.330371
  H       1.631587     -0.734597      0.936573
  H       2.961238     -2.794221      1.304950
  H       5.247824     -2.669132      2.282975
  H       6.189642     -0.475725      2.944697
  H       4.888739      1.582868      2.656600
  O      -1.502768      1.812998      0.000343
  O       2.840404      0.271471     -0.043933
  N       0.665332      1.037248     -0.020285
  N       1.078021     -1.273663     -0.039209
  C      -1.194912     -0.545024     -0.013939
  C      -0.722947      0.867847     -0.008896
  C      -0.272747     -1.525128     -0.030337
  C      -2.670687     -0.792270     -0.001799
  C       1.626083      0.033951     -0.032364
  H      -0.541873     -2.575631     -0.033892
  H       1.021884      1.990381     -0.021519
  H       1.709562     -2.066354     -0.051598
  H      -3.142495     -0.343878     -0.882239
  H      -3.126572     -0.356476      0.893266
  H      -2.901811     -1.862619     -0.007229
33
Coordinates from ORCA-job phenylurea_thymine_opt_freq E -909.627306675846
  N       3.891763      3.543469      1.527262
  C       2.598849      3.082951      1.539307
  O       1.635907      3.858243      1.499019
  N       2.383969      1.736613      1.527511
  C       3.214473      0.605751      1.741085
  C       2.672331     -0.672817      1.399285
  C       3.411819     -1.835265      1.607650
  C       4.707592     -1.754093      2.151193
  C       5.232242     -0.518819      2.504536
  C       4.480867      0.661379      2.309734
  H       3.942855      4.545463      1.397367
  H       4.548832      3.018254      0.963644
  H       1.413780      1.509459      1.339815
  H       1.644605     -0.750892      0.945496
  H       2.992902     -2.804776      1.340570
  H       5.288786     -2.658946      2.308928
  H       6.220032     -0.458297      2.952634
  H       4.901874      1.597732      2.658434
  O      -1.489431      1.818068      0.004374
  O       2.831743      0.258083     -0.094521
  N       0.663410      1.015897     -0.042840
  N       1.049034     -1.304663     -0.077142
  C      -1.221794     -0.545724     -0.025391
  C      -0.735035      0.856738     -0.016669
  C      -0.308797     -1.541356     -0.058207
  C      -2.702411     -0.772681      0.000902
  C       1.619797      0.019609     -0.068773
  H      -0.589623     -2.589157     -0.064672
  H       1.036587      1.964323     -0.044793
  H       1.675708     -2.098964     -0.099665
  H      -3.178792     -0.311672     -0.870606
  H      -3.145098     -0.336013      0.902222
  H      -2.944872     -1.840339     -0.008947
33
Coordinates from ORCA-job phenylurea_thymine_opt_freq E -909.704402477153
  N       3.897146      3.560771      1.550356
  C       2.599706      3.086496      1.550506
  O       1.620993      3.842051      1.497868
  N       2.401693      1.733734      1.544994
  C       3.239843      0.606830      1.757828
  C       2.700812     -0.684258      1.424090
  C       3.442527     -1.835454      1.647786
  C       4.747783     -1.743809      2.182980
  C       5.265682     -0.505852      2.521201
  C       4.503651      0.671739      2.322269
  H       3.935862      4.562310      1.412762
  H       4.572388      3.039621      1.004048
  H       1.439535      1.485580      1.350701
  H       1.669997     -0.764521      0.962570
  H       3.028389     -2.810759      1.392710
  H       5.333194     -2.645135      2.344855
  H       6.254860     -0.433600      2.963826
  H       4.916361      1.615390      2.660747
  O      -1.482100      1.825128      0.012371
  O       2.808429      0.244446     -0.174784
  N       0.652676      0.993299     -0.077655
  N       1.014993     -1.333055     -0.131099
  C      -1.252899     -0.544631     -0.039667
  C      -0.756746      0.845676     -0.026946
  C      -0.347976     -1.552665     -0.096752
  C      -2.737356     -0.755626      0.008803
  C       1.606658      0.005973     -0.126036
  H      -0.639973     -2.597742     -0.107402
  H       1.043765      1.936041     -0.079631
  H       1.639247     -2.127229     -0.168061
  H      -3.224724     -0.280662     -0.849141
  H      -3.163337     -0.321189      0.919269
  H      -2.987174     -1.821340     -0.006627
33
Coordinates from ORCA-job phenylurea_thymine_opt_freq E -909.791446350185
  N       3.916248      3.563142      1.576171
  C       2.613826      3.085238      1.558624
  O       1.629248      3.828729      1.488321
  N       2.425539      1.726291      1.565854
  C       3.267185      0.606324      1.781015
  C       2.732148     -0.688311      1.462831
  C       3.474693     -1.827564      1.706598
  C       4.788036     -1.732412      2.228579
  C       5.302265     -0.490778      2.547122
  C       4.532099      0.680449      2.342448
  H       3.950003      4.562984      1.424646
  H       4.609203      3.038242      1.056365
  H       1.470716      1.463754      1.363744
  H       1.716197     -0.766493      0.995757
  H       3.062407     -2.807907      1.467869
  H       5.373789     -2.632354      2.395637
  H       6.293602     -0.404883      2.982395
  H       4.937622      1.631905      2.666863
  O      -1.498145      1.832052      0.031339
  O       2.762052      0.234931     -0.292596
  N       0.620120      0.977739     -0.126052
  N       0.978181     -1.343970     -0.206853
  C      -1.289869     -0.542451     -0.057624
  C      -0.797705      0.837946     -0.037449
  C      -0.385692     -1.551757     -0.150941
  C      -2.775092     -0.754170      0.022190
  C       1.578359     -0.000350     -0.212037
  H      -0.682978     -2.595655     -0.170341
  H       1.022076      1.916681     -0.123512
  H       1.605361     -2.133761     -0.266697
  H      -3.284307     -0.265073     -0.814996
  H      -3.182368     -0.330514      0.946240
  H      -3.020914     -1.820446     -0.002772
33
Coordinates from ORCA-job phenylurea_thymine_opt_freq E -909.856674615480
  N       3.944222      3.554150      1.588091
  C       2.639569      3.080490      1.556813
  O       1.659415      3.823445      1.467805
  N       2.450979      1.717374      1.584342
  C       3.291049      0.603896      1.806395
  C       2.758434     -0.683626      1.504061
  C       3.500944     -1.818132      1.764908
  C       4.815580     -1.727510      2.276631
  C       5.331135     -0.480677      2.579651
  C       4.561100      0.683681      2.368563
  H       3.980501      4.550829      1.416669
  H       4.648607      3.018030      1.096507
  H       1.498539      1.452806      1.376435
  H       1.769814     -0.755231      1.035654
  H       3.086422     -2.800486      1.539678
  H       5.397429     -2.628501      2.449097
  H       6.324033     -0.385385      3.009859
  H       4.963897      1.639654      2.681587
  O      -1.536957      1.835541      0.062544
  O       2.711231      0.233143     -0.405506
  N       0.572972      0.977847     -0.168082
  N       0.948768     -1.327126     -0.283659
  C      -1.323524     -0.541063     -0.073356
  C      -0.845401      0.837834     -0.040685
  C      -0.411778     -1.538167     -0.206324
  C      -2.805315     -0.772617      0.035489
  C       1.537921      0.003028     -0.298395
  H      -0.705413     -2.583119     -0.239832
  H       0.971535      1.917867     -0.156499
  H       1.583085     -2.108525     -0.371926
  H      -3.340367     -0.272510     -0.778883
  H      -3.197652     -0.367862      0.974404
  H      -3.036870     -1.841518     -0.003295
33
Coordinates from ORCA-job phenylurea_thymine_opt_freq E -909.902861054153
  N       3.978743      3.540479      1.584994
  C       2.673849      3.074574      1.547178
  O       1.702741      3.823589      1.437346
  N       2.478152      1.710114      1.604869
  C       3.315058      0.601941      1.837726
  C       2.784615     -0.675663      1.547244
  C       3.527746     -1.811670      1.819245
  C       4.837858     -1.726127      2.325664
  C       5.356186     -0.472557      2.619044
  C       4.591581      0.686091      2.402133
  H       4.022399      4.531732      1.385910
  H       4.689674      2.986869      1.123874
  H       1.524257      1.452297      1.394131
  H       1.820575     -0.740008      1.077010
  H       3.109700     -2.793986      1.602073
  H       5.415865     -2.628073      2.503139
  H       6.349982     -0.372036      3.046663
  H       4.994147      1.644290      2.707483
  O      -1.588287      1.832335      0.104446
  O       2.659978      0.238368     -0.505857
  N       0.518479      0.987699     -0.199655
  N       0.920017     -1.293109     -0.361347
  C      -1.357227     -0.543395     -0.088253
  C      -0.893838      0.840557     -0.037462
  C      -0.435628     -1.521957     -0.263119
  C      -2.832777     -0.802022      0.045390
  C       1.484584      0.010902     -0.378715
  H      -0.719996     -2.568775     -0.315941
  H       0.903555      1.932442     -0.176134
  H       1.564459     -2.061953     -0.483650
  H      -3.393047     -0.290830     -0.744898
  H      -3.211443     -0.421259      0.999926
  H      -3.048052     -1.873302     -0.011718
33
Coordinates from ORCA-job phenylurea_thymine_opt_freq E -909.934132576211
  N       4.014587      3.525454      1.560474
  C       2.710377      3.065361      1.531719
  O       1.746305      3.819271      1.398909
  N       2.506350      1.703116      1.635531
  C       3.342547      0.600720      1.880854
  C       2.815468     -0.669671      1.596023
  C       3.561099     -1.809817      1.868580
  C       4.864155     -1.725425      2.375025
  C       5.383686     -0.465334      2.665562
  C       4.625417      0.689665      2.445552
  H       4.065517      4.507362      1.321265
  H       4.728091      2.949418      1.132434
  H       1.548526      1.454435      1.429780
  H       1.862274     -0.728166      1.119884
  H       3.140390     -2.790665      1.652325
  H       5.441933     -2.626610      2.555425
  H       6.378004     -0.363299      3.092197
  H       5.027821      1.648785      2.747559
  O      -1.645187      1.820350      0.154481
  O       2.603624      0.254476     -0.589138
  N       0.462820      1.005143     -0.216761
  N       0.887771     -1.252318     -0.439708
  C      -1.392045     -0.549354     -0.105283
  C      -0.939644      0.842802     -0.029494
  C      -0.463265     -1.509752     -0.322422
  C      -2.860681     -0.831570      0.047354
  C       1.422623      0.025229     -0.448208
  H      -0.735693     -2.557976     -0.398995
  H       0.827942      1.956770     -0.178569
  H       1.544593     -2.004093     -0.600143
  H      -3.441524     -0.305891     -0.718287
  H      -3.225744     -0.477442      1.017467
  H      -3.064234     -1.903418     -0.032650
33
Coordinates from ORCA-job phenylurea_thymine_opt_freq E -909.954863686805
  N       4.055103      3.504770      1.516433
  C       2.750042      3.052297      1.509558
  O       1.791005      3.807929      1.345935
  N       2.535505      1.698138      1.678333
  C       3.372881      0.601486      1.935804
  C       2.851972     -0.666528      1.646854
  C       3.603389     -1.809850      1.907913
  C       4.898571     -1.721452      2.422833
  C       5.414171     -0.456800      2.720417
  C       4.659246      0.696300      2.500607
  H       4.115573      4.470729      1.221695
  H       4.768197      2.899353      1.130370
  H       1.572450      1.458863      1.485064
  H       1.898521     -0.722059      1.163509
  H       3.183482     -2.788663      1.684300
  H       5.481072     -2.619463      2.603567
  H       6.407530     -0.355686      3.149828
  H       5.058527      1.656345      2.804721
  O      -1.710750      1.796569      0.208604
  O       2.543162      0.291467     -0.656151
  N       0.404568      1.028896     -0.217426
  N       0.849846     -1.212796     -0.517455
  C      -1.429526     -0.559193     -0.125497
  C      -0.986963      0.840930     -0.018392
  C      -0.496731     -1.503726     -0.382464
  C      -2.892124     -0.858774      0.040500
  C       1.358361      0.053775     -0.505950
  H      -0.755449     -2.552690     -0.484552
  H       0.744906      1.988621     -0.159781
  H       1.519329     -1.943644     -0.718979
  H      -3.488226     -0.315744     -0.700984
  H      -3.244631     -0.532428      1.025034
  H      -3.089102     -1.929416     -0.065510
33
Coordinates from ORCA-job phenylurea_thymine_opt_freq E -909.968965036882
  N       4.089517      3.478945      1.455987
  C       2.784110      3.031409      1.479544
  O       1.825399      3.779604      1.274996
  N       2.562956      1.692003      1.731502
  C       3.405577      0.602019      1.997961
  C       2.894300     -0.667319      1.695479
  C       3.654040     -1.810985      1.937230
  C       4.942032     -1.714796      2.466948
  C       5.447446     -0.448439      2.781692
  C       4.690610      0.703644      2.565993
  H       4.157376      4.420110      1.091592
  H       4.803373      2.842880      1.124438
  H       1.595503      1.456624      1.556593
  H       1.936828     -0.721834      1.206855
  H       3.239875     -2.787822      1.697639
  H       5.533748     -2.607604      2.644069
  H       6.437916     -0.349208      3.218175
  H       5.081926      1.664775      2.878311
  O      -1.777581      1.768917      0.259226
  O       2.484583      0.348034     -0.708855
  N       0.347948      1.054858     -0.205828
  N       0.809314     -1.177330     -0.590512
  C      -1.467182     -0.566869     -0.147198
  C      -1.034021      0.837389     -0.005925
  C      -0.532351     -1.497946     -0.439988
  C      -2.925518     -0.877697      0.028788
  C       1.299986      0.096766     -0.551408
  H      -0.777399     -2.547108     -0.566494
  H       0.664635      2.021946     -0.126981
  H       1.488578     -1.886470     -0.833121
  H      -3.532599     -0.316544     -0.689954
  H      -3.267008     -0.578597      1.025851
  H      -3.120010     -1.945797     -0.103864
33
Coordinates from ORCA-job phenylurea_thymine_opt_freq E -909.978962249507
  N       4.114507      3.442402      1.387155
  C       2.809859      2.997803      1.438957
  O       1.848783      3.727380      1.177726
  N       2.586260      1.682818      1.793059
  C       3.438921      0.600642      2.064264
  C       2.941960     -0.672110      1.742374
  C       3.712768     -1.811982      1.963522
  C       4.994774     -1.703923      2.509832
  C       5.483757     -0.437501      2.846970
  C       4.717922      0.711960      2.638941
  H       4.190278      4.346357      0.940205
  H       4.833848      2.777982      1.131624
  H       1.616040      1.443985      1.638277
  H       1.980666     -0.725866      1.250059
  H       3.310726     -2.787874      1.702470
  H       5.599915     -2.589329      2.679495
  H       6.470214     -0.338036      3.292176
  H       5.096206      1.675685      2.961454
  O      -1.841990      1.746268      0.306449
  O       2.426011      0.416641     -0.752805
  N       0.292129      1.080161     -0.189034
  N       0.767586     -1.138890     -0.661553
  C      -1.505894     -0.567431     -0.169785
  C      -1.083075      0.836259      0.006681
  C      -0.567883     -1.483324     -0.498842
  C      -2.960341     -0.889760      0.017183
  C       1.245936      0.149051     -0.587853
  H      -0.798912     -2.532358     -0.649933
  H       0.591958      2.052286     -0.088959
  H       1.452677     -1.825791     -0.946607
  H      -3.578760     -0.311607     -0.677974
  H      -3.290810     -0.619632      1.026133
  H      -3.152131     -1.954705     -0.142922
33
Coordinates from ORCA-job phenylurea_thymine_opt_freq E -909.985957636477
  N       4.120010      3.394473      1.301333
  C       2.820233      2.945313      1.387131
  O       1.851846      3.640207      1.061203
  N       2.604606      1.667466      1.862937
  C       3.472996      0.594842      2.132846
  C       2.995141     -0.681418      1.787773
  C       3.779243     -1.813829      1.991622
  C       5.055716     -1.691339      2.553612
  C       5.523824     -0.425396      2.915111
  C       4.742943      0.718405      2.717775
  H       4.197337      4.246870      0.763134
  H       4.850417      2.713989      1.136168
  H       1.634136      1.415050      1.730854
  H       2.031542     -0.733089      1.292429
  H       3.394861     -2.790194      1.708149
  H       5.675841     -2.568203      2.714099
  H       6.505169     -0.322376      3.370437
  H       5.103236      1.684943      3.053981
  O      -1.897191      1.736996      0.356157
  O       2.371757      0.490947     -0.787944
  N       0.240799      1.107222     -0.167635
  N       0.728151     -1.091216     -0.729380
  C      -1.543188     -0.556043     -0.191177
  C      -1.130668      0.843375      0.023969
  C      -0.600501     -1.453144     -0.559094
  C      -2.993200     -0.894175      0.004864
  C       1.197633      0.206230     -0.614643
  H      -0.819497     -2.500604     -0.737982
  H       0.533094      2.081004     -0.045210
  H       1.414815     -1.756238     -1.058221
  H      -3.623978     -0.299587     -0.664795
  H      -3.313536     -0.657806      1.025398
  H      -3.179680     -1.955118     -0.186164
33
Coordinates from ORCA-job phenylurea_thymine_opt_freq E -909.990786276544
  N       4.118707      3.327187      1.208315
  C       2.824360      2.877776      1.329470
  O       1.850763      3.532680      0.939402
  N       2.617812      1.654229      1.938274
  C       3.503452      0.587935      2.199170
  C       3.049858     -0.691862      1.829423
  C       3.849999     -1.813529      2.021702
  C       5.120255     -1.673497      2.597851
  C       5.564316     -0.406647      2.981549
  C       4.763480      0.727180      2.795489
  H       4.200237      4.114451      0.579536
  H       4.860453      2.642288      1.143329
  H       1.648183      1.386351      1.827418
  H       2.085676     -0.741840      1.331314
  H       3.487884     -2.792315      1.718758
  H       5.755822     -2.540830      2.750087
  H       6.540290     -0.295196      3.446153
  H       5.102802      1.697564      3.144682
  O      -1.946364      1.734189      0.413626
  O       2.319543      0.568166     -0.817916
  N       0.191093      1.135636     -0.144455
  N       0.689573     -1.036171     -0.795184
  C      -1.580203     -0.537872     -0.212021
  C      -1.178085      0.855771      0.044802
  C      -0.632304     -1.412388     -0.621145
  C      -3.024442     -0.897647     -0.009459
  C       1.150948      0.264863     -0.635252
  H      -0.842556     -2.456138     -0.831297
  H       0.484076      2.107653      0.005950
  H       1.374919     -1.679390     -1.167080
  H      -3.669269     -0.288028     -0.651639
  H      -3.335081     -0.699441      1.022095
  H      -3.202293     -1.953571     -0.234209
33
Coordinates from ORCA-job phenylurea_thymine_opt_freq E -909.993837619157
  N       4.102607      3.244376      1.099664
  C       2.815733      2.802424      1.281303
  O       1.833185      3.422124      0.856835
  N       2.627878      1.643550      2.018597
  C       3.532290      0.579371      2.258538
  C       3.106413     -0.703575      1.866467
  C       3.924047     -1.812678      2.054227
  C       5.186769     -1.653373      2.643257
  C       5.605111     -0.383977      3.045663
  C       4.782183      0.736215      2.868147
  H       4.176956      3.960997      0.390944
  H       4.852767      2.566374      1.114774
  H       1.659169      1.360052      1.933344
  H       2.143284     -0.753153      1.366020
  H       3.586345     -2.795385      1.736631
  H       5.836622     -2.510987      2.790617
  H       6.574793     -0.260272      3.520114
  H       5.097235      1.709946      3.231786
  O      -1.981697      1.736172      0.475119
  O       2.272761      0.638795     -0.845656
  N       0.151034      1.162577     -0.122660
  N       0.654579     -0.980839     -0.857270
  C      -1.612456     -0.513793     -0.232819
  C      -1.215759      0.871524      0.069811
  C      -0.662336     -1.366745     -0.682231
  C      -3.051487     -0.893657     -0.028428
  C       1.109633      0.317903     -0.652678
  H      -0.870599     -2.403948     -0.925466
  H       0.454998      2.127765      0.060829
  H       1.335772     -1.604317     -1.268244
  H      -3.708427     -0.267795     -0.642160
  H      -3.353089     -0.735610      1.012738
  H      -3.222409     -1.942505     -0.289072
33
Coordinates from ORCA-job phenylurea_thymine_opt_freq E -909.995553932264
  N       4.109321      3.169840      1.025522
  C       2.823579      2.762496      1.266372
  O       1.842046      3.390231      0.854513
  N       2.641828      1.649325      2.080058
  C       3.553275      0.575057      2.291903
  C       3.150394     -0.711723      1.889463
  C       3.982016     -1.809699      2.083463
  C       5.237327     -1.632980      2.681856
  C       5.635587     -0.358984      3.091052
  C       4.795075      0.747549      2.912899
  H       4.180259      3.843032      0.275407
  H       4.852981      2.486453      1.074116
  H       1.669083      1.370853      2.020228
  H       2.189173     -0.765586      1.388686
  H       3.663705     -2.797619      1.762258
  H       5.896547     -2.483016      2.831806
  H       6.599994     -0.221784      3.572443
  H       5.090978      1.726049      3.280668
  O      -2.008415      1.726434      0.528198
  O       2.229796      0.681313     -0.881710
  N       0.115864      1.173977     -0.116651
  N       0.619743     -0.947505     -0.911937
  C      -1.643334     -0.501511     -0.254105
  C      -1.247809      0.876205      0.083773
  C      -0.694378     -1.338637     -0.735331
  C      -3.078078     -0.895870     -0.046781
  C       1.070418      0.347225     -0.675684
  H      -0.905899     -2.369079     -1.003748
  H       0.437842      2.127830      0.100818
  H       1.295699     -1.557518     -1.350731
  H      -3.744950     -0.257986     -0.637075
  H      -3.370500     -0.768498      1.001254
  H      -3.245258     -1.938316     -0.334263
33
Coordinates from ORCA-job phenylurea_thymine_opt_freq E -909.996685572336
  N       4.085728      3.102720      0.941539
  C       2.811230      2.730437      1.275046
  O       1.817515      3.357261      0.897224
  N       2.658177      1.642135      2.133455
  C       3.578540      0.567106      2.317861
  C       3.194904     -0.720707      1.910533
  C       4.037495     -1.809308      2.115963
  C       5.285611     -1.617957      2.722623
  C       5.668316     -0.338395      3.132854
  C       4.813556      0.755126      2.949847
  H       4.126447      3.745352      0.163147
  H       4.824200      2.413734      0.984413
  H       1.682451      1.368037      2.117444
  H       2.235613     -0.779715      1.409238
  H       3.733953     -2.802282      1.796100
  H       5.950548     -2.462340      2.879351
  H       6.627345     -0.188634      3.621204
  H       5.091091      1.738088      3.319672
  O      -2.016858      1.723071      0.570676
  O       2.201165      0.706442     -0.916433
  N       0.098281      1.184175     -0.115051
  N       0.593928     -0.922246     -0.959753
  C      -1.663245     -0.484625     -0.273944
  C      -1.261371      0.882467      0.100283
  C      -0.720460     -1.312451     -0.782894
  C      -3.096904     -0.882864     -0.067083
  C       1.045521      0.365390     -0.697678
  H      -0.941439     -2.334533     -1.074629
  H       0.436221      2.125722      0.127439
  H       1.262941     -1.523940     -1.419923
  H      -3.767789     -0.229467     -0.635536
  H      -3.381534     -0.782938      0.986103
  H      -3.267273     -1.917304     -0.380351
33
Coordinates from ORCA-job phenylurea_thymine_opt_freq E -909.997541937024
  N       4.084917      3.051507      0.891792
  C       2.819114      2.717390      1.289078
  O       1.824402      3.369951      0.963685
  N       2.680960      1.639541      2.165413
  C       3.600839      0.561835      2.333473
  C       3.231241     -0.727872      1.927230
  C       4.081258     -1.808905      2.150040
  C       5.322904     -1.604099      2.763201
  C       5.695886     -0.317387      3.165780
  C       4.831740      0.765326      2.971998
  H       4.109315      3.690465      0.110131
  H       4.810463      2.348241      0.914110
  H       1.700658      1.386488      2.204589
  H       2.273756     -0.796027      1.424901
  H       3.787767     -2.807229      1.837345
  H       5.990581     -2.444171      2.931130
  H       6.651366     -0.156051      3.657340
  H       5.096563      1.755046      3.332544
  O      -2.024154      1.703301      0.616514
  O       2.171313      0.715825     -0.962576
  N       0.076995      1.186122     -0.128218
  N       0.561783     -0.908980     -1.012982
  C      -1.687114     -0.478254     -0.296919
  C      -1.278319      0.880528      0.101585
  C      -0.753401     -1.298162     -0.833832
  C      -3.118966     -0.878283     -0.081403
  C       1.017902      0.371570     -0.729650
  H      -0.984527     -2.312106     -1.145126
  H       0.426824      2.114961      0.142534
  H       1.223543     -1.505004     -1.490386
  H      -3.795799     -0.213254     -0.628946
  H      -3.391207     -0.798470      0.976794
  H      -3.294697     -1.906286     -0.412429
33
Coordinates from ORCA-job phenylurea_thymine_opt_freq E -909.998267098422
  N       4.057047      2.992321      0.831012
  C       2.806792      2.683631      1.292366
  O       1.799474      3.327121      0.984683
  N       2.700545      1.625980      2.197428
  C       3.628048      0.557251      2.360573
  C       3.272669     -0.733638      1.950938
  C       4.130488     -1.807351      2.185722
  C       5.366493     -1.589191      2.804542
  C       5.729582     -0.296314      3.202122
  C       4.856283      0.776918      3.001711
  H       4.056481      3.610447      0.032665
  H       4.780429      2.286963      0.850134
  H       1.722512      1.384071      2.304493
  H       2.316482     -0.811490      1.445760
  H       3.846900     -2.809522      1.876025
  H       6.038809     -2.423993      2.980169
  H       6.682461     -0.125516      3.695469
  H       5.108158      1.772519      3.354808
  O      -2.027095      1.690688      0.656937
  O       2.147379      0.731635     -0.998730
  N       0.062700      1.193355     -0.133389
  N       0.533934     -0.886911     -1.062912
  C      -1.705936     -0.465379     -0.316712
  C      -1.286481      0.879899      0.116060
  C      -0.781986     -1.276272     -0.882635
  C      -3.138195     -0.862490     -0.098231
  C       0.997210      0.384616     -0.754904
  H      -1.022135     -2.280272     -1.218037
  H       0.415821      2.112271      0.161066
  H       1.188779     -1.475011     -1.559070
  H      -3.816559     -0.179746     -0.621561
  H      -3.400081     -0.808418      0.964174
  H      -3.323103     -1.880614     -0.453933
33
Coordinates from ORCA-job phenylurea_thymine_opt_freq E -909.998943409854
  N       4.040807      2.958684      0.796247
  C       2.801334      2.663295      1.293926
  O       1.788666      3.311191      1.008853
  N       2.717761      1.616749      2.209957
  C       3.651256      0.555235      2.382816
  C       3.305471     -0.738805      1.971911
  C       4.167454     -1.807689      2.217547
  C       5.399050     -1.579347      2.840946
  C       5.755310     -0.282298      3.233143
  C       4.878043      0.785910      3.024347
  H       4.024684      3.572892     -0.004919
  H       4.760407      2.249760      0.803889
  H       1.745876      1.396131      2.389317
  H       2.351422     -0.829544      1.462819
  H       3.890007     -2.812323      1.910307
  H       6.074737     -2.409719      3.024632
  H       6.706371     -0.106238      3.728141
  H       5.121238      1.785921      3.370471
  O      -2.021162      1.673018      0.692362
  O       2.127533      0.734595     -1.040001
  N       0.051743      1.192863     -0.151189
  N       0.503893     -0.874463     -1.114740
  C      -1.724113     -0.460023     -0.335135
  C      -1.291609      0.874284      0.118649
  C      -0.811831     -1.263755     -0.928966
  C      -3.155877     -0.852074     -0.104247
  C       0.979213      0.388536     -0.787495
  H      -1.059115     -2.259488     -1.283059
  H       0.405627      2.104480      0.163403
  H       1.151853     -1.456842     -1.626465
  H      -3.836977     -0.154741     -0.604233
  H      -3.402574     -0.816733      0.962535
  H      -3.352592     -1.861907     -0.477028
33
Coordinates from ORCA-job phenylurea_thymine_opt_freq E -909.999521711018
  N       4.027343      2.926573      0.766210
  C       2.796495      2.644190      1.294151
  O       1.781018      3.293728      1.017469
  N       2.730856      1.610721      2.218547
  C       3.671382      0.556877      2.410355
  C       3.334586     -0.740396      1.995599
  C       4.200174     -1.805368      2.246096
  C       5.428214     -1.569315      2.874227
  C       5.776967     -0.270716      3.264774
  C       4.896478      0.794348      3.050634
  H       3.996449      3.528516     -0.043769
  H       4.741883      2.212410      0.766785
  H       1.770567      1.416879      2.473214
  H       2.384004     -0.847752      1.480988
  H       3.928269     -2.810803      1.936726
  H       6.108985     -2.394696      3.061984
  H       6.727102     -0.091386      3.760382
  H       5.134273      1.797478      3.391549
  O      -2.010726      1.654453      0.727965
  O       2.110196      0.738145     -1.080301
  N       0.042137      1.190917     -0.170080
  N       0.473163     -0.860287     -1.169652
  C      -1.741577     -0.455877     -0.352186
  C      -1.295238      0.866932      0.120852
  C      -0.840675     -1.250516     -0.975200
  C      -3.171646     -0.844574     -0.106000
  C       0.962613      0.393721     -0.822446
  H      -1.092237     -2.238476     -1.347543
  H       0.395582      2.095642      0.165552
  H       1.114767     -1.436102     -1.696748
  H      -3.856271     -0.132570     -0.579789
  H      -3.400622     -0.829987      0.965173
  H      -3.380605     -1.845151     -0.496779
33
Coordinates from ORCA-job phenylurea_thymine_opt_freq E -909.999865270517
  N       4.009281      2.891689      0.735376
  C       2.787999      2.621597      1.294295
  O       1.772027      3.276323      1.029441
  N       2.739771      1.604930      2.232377
  C       3.688518      0.558126      2.437543
  C       3.361953     -0.741230      2.018547
  C       4.232615     -1.801529      2.270570
  C       5.457153     -1.558582      2.903893
  C       5.796505     -0.259184      3.295587
  C       4.910567      0.801378      3.078215
  H       3.959577      3.473137     -0.088560
  H       4.719399      2.173056      0.731156
  H       1.793821      1.435791      2.549752
  H       2.415629     -0.864996      1.498569
  H       3.967651     -2.807564      1.957379
  H       6.143841     -2.378729      3.093367
  H       6.744998     -0.074973      3.792547
  H       5.143580      1.806776      3.416133
  O      -1.998119      1.642550      0.756964
  O       2.094527      0.741051     -1.118148
  N       0.035689      1.189389     -0.186375
  N       0.445220     -0.845409     -1.222001
  C      -1.756570     -0.448737     -0.367257
  C      -1.296843      0.862607      0.123404
  C      -0.866358     -1.234743     -1.016759
  C      -3.184292     -0.836415     -0.106929
  C       0.947471      0.398759     -0.856611
  H      -1.123066     -2.215713     -1.403979
  H       0.394228      2.086151      0.165907
  H       1.080113     -1.415752     -1.763067
  H      -3.872524     -0.111443     -0.555149
  H      -3.396465     -0.843104      0.967789
  H      -3.403990     -1.827649     -0.515236
33
Coordinates from ORCA-job phenylurea_thymine_opt_freq E -910.000133763797
  N       3.989764      2.845271      0.700496
  C       2.780304      2.597105      1.297262
  O       1.763738      3.253270      1.037849
  N       2.747751      1.601425      2.254681
  C       3.703772      0.559774      2.466650
  C       3.390038     -0.740893      2.041441
  C       4.268501     -1.794995      2.292425
  C       5.488427     -1.544839      2.932591
  C       5.815213     -0.244792      3.329721
  C       4.921334      0.809250      3.110662
  H       3.916523      3.391313     -0.145808
  H       4.693262      2.119872      0.697463
  H       1.817164      1.456829      2.624703
  H       2.449066     -0.881616      1.515737
  H       4.013214     -2.801675      1.973477
  H       6.181853     -2.359353      3.122069
  H       6.760558     -0.053616      3.829970
  H       5.148293      1.816206      3.448457
  O      -1.985124      1.630839      0.788506
  O       2.078047      0.748128     -1.157434
  N       0.028923      1.190471     -0.200948
  N       0.416660     -0.825314     -1.278371
  C      -1.771157     -0.438324     -0.382559
  C      -1.299975      0.862368      0.123877
  C      -0.892173     -1.213852     -1.059772
  C      -3.194971     -0.829128     -0.106576
  C       0.930719      0.407699     -0.893150
  H      -1.155778     -2.187503     -1.460851
  H       0.397494      2.076736      0.168786
  H       1.043986     -1.390130     -1.833873
  H      -3.888863     -0.093550     -0.527985
  H      -3.389111     -0.858312      0.971217
  H      -3.423546     -1.811105     -0.531970
33
Coordinates from ORCA-job phenylurea_thymine_opt_freq E -910.000418497544
  N       3.968022      2.788049      0.664597
  C       2.772447      2.566802      1.301612
  O       1.757771      3.230075      1.053222
  N       2.757429      1.598387      2.285314
  C       3.720480      0.561255      2.499445
  C       3.423353     -0.740834      2.067554
  C       4.314307     -1.785589      2.315158
  C       5.528338     -1.525965      2.963083
  C       5.837963     -0.224836      3.368734
  C       4.932450      0.819370      3.148896
  H       3.865907      3.288357     -0.206964
  H       4.662134      2.053277      0.663935
  H       1.844914      1.481987      2.706462
  H       2.489000     -0.902572      1.535978
  H       4.072597     -2.793350      1.989244
  H       6.230459     -2.333391      3.151031
  H       6.778553     -0.023179      3.873707
  H       5.150747      1.827665      3.488664
  O      -1.973615      1.622431      0.814002
  O       2.056977      0.752957     -1.204501
  N       0.021945      1.189144     -0.215167
  N       0.381360     -0.803452     -1.344018
  C      -1.788705     -0.425779     -0.399049
  C      -1.302259      0.860201      0.128589
  C      -0.924175     -1.190205     -1.106840
  C      -3.208839     -0.818947     -0.108137
  C       0.908953      0.415737     -0.936677
  H      -1.199335     -2.154625     -1.522468
  H       0.406172      2.062926      0.169986
  H       0.998419     -1.363314     -1.915691
  H      -3.907206     -0.070447     -0.498250
  H      -3.384050     -0.875758      0.971853
  H      -3.448609     -1.788820     -0.554563
33
Coordinates from ORCA-job phenylurea_thymine_opt_freq E -910.000684980392
  N       3.936548      2.715151      0.622301
  C       2.758730      2.527123      1.303959
  O       1.740934      3.186410      1.058325
  N       2.766608      1.595339      2.322996
  C       3.735786      0.562635      2.534752
  C       3.457839     -0.739978      2.093930
  C       4.364921     -1.773003      2.335763
  C       5.571366     -1.503203      2.993287
  C       5.860172     -0.201409      3.412393
  C       4.940755      0.830692      3.193486
  H       3.798974      3.153661     -0.277773
  H       4.622116      1.971931      0.632245
  H       1.870380      1.502470      2.783212
  H       2.531148     -0.922444      1.555426
  H       4.140054     -2.781571      2.000435
  H       6.283181     -2.302974      3.177544
  H       6.794140      0.012120      3.924608
  H       5.146828      1.839508      3.539269
  O      -1.956507      1.613632      0.845444
  O       2.037859      0.762616     -1.252553
  N       0.018390      1.192693     -0.228853
  N       0.346537     -0.773127     -1.414534
  C      -1.802834     -0.407847     -0.415695
  C      -1.303741      0.866809      0.126369
  C      -0.955026     -1.159469     -1.156242
  C      -3.217404     -0.806452     -0.105502
  C       0.888361      0.430150     -0.982910
  H      -1.244207     -2.114107     -1.584901
  H       0.421145      2.051439      0.172026
  H       0.951982     -1.328388     -2.002627
  H      -3.922562     -0.049245     -0.465361
  H      -3.371655     -0.887472      0.976210
  H      -3.466916     -1.766133     -0.568291
33
Coordinates from ORCA-job phenylurea_thymine_opt_freq E -910.000873962680
  N       3.917527      2.646715      0.590957
  C       2.755127      2.494394      1.307958
  O       1.738012      3.156682      1.067315
  N       2.780372      1.596035      2.357176
  C       3.750606      0.564043      2.565543
  C       3.490247     -0.739456      2.117450
  C       4.414330     -1.759938      2.353819
  C       5.613429     -1.479814      3.019020
  C       5.881992     -0.177544      3.451131
  C       4.949453      0.842250      3.233261
  H       3.752801      3.035756     -0.327706
  H       4.591017      1.892260      0.610067
  H       1.895985      1.524821      2.843684
  H       2.570374     -0.941405      1.573703
  H       4.205709     -2.769297      2.010376
  H       6.334547     -2.272186      3.199032
  H       6.809778      0.046937      3.969784
  H       5.141903      1.851912      3.584114
  O      -1.950229      1.604664      0.864590
  O       2.015904      0.768688     -1.296650
  N       0.011455      1.191602     -0.238168
  N       0.309942     -0.746930     -1.476900
  C      -1.819590     -0.395585     -0.431010
  C      -1.307144      0.865948      0.128776
  C      -0.987646     -1.135243     -1.200185
  C      -3.230695     -0.796009     -0.107195
  C       0.864985      0.441214     -1.023181
  H      -1.290523     -2.079674     -1.641768
  H       0.428324      2.038379      0.175196
  H       0.904272     -1.297770     -2.080102
  H      -3.938925     -0.029656     -0.440691
  H      -3.368992     -0.898883      0.974833
  H      -3.490442     -1.745350     -0.585486
33
Coordinates from ORCA-job phenylurea_thymine_opt_freq E -910.001017416355
  N       3.895701      2.584513      0.562396
  C       2.748587      2.459201      1.308760
  O       1.728963      3.119875      1.073168
  N       2.795314      1.594024      2.385837
  C       3.767172      0.563880      2.592890
  C       3.522762     -0.740358      2.138835
  C       4.462361     -1.748636      2.372119
  C       5.654059     -1.458336      3.044698
  C       5.903808     -0.155719      3.487985
  C       4.959769      0.852468      3.269768
  H       3.709168      2.936673     -0.367293
  H       4.564135      1.825660      0.590847
  H       1.919365      1.537241      2.889589
  H       2.608867     -0.957934      1.590542
  H       4.268521     -2.758643      2.021833
  H       6.383601     -2.243653      3.221690
  H       6.825741      0.077710      4.013082
  H       5.136714      1.863532      3.624440
  O      -1.943184      1.595069      0.881848
  O       1.995780      0.772767     -1.336716
  N       0.005578      1.190630     -0.247549
  N       0.275105     -0.722266     -1.531745
  C      -1.835695     -0.384249     -0.445976
  C      -1.310567      0.866321      0.127142
  C      -1.019019     -1.113247     -1.240781
  C      -3.243872     -0.783925     -0.108518
  C       0.844000      0.451202     -1.058502
  H      -1.333800     -2.048029     -1.694249
  H       0.431575      2.027867      0.175755
  H       0.859082     -1.268711     -2.148768
  H      -3.953646     -0.010168     -0.420994
  H      -3.368160     -0.901998      0.973638
  H      -3.513877     -1.725203     -0.597031
33
Coordinates from ORCA-job phenylurea_thymine_opt_freq E -910.001202143287
  N       3.877997      2.520288      0.535974
  C       2.748084      2.424043      1.311475
  O       1.725715      3.082876      1.081326
  N       2.816543      1.591243      2.412975
  C       3.789646      0.563036      2.622580
  C       3.562723     -0.742452      2.162878
  C       4.518839     -1.736768      2.394866
  C       5.701773     -1.434505      3.075954
  C       5.930464     -0.131618      3.530392
  C       4.974694      0.863795      3.309727
  H       3.673422      2.844140     -0.400350
  H       4.543678      1.759453      0.573763
  H       1.947613      1.548575      2.930400
  H       2.655343     -0.976339      1.610198
  H       4.340848     -2.747424      2.037870
  H       6.440628     -2.211504      3.251016
  H       6.846002      0.110440      4.062752
  H       5.132386      1.877240      3.666401
  O      -1.938691      1.579785      0.899304
  O       1.969254      0.773343     -1.382878
  N      -0.004921      1.185685     -0.259218
  N       0.230533     -0.697145     -1.591461
  C      -1.859370     -0.374713     -0.464861
  C      -1.318101      0.862048      0.123940
  C      -1.060127     -1.091329     -1.287907
  C      -3.264825     -0.770799     -0.112341
  C       0.816997      0.459038     -1.097029
  H      -1.386915     -2.014500     -1.756182
  H       0.427011      2.014062      0.175305
  H       0.803015     -1.237575     -2.224334
  H      -3.974275      0.011886     -0.402636
  H      -3.374165     -0.903731      0.969644
  H      -3.547916     -1.703020     -0.610804
33
Coordinates from ORCA-job phenylurea_thymine_opt_freq E -910.001446701395
  N       3.851949      2.443704      0.505778
  C       2.744149      2.375393      1.313597
  O       1.715534      3.027341      1.090069
  N       2.843767      1.582452      2.441948
  C       3.823263      0.561172      2.659004
  C       3.619074     -0.745904      2.193016
  C       4.593768     -1.722851      2.426126
  C       5.765208     -1.404534      3.118571
  C       5.967479     -0.101135      3.584201
  C       4.997564      0.878357      3.358530
  H       3.628693      2.741043     -0.434930
  H       4.524308      1.689823      0.555880
  H       1.982185      1.550757      2.972709
  H       2.719519     -0.997493      1.635211
  H       4.435285     -2.734288      2.061968
  H       6.515847     -2.170155      3.293656
  H       6.874895      0.151111      4.125693
  H       5.130037      1.895075      3.716028
  O      -1.931235      1.559729      0.920628
  O       1.934296      0.770298     -1.440065
  N      -0.018667      1.176775     -0.275317
  N       0.171927     -0.668646     -1.662204
  C      -1.893062     -0.361686     -0.490264
  C      -1.328924      0.855416      0.118457
  C      -1.115697     -1.063536     -1.346630
  C      -3.295880     -0.750454     -0.120185
  C       0.782380      0.464933     -1.143493
  H      -1.456806     -1.971418     -1.833992
  H       0.419887      1.994159      0.172594
  H       0.730185     -1.200656     -2.314656
  H      -4.002251      0.044428     -0.383819
  H      -3.387749     -0.901031      0.961029
  H      -3.597024     -1.670621     -0.630397
33
Coordinates from ORCA-job phenylurea_thymine_opt_freq E -910.001756099378
  N       3.827627      2.362631      0.476988
  C       2.744110      2.325029      1.316533
  O       1.709707      2.970294      1.099127
  N       2.873812      1.570733      2.467566
  C       3.862876      0.560250      2.696608
  C       3.683886     -0.748435      2.223699
  C       4.675471     -1.707781      2.460404
  C       5.833970     -1.372168      3.166176
  C       6.008210     -0.068421      3.641726
  C       5.024435      0.894934      3.408867
  H       3.587767      2.637603     -0.466129
  H       4.511314      1.620624      0.540403
  H       2.019493      1.547840      3.010281
  H       2.791618     -1.016393      1.659625
  H       4.537527     -2.719851      2.089542
  H       6.596805     -2.124994      3.344012
  H       6.906566      0.194181      4.193300
  H       5.131309      1.914650      3.766449
  O      -1.924016      1.533762      0.945790
  O       1.892498      0.766208     -1.500735
  N      -0.037034      1.164353     -0.292912
  N       0.107288     -0.640378     -1.732643
  C      -1.933887     -0.347507     -0.518393
  C      -1.344289      0.845346      0.113313
  C      -1.178552     -1.032660     -1.407802
  C      -3.334404     -0.728667     -0.132804
  C       0.742038      0.468423     -1.191465
  H      -1.533993     -1.923169     -1.916444
  H       0.410303      1.967899      0.171256
  H       0.651399     -1.161866     -2.405344
  H      -4.035726      0.079804     -0.367229
  H      -3.409346     -0.900647      0.946441
  H      -3.654877     -1.634069     -0.657469
33
Coordinates from ORCA-job phenylurea_thymine_opt_freq E -910.002121483617
  N       3.803216      2.282130      0.448802
  C       2.743644      2.270623      1.315975
  O       1.701391      2.904659      1.102034
  N       2.902660      1.554179      2.486790
  C       3.906900      0.560923      2.731953
  C       3.754712     -0.748958      2.251539
  C       4.759007     -1.692580      2.494627
  C       5.903588     -1.339663      3.215696
  C       6.050082     -0.035676      3.698879
  C       5.053866      0.912957      3.457002
  H       3.549374      2.537153     -0.495844
  H       4.508729      1.563297      0.528132
  H       2.052725      1.531168      3.036752
  H       2.868897     -1.026860      1.681277
  H       4.641466     -2.705192      2.118287
  H       6.677883     -2.079150      3.399823
  H       6.938579      0.237035      4.261376
  H       5.137720      1.934619      3.815441
  O      -1.917819      1.504907      0.974375
  O       1.848643      0.764165     -1.556115
  N      -0.057601      1.150902     -0.307009
  N       0.043160     -0.616107     -1.794547
  C      -1.978348     -0.331318     -0.546227
  C      -1.362803      0.833936      0.111253
  C      -1.243047     -1.000380     -1.464957
  C      -3.378076     -0.704666     -0.150946
  C       0.700622      0.470774     -1.233688
  H      -1.612469     -1.872387     -1.995370
  H       0.401255      1.938335      0.174034
  H       0.574957     -1.125169     -2.486504
  H      -4.071875      0.118300     -0.355640
  H      -3.439605     -0.901842      0.924775
  H      -3.717526     -1.592557     -0.693236
33
Coordinates from ORCA-job phenylurea_thymine_opt_freq E -910.002429647129
  N       3.789853      2.226817      0.430832
  C       2.747518      2.235123      1.316674
  O       1.701529      2.864411      1.106138
  N       2.923105      1.541381      2.497879
  C       3.939972      0.562941      2.755656
  C       3.808146     -0.747724      2.270066
  C       4.818666     -1.681784      2.519564
  C       5.952726     -1.316723      3.252449
  C       6.079995     -0.012301      3.738979
  C       5.075933      0.926915      3.489513
  H       3.524558      2.466393     -0.514552
  H       4.511886      1.526395      0.520538
  H       2.078133      1.520382      3.055321
  H       2.927280     -1.029937      1.695175
  H       4.715750     -2.694909      2.140457
  H       6.734374     -2.046666      3.443484
  H       6.960741      0.268575      4.309548
  H       5.147318      1.949039      3.849546
  O      -1.913243      1.478265      0.998487
  O       1.814008      0.762393     -1.594601
  N      -0.074130      1.137979     -0.316038
  N      -0.004419     -0.602093     -1.837585
  C      -2.012641     -0.319618     -0.566516
  C      -1.377683      0.822487      0.111884
  C      -1.291998     -0.976715     -1.505666
  C      -3.412728     -0.687653     -0.167551
  C       0.668325      0.469709     -1.263125
  H      -1.673650     -1.833701     -2.051874
  H       0.398102      1.910482      0.177604
  H       0.518670     -1.101008     -2.543455
  H      -4.099677      0.146801     -0.347492
  H      -3.466256     -0.908631      0.903989
  H      -3.766259     -1.559466     -0.726587
33
Coordinates from ORCA-job phenylurea_thymine_opt_freq E -910.002910321700
  N       3.763716      2.133317      0.404202
  C       2.747923      2.175654      1.317414
  O       1.694986      2.794735      1.109081
  N       2.951767      1.524580      2.517370
  C       3.986964      0.568335      2.790174
  C       3.886139     -0.742429      2.296133
  C       4.905882     -1.662538      2.554125
  C       6.023822     -1.280678      3.304577
  C       6.122525      0.023670      3.796901
  C       5.106833      0.948854      3.537313
  H       3.474837      2.334023     -0.543360
  H       4.508676      1.460314      0.510598
  H       2.117949      1.512293      3.091514
  H       3.012879     -1.031035      1.712603
  H       4.825349     -2.675805      2.170248
  H       6.815782     -1.996875      3.505022
  H       6.990999      0.317619      4.379530
  H       5.162057      1.970394      3.902040
  O      -1.904721      1.438444      1.032691
  O       1.763924      0.764321     -1.650768
  N      -0.095999      1.120127     -0.328928
  N      -0.071088     -0.576099     -1.901472
  C      -2.058592     -0.299932     -0.594822
  C      -1.396352      0.807034      0.113294
  C      -1.360170     -0.937330     -1.563986
  C      -3.458934     -0.662069     -0.190913
  C       0.621564      0.471297     -1.307645
  H      -1.762203     -1.770830     -2.131736
  H       0.399246      1.869090      0.180770
  H       0.438025     -1.059454     -2.628061
  H      -4.135944      0.187878     -0.331847
  H      -3.501453     -0.921270      0.872588
  H      -3.832483     -1.508079     -0.775908
33
Coordinates from ORCA-job phenylurea_thymine_opt_freq E -910.003515232429
  N       3.721105      2.017846      0.369384
  C       2.742742      2.110895      1.318663
  O       1.685439      2.726132      1.118045
  N       2.981282      1.512097      2.538439
  C       4.034923      0.579419      2.822219
  C       3.966017     -0.730289      2.319746
  C       4.990375     -1.640192      2.588013
  C       6.091667     -1.244081      3.357242
  C       6.164211      0.060445      3.853002
  C       5.139279      0.974270      3.582195
  H       3.390110      2.156498     -0.576515
  H       4.484332      1.367967      0.488312
  H       2.169932      1.526222      3.144258
  H       3.101553     -1.020605      1.725739
  H       4.931491     -2.653495      2.200772
  H       6.891163     -1.948392      3.569680
  H       7.018959      0.369388      4.447991
  H       5.187326      1.993218      3.955200
  O      -1.895007      1.391591      1.072150
  O       1.716003      0.778124     -1.701881
  N      -0.115216      1.103782     -0.335787
  N      -0.130964     -0.544527     -1.964288
  C      -2.098250     -0.277392     -0.621643
  C      -1.411247      0.790807      0.120099
  C      -1.422104     -0.891000     -1.620881
  C      -3.499704     -0.637810     -0.218714
  C       0.576862      0.479151     -1.349304
  H      -1.849179     -1.697253     -2.209553
  H       0.410281      1.824353      0.188013
  H       0.363018     -1.008513     -2.713484
  H      -4.166503      0.226443     -0.313288
  H      -3.534499     -0.946315      0.831966
  H      -3.891490     -1.451230     -0.837050
33
Coordinates from ORCA-job phenylurea_thymine_opt_freq E -910.004028511739
  N       3.679094      1.927006      0.342614
  C       2.734503      2.066517      1.320710
  O       1.675903      2.683751      1.129894
  N       3.004437      1.512748      2.554630
  C       4.065523      0.590935      2.841062
  C       4.014309     -0.717698      2.334118
  C       5.040222     -1.623143      2.608737
  C       6.131467     -1.221439      3.389780
  C       6.190274      0.082866      3.887636
  C       5.161960      0.991710      3.609154
  H       3.306172      2.006622     -0.595792
  H       4.446264      1.282665      0.466841
  H       2.218950      1.563420      3.191499
  H       3.156964     -1.008739      1.732513
  H       4.993037     -2.636191      2.219573
  H       6.933358     -1.920801      3.609487
  H       7.036288      0.400921      4.490248
  H       5.210191      2.008403      3.988130
  O      -1.889655      1.359943      1.095558
  O       1.689199      0.796385     -1.731063
  N      -0.124659      1.096302     -0.337589
  N      -0.163718     -0.516402     -2.006045
  C      -2.117137     -0.263319     -0.638502
  C      -1.417238      0.781027      0.124836
  C      -1.455218     -0.857856     -1.657774
  C      -3.518527     -0.626372     -0.236706
  C       0.551569      0.491226     -1.374621
  H      -1.899298     -1.645510     -2.258965
  H       0.419714      1.799900      0.193032
  H       0.319015     -0.965399     -2.771387
  H      -4.180174      0.244697     -0.298304
  H      -3.548441     -0.969755      0.803351
  H      -3.920443     -1.416859     -0.877915
33
Coordinates from ORCA-job phenylurea_thymine_opt_freq E -910.004878438133
  N       3.594428      1.782378      0.302907
  C       2.715062      2.003492      1.327952
  O       1.656806      2.630653      1.162360
  N       3.048705      1.529992      2.579221
  C       4.110282      0.612902      2.862936
  C       4.075600     -0.694859      2.353568
  C       5.101767     -1.597292      2.637481
  C       6.180972     -1.194195      3.433640
  C       6.227367      0.109862      3.933408
  C       5.199764      1.016078      3.642176
  H       3.141549      1.759696     -0.606493
  H       4.354421      1.129738      0.431036
  H       2.321431      1.666141      3.270368
  H       3.230019     -0.987896      1.740932
  H       5.065129     -2.610047      2.246770
  H       6.981583     -1.892066      3.662568
  H       7.062500      0.437849      4.545831
  H       5.253653      2.030090      4.027236
  O      -1.885215      1.316242      1.119630
  O       1.659071      0.831781     -1.768253
  N      -0.133494      1.089911     -0.339175
  N      -0.201391     -0.466378     -2.066992
  C      -2.134258     -0.247027     -0.663620
  C      -1.420989      0.768381      0.127623
  C      -1.491673     -0.810227     -1.711178
  C      -3.533724     -0.618215     -0.261427
  C       0.522375      0.516771     -1.408774
  H      -1.958365     -1.571911     -2.328305
  H       0.431405      1.774753      0.198611
  H       0.263035     -0.891110     -2.856896
  H      -4.190397      0.258477     -0.275261
  H      -3.555374     -1.009845      0.761763
  H      -3.948138     -1.376564     -0.932904
33
Coordinates from ORCA-job phenylurea_thymine_opt_freq E -910.005752021985
  N       3.551543      1.688419      0.292057
  C       2.712796      1.954068      1.340588
  O       1.651149      2.581336      1.192547
  N       3.094802      1.538641      2.598302
  C       4.155614      0.624853      2.886710
  C       4.136067     -0.682994      2.375467
  C       5.168976     -1.576191      2.667891
  C       6.235229     -1.169265      3.477877
  C       6.265024      0.132896      3.982944
  C       5.235813      1.032072      3.679439
  H       3.060478      1.619077     -0.597815
  H       4.313204      1.037961      0.422169
  H       2.410438      1.738861      3.316991
  H       3.300947     -0.984897      1.754185
  H       5.144121     -2.588023      2.273835
  H       7.037569     -1.863002      3.713095
  H       7.090161      0.466561      4.605808
  H       5.280215      2.046310      4.065088
  O      -1.883571      1.274797      1.126229
  O       1.619611      0.837656     -1.819029
  N      -0.149556      1.072758     -0.357786
  N      -0.258795     -0.430848     -2.130980
  C      -2.167539     -0.238316     -0.693533
  C      -1.433681      0.750045      0.115318
  C      -1.547032     -0.776831     -1.766997
  C      -3.564052     -0.607212     -0.279551
  C       0.483563      0.523175     -1.452407
  H      -2.031076     -1.515692     -2.398095
  H       0.426893      1.742701      0.189907
  H       0.187327     -0.837639     -2.940632
  H      -4.211533      0.276038     -0.256563
  H      -3.573873     -1.028496      0.731940
  H      -3.996927     -1.341261     -0.966257
33
Coordinates from ORCA-job phenylurea_thymine_opt_freq E -910.005747929638
  N       3.519486      1.737339      0.264908
  C       2.708854      1.965746      1.348012
  O       1.630984      2.578936      1.260188
  N       3.177264      1.593912      2.596394
  C       4.181320      0.634198      2.872527
  C       4.112211     -0.681411      2.390945
  C       5.140458     -1.584457      2.693221
  C       6.215049     -1.206740      3.497343
  C       6.276046      0.097732      3.997360
  C       5.276282      1.014384      3.674845
  H       3.006496      1.694661     -0.623447
  H       4.243659      1.039012      0.366900
  H       2.583372      1.920477      3.342801
  H       3.282031     -0.998539      1.772421
  H       5.082526     -2.598720      2.307489
  H       6.993659     -1.927235      3.730763
  H       7.108733      0.410941      4.621071
  H       5.326188      2.037674      4.035241
  O      -1.936969      1.279026      1.076949
  O       1.631625      0.843400     -1.808090
  N      -0.159346      1.076106     -0.353837
  N      -0.254401     -0.402536     -2.139995
  C      -2.162402     -0.272601     -0.709624
  C      -1.448201      0.744435      0.088804
  C      -1.536548     -0.797611     -1.785011
  C      -3.549739     -0.650283     -0.277046
  C       0.490117      0.537723     -1.442991
  H      -2.004458     -1.540775     -2.421632
  H       0.362522      1.773286      0.201466
  H       0.180126     -0.796654     -2.962332
  H      -4.204848      0.227366     -0.260240
  H      -3.547965     -1.051682      0.742139
  H      -3.980227     -1.399550     -0.948802
33
Coordinates from ORCA-job phenylurea_thymine_opt_freq E -910.007267706452
  N       3.502573      1.615071      0.274230
  C       2.710582      1.905749      1.351131
  O       1.627991      2.505015      1.240595
  N       3.183000      1.570861      2.606113
  C       4.218476      0.640286      2.905104
  C       4.186796     -0.672711      2.404836
  C       5.225603     -1.559304      2.709301
  C       6.283077     -1.161985      3.530621
  C       6.310274      0.138894      4.040890
  C       5.293213      1.038664      3.717529
  H       2.995352      1.543751     -0.608383
  H       4.267657      0.966194      0.394961
  H       2.562380      1.871209      3.347162
  H       3.358964     -0.988145      1.777308
  H       5.195190     -2.570781      2.313235
  H       7.077708     -1.863000      3.769491
  H       7.130965      0.461380      4.675548
  H       5.318223      2.060369      4.085822
  O      -1.917439      1.244373      1.102411
  O       1.583206      0.844550     -1.854370
  N      -0.177698      1.060008     -0.374732
  N      -0.313574     -0.381986     -2.184767
  C      -2.207721     -0.245509     -0.732738
  C      -1.465482      0.732708      0.085091
  C      -1.597818     -0.755427     -1.827013
  C      -3.596391     -0.614877     -0.296907
  C       0.447981      0.537649     -1.481126
  H      -2.076419     -1.478369     -2.479540
  H       0.372728      1.727131      0.196057
  H       0.116469     -0.762934     -3.015657
  H      -4.238717      0.271398     -0.252493
  H      -3.588761     -1.042126      0.711823
  H      -4.044482     -1.340548     -0.982793
33
Coordinates from ORCA-job phenylurea_thymine_opt_freq E -910.007817482835
  N       3.448418      1.533561      0.268944
  C       2.701207      1.864581      1.364093
  O       1.618775      2.466448      1.273700
  N       3.214468      1.568188      2.612472
  C       4.258538      0.648735      2.921518
  C       4.241416     -0.664598      2.419116
  C       5.280152     -1.546242      2.731977
  C       6.327124     -1.141962      3.564853
  C       6.340466      0.159152      4.075468
  C       5.321398      1.054045      3.742655
  H       2.917921      1.454774     -0.599070
  H       4.230895      0.904472      0.375939
  H       2.621407      1.901345      3.362772
  H       3.416931     -0.979262      1.785500
  H       5.259365     -2.557708      2.335260
  H       7.124526     -1.836645      3.812638
  H       7.152845      0.485741      4.718604
  H       5.338114      2.075848      4.111582
  O      -1.910458      1.213776      1.111674
  O       1.555524      0.845592     -1.887758
  N      -0.188631      1.044170     -0.387575
  N      -0.350586     -0.363909     -2.222295
  C      -2.234449     -0.232480     -0.754264
  C      -1.476376      0.719168      0.078576
  C      -1.636058     -0.727111     -1.862389
  C      -3.623799     -0.597996     -0.317340
  C       0.422217      0.537767     -1.509053
  H      -2.123969     -1.433008     -2.526749
  H       0.378040      1.689237      0.194779
  H       0.072140     -0.729975     -3.063608
  H      -4.256956      0.293393     -0.249343
  H      -3.612837     -1.047540      0.681690
  H      -4.083864     -1.303998     -1.015627
33
Coordinates from ORCA-job phenylurea_thymine_opt_freq E -910.008422897991
  N       3.433998      1.441030      0.272963
  C       2.712397      1.799855      1.372393
  O       1.617259      2.378706      1.290163
  N       3.266665      1.561938      2.617193
  C       4.317111      0.659997      2.948532
  C       4.318852     -0.653054      2.443270
  C       5.361981     -1.524432      2.764947
  C       6.392944     -1.112239      3.614816
  C       6.382799      0.185809      4.132795
  C       5.360569      1.072458      3.788078
  H       2.910658      1.372662     -0.600206
  H       4.254348      0.862546      0.370438
  H       2.690430      1.923654      3.365445
  H       3.498499     -0.970497      1.802723
  H       5.355411     -2.534600      2.364407
  H       7.195421     -1.797583      3.871659
  H       7.182532      0.514259      4.790641
  H       5.358286      2.094157      4.158109
  O      -1.923958      1.171650      1.114929
  O       1.502997      0.840535     -1.934039
  N      -0.221615      1.017066     -0.406520
  N      -0.421662     -0.338333     -2.274792
  C      -2.290952     -0.219452     -0.786063
  C      -1.511674      0.696698      0.064296
  C      -1.707936     -0.691631     -1.912275
  C      -3.680743     -0.577799     -0.345121
  C       0.371004      0.535013     -1.547540
  H      -2.205360     -1.373822     -2.594295
  H       0.355519      1.637023      0.194410
  H      -0.008937     -0.682753     -3.130234
  H      -4.301294      0.320090     -0.250694
  H      -3.664887     -1.050166      0.643221
  H      -4.156757     -1.261229     -1.054912
33
Coordinates from ORCA-job phenylurea_thymine_opt_freq E -910.007990755675
  N       3.359100      1.334191      0.255648
  C       2.700304      1.756042      1.364972
  O       1.593024      2.308926      1.306641
  N       3.313327      1.576675      2.591946
  C       4.364555      0.686680      2.940747
  C       4.354727     -0.630023      2.445424
  C       5.366499     -1.524697      2.778174
  C       6.398520     -1.114862      3.636367
  C       6.400822      0.190239      4.140985
  C       5.394108      1.096287      3.785526
  H       2.826337      1.293387     -0.607643
  H       4.233651      0.838697      0.311750
  H       2.790062      2.001293      3.349990
  H       3.521529     -0.923145      1.804744
  H       5.346281     -2.539178      2.389824
  H       7.191834     -1.802864      3.913356
  H       7.196935      0.512212      4.806308
  H       5.415386      2.116559      4.159789
  O      -1.948545      1.155518      1.140671
  O       1.490320      0.880123     -1.907011
  N      -0.244801      1.013157     -0.379163
  N      -0.412028     -0.322471     -2.260827
  C      -2.305457     -0.207210     -0.787195
  C      -1.542337      0.689544      0.085456
  C      -1.701479     -0.660754     -1.908242
  C      -3.702256     -0.585093     -0.383889
  C       0.361748      0.558158     -1.527708
  H      -2.185919     -1.336523     -2.607022
  H       0.341713      1.602531      0.237982
  H       0.017557     -0.634184     -3.120482
  H      -4.330792      0.306342     -0.281550
  H      -3.700551     -1.084023      0.591780
  H      -4.160269     -1.253976     -1.118611
33
Coordinates from ORCA-job phenylurea_thymine_opt_freq E -910.008900759181
  N       3.348875      1.338400      0.269878
  C       2.700401      1.750859      1.392431
  O       1.590777      2.305595      1.357534
  N       3.341098      1.587412      2.610691
  C       4.381398      0.683383      2.948373
  C       4.376709     -0.634335      2.457130
  C       5.404663     -1.515372      2.795806
  C       6.428367     -1.106718      3.657751
  C       6.420398      0.195135      4.168214
  C       5.412540      1.091958      3.804992
  H       2.799546      1.282398     -0.587708
  H       4.208961      0.815041      0.326774
  H       2.836427      2.036499      3.365875
  H       3.555792     -0.945233      1.814753
  H       5.391978     -2.529199      2.404946
  H       7.221485     -1.796306      3.931394
  H       7.211482      0.520674      4.838026
  H       5.419832      2.113772      4.174891
  O      -1.946538      1.140195      1.116910
  O       1.474428      0.857278     -1.948159
  N      -0.243995      0.997130     -0.405763
  N      -0.452229     -0.310547     -2.306782
  C      -2.320304     -0.213755     -0.810621
  C      -1.538675      0.679797      0.058911
  C      -1.740020     -0.661367     -1.946986
  C      -3.712737     -0.578473     -0.381927
  C       0.343014      0.545927     -1.563509
  H      -2.243274     -1.324795     -2.643497
  H       0.337932      1.596766      0.206622
  H      -0.043918     -0.624371     -3.175999
  H      -4.330807      0.318668     -0.266926
  H      -3.700405     -1.076160      0.593998
  H      -4.189297     -1.242698     -1.109282
33
Coordinates from ORCA-job phenylurea_thymine_opt_freq E -910.009017660316
  N       3.389220      1.343736      0.271700
  C       2.717007      1.745860      1.383645
  O       1.604881      2.295352      1.331100
  N       3.343901      1.584432      2.611653
  C       4.382451      0.680422      2.954516
  C       4.381323     -0.636305      2.461519
  C       5.414994     -1.512385      2.799590
  C       6.436011     -1.102181      3.662932
  C       6.421998      0.197686      4.177970
  C       5.410952      1.090457      3.815955
  H       2.864505      1.303933     -0.601952
  H       4.256474      0.834757      0.340413
  H       2.821387      2.017950      3.360567
  H       3.562393     -0.952100      1.819875
  H       5.407008     -2.525302      2.406189
  H       7.231828     -1.789652      3.934161
  H       7.210946      0.523893      4.850023
  H       5.411265      2.111537      4.187669
  O      -1.956061      1.133228      1.115857
  O       1.462196      0.852209     -1.950294
  N      -0.254086      0.990657     -0.407502
  N      -0.471142     -0.307864     -2.313412
  C      -2.334516     -0.215708     -0.813606
  C      -1.548821      0.675346      0.056284
  C      -1.758543     -0.661024     -1.953396
  C      -3.726418     -0.577466     -0.380919
  C       0.329817      0.543103     -1.567281
  H      -2.265172     -1.321209     -2.650308
  H       0.324641      1.591312      0.205535
  H      -0.065163     -0.622590     -3.183409
  H      -4.343077      0.320717     -0.266177
  H      -3.712992     -1.072927      0.596051
  H      -4.205302     -1.242316     -1.106206
33
Coordinates from ORCA-job phenylurea_thymine_opt_freq E -910.009127064545
  N       3.346076      1.235524      0.287525
  C       2.720854      1.687819      1.404340
  O       1.599523      2.219093      1.374244
  N       3.405784      1.595411      2.611745
  C       4.441279      0.697009      2.970703
  C       4.450517     -0.621612      2.481921
  C       5.482562     -1.493912      2.831927
  C       6.490676     -1.079668      3.708926
  C       6.462239      0.220005      4.224627
  C       5.453699      1.110335      3.849222
  H       2.809874      1.202342     -0.578474
  H       4.244354      0.782673      0.330290
  H       2.923578      2.082855      3.355314
  H       3.637349     -0.939587      1.835044
  H       5.482658     -2.507387      2.439875
  H       7.286535     -1.762672      3.990879
  H       7.239090      0.549324      4.909193
  H       5.448390      2.130575      4.223459
  O      -1.970171      1.089723      1.115860
  O       1.419552      0.854691     -1.985197
  N      -0.280082      0.961453     -0.422178
  N      -0.530842     -0.276221     -2.366171
  C      -2.378595     -0.205451     -0.844363
  C      -1.576983      0.652706      0.042700
  C      -1.818040     -0.623931     -2.001921
  C      -3.771016     -0.565274     -0.411280
  C       0.286251      0.545704     -1.602855
  H      -2.339107     -1.258748     -2.711658
  H       0.309043      1.539648      0.201604
  H      -0.136009     -0.567273     -3.249408
  H      -4.378555      0.335271     -0.269412
  H      -3.755579     -1.086191      0.552355
  H      -4.261000     -1.206678     -1.150095
33
Coordinates from ORCA-job phenylurea_thymine_opt_freq E -910.009274099656
  N       3.322602      1.222526      0.284561
  C       2.718991      1.707023      1.399926
  O       1.601518      2.244570      1.374256
  N       3.414683      1.617828      2.600939
  C       4.436471      0.699498      2.952043
  C       4.429167     -0.622671      2.473522
  C       5.450375     -1.504742      2.832526
  C       6.464875     -1.092679      3.703654
  C       6.451744      0.212673      4.207717
  C       5.452451      1.111874      3.826937
  H       2.775837      1.192226     -0.574611
  H       4.237572      0.801969      0.311095
  H       2.960207      2.132358      3.345730
  H       3.614421     -0.941517      1.831845
  H       5.439874     -2.522307      2.451674
  H       7.253368     -1.782030      3.990974
  H       7.231542      0.543776      4.888107
  H       5.465792      2.132693      4.198795
  O      -1.973674      1.076984      1.130599
  O       1.432521      0.871179     -1.950100
  N      -0.274730      0.959610     -0.400202
  N      -0.508348     -0.265403     -2.351454
  C      -2.362793     -0.211178     -0.837023
  C      -1.570225      0.647146      0.058053
  C      -1.795594     -0.621006     -1.994285
  C      -3.756120     -0.581280     -0.415310
  C       0.298005      0.557248     -1.582772
  H      -2.317480     -1.254938     -2.703979
  H       0.314430      1.535939      0.219153
  H      -0.110252     -0.554083     -3.233995
  H      -4.370617      0.314249     -0.271770
  H      -3.746070     -1.109447      0.544499
  H      -4.236635     -1.220530     -1.162365
33
Coordinates from ORCA-job phenylurea_thymine_opt_freq E -910.009414746766
  N       3.341943      1.226925      0.279766
  C       2.727680      1.704672      1.392376
  O       1.610934      2.243934      1.358435
  N       3.413946      1.610475      2.598929
  C       4.438243      0.695016      2.954566
  C       4.434818     -0.626834      2.476747
  C       5.459154     -1.504712      2.838687
  C       6.471440     -1.089507      3.710340
  C       6.453983      0.215452      4.213888
  C       5.452093      1.110505      3.831022
  H       2.809222      1.218257     -0.588480
  H       4.263841      0.821494      0.308271
  H       2.945740      2.112123      3.342692
  H       3.620654     -0.949520      1.835803
  H       5.451642     -2.522610      2.458567
  H       7.261479     -1.776612      3.998815
  H       7.232344      0.547992      4.895263
  H       5.458798      2.132153      4.200688
  O      -1.977229      1.066558      1.134248
  O       1.427576      0.864052     -1.948535
  N      -0.280527      0.953807     -0.398830
  N      -0.518542     -0.264718     -2.353001
  C      -2.372539     -0.211554     -0.839041
  C      -1.576149      0.641318      0.058713
  C      -1.806685     -0.619478     -1.997935
  C      -3.766506     -0.577697     -0.416472
  C       0.292286      0.552440     -1.581826
  H      -2.329213     -1.249593     -2.710591
  H       0.308986      1.529360      0.222943
  H      -0.120725     -0.554811     -3.235268
  H      -4.378207      0.319646     -0.272108
  H      -3.756974     -1.105675      0.543355
  H      -4.249600     -1.215301     -1.163287
33
Coordinates from ORCA-job phenylurea_thymine_opt_freq E -910.009557253428
  N       3.342504      1.179245      0.282030
  C       2.735428      1.679382      1.388404
  O       1.617676      2.217562      1.350103
  N       3.430086      1.606606      2.592426
  C       4.456323      0.696414      2.956851
  C       4.460051     -0.626361      2.483589
  C       5.487589     -1.496993      2.855603
  C       6.493589     -1.075851      3.730706
  C       6.467721      0.229613      4.230698
  C       5.463763      1.117796      3.838752
  H       2.816709      1.188512     -0.590948
  H       4.283574      0.820141      0.301646
  H       2.953906      2.102680      3.333104
  H       3.648253     -0.956604      1.842943
  H       5.485389     -2.516411      2.479295
  H       7.284508     -1.759382      4.025158
  H       7.240977      0.566373      4.915829
  H       5.460789      2.141250      4.203512
  O      -1.985555      1.036902      1.142618
  O       1.415165      0.861582     -1.947829
  N      -0.292451      0.940152     -0.394735
  N      -0.542178     -0.246115     -2.366931
  C      -2.393028     -0.207161     -0.849867
  C      -1.588744      0.627043      0.059289
  C      -1.831699     -0.600772     -2.015996
  C      -3.787957     -0.569692     -0.428198
  C       0.277683      0.552563     -1.584342
  H      -2.357953     -1.216736     -2.738186
  H       0.298889      1.510726      0.232685
  H      -0.147451     -0.530821     -3.252400
  H      -4.393961      0.329675     -0.272539
  H      -3.778959     -1.107468      0.526085
  H      -4.276731     -1.196293     -1.180615
33
Coordinates from ORCA-job phenylurea_thymine_opt_freq E -910.009749177010
  N       3.322675      1.099804      0.286105
  C       2.743529      1.642171      1.387258
  O       1.625734      2.181346      1.357007
  N       3.461061      1.600260      2.577464
  C       4.489885      0.697086      2.956299
  C       4.503478     -0.629892      2.495760
  C       5.530891     -1.490836      2.890197
  C       6.526696     -1.056932      3.770441
  C       6.490579      0.253547      4.256002
  C       5.486172      1.131789      3.844031
  H       2.801720      1.157885     -0.588167
  H       4.292453      0.827559      0.275758
  H       2.993252      2.109697      3.315810
  H       3.696618     -0.973392      1.854852
  H       5.535023     -2.514555      2.525316
  H       7.316980     -1.734354      4.080258
  H       7.255436      0.599467      4.945947
  H       5.470981      2.159725      4.196163
  O      -1.990118      0.975133      1.160544
  O       1.397124      0.851799     -1.946789
  N      -0.307148      0.909178     -0.388108
  N      -0.579911     -0.214179     -2.394013
  C      -2.424154     -0.199846     -0.868630
  C      -1.604287      0.595490      0.062084
  C      -1.872064     -0.565022     -2.048703
  C      -3.820954     -0.556603     -0.449318
  C       0.255325      0.548054     -1.590580
  H      -2.405882     -1.152895     -2.788552
  H       0.292434      1.463239      0.250515
  H      -0.190223     -0.487159     -3.285435
  H      -4.415181      0.345781     -0.267555
  H      -3.812821     -1.117830      0.491302
  H      -4.321398     -1.157956     -1.214522
33
Coordinates from ORCA-job phenylurea_thymine_opt_freq E -910.009887165339
  N       3.300594      1.017513      0.295145
  C       2.743154      1.602424      1.388363
  O       1.623581      2.138904      1.362699
  N       3.479212      1.594326      2.566072
  C       4.511576      0.699323      2.953757
  C       4.535288     -0.631166      2.504033
  C       5.563835     -1.482694      2.915346
  C       6.551683     -1.036253      3.798192
  C       6.506675      0.279176      4.270459
  C       5.500358      1.147426      3.843067
  H       2.777112      1.093382     -0.577637
  H       4.287182      0.812597      0.260971
  H       3.013659      2.107256      3.303945
  H       3.734148     -0.986571      1.861532
  H       5.574703     -2.509764      2.559931
  H       7.342356     -1.707718      4.119706
  H       7.265284      0.635276      4.962023
  H       5.475342      2.179071      4.184118
  O      -1.989746      0.929392      1.174287
  O       1.387282      0.848103     -1.944376
  N      -0.312908      0.887592     -0.381438
  N      -0.604677     -0.179986     -2.415495
  C      -2.442002     -0.190199     -0.881598
  C      -1.610876      0.573863      0.065339
  C      -1.898338     -0.529445     -2.072928
  C      -3.839727     -0.544760     -0.463878
  C       0.241885      0.549142     -1.593961
  H      -2.438857     -1.093403     -2.826376
  H       0.291664      1.430154      0.264002
  H      -0.219743     -0.442448     -3.312049
  H      -4.424845      0.358329     -0.257644
  H      -3.831394     -1.127825      0.463360
  H      -4.349557     -1.123462     -1.240227
33
Coordinates from ORCA-job phenylurea_thymine_opt_freq E -910.010013491876
  N       3.279719      0.979056      0.298331
  C       2.734449      1.580884      1.393044
  O       1.614373      2.116110      1.375773
  N       3.480608      1.586650      2.561837
  C       4.517535      0.698365      2.951462
  C       4.549154     -0.635074      2.509829
  C       5.578613     -1.480586      2.930045
  C       6.562726     -1.023632      3.812176
  C       6.512878      0.296376      4.272973
  C       5.504182      1.157606      3.837071
  H       2.752802      1.054567     -0.573603
  H       4.270660      0.793152      0.252145
  H       3.020995      2.103014      3.302284
  H       3.753650     -0.998471      1.864172
  H       5.594319     -2.509863      2.581359
  H       7.354556     -1.690210      4.140918
  H       7.269213      0.661333      4.962318
  H       5.474600      2.191935      4.169849
  O      -1.980246      0.906708      1.182209
  O       1.386430      0.841378     -1.947239
  N      -0.308087      0.875238     -0.379326
  N      -0.614442     -0.158844     -2.429436
  C      -2.444835     -0.183070     -0.886348
  C      -1.606560      0.563231      0.067889
  C      -1.908475     -0.506711     -2.084776
  C      -3.842677     -0.537082     -0.467993
  C       0.239021      0.547544     -1.597523
  H      -2.454437     -1.056068     -2.845090
  H       0.300390      1.408586      0.269604
  H      -0.233205     -0.414534     -3.329372
  H      -4.421207      0.365705     -0.242953
  H      -3.833009     -1.136570      0.448764
  H      -4.359788     -1.099166     -1.251655
33
Coordinates from ORCA-job phenylurea_thymine_opt_freq E -910.010124373150
  N       3.259333      0.937472      0.304567
  C       2.724635      1.552171      1.398957
  O       1.601194      2.078984      1.390372
  N       3.483721      1.576215      2.558158
  C       4.527383      0.697215      2.950864
  C       4.570964     -0.639877      2.519236
  C       5.602999     -1.476926      2.949551
  C       6.581869     -1.006133      3.830454
  C       6.523323      0.317990      4.278522
  C       5.510441      1.169692      3.833875
  H       2.732200      1.013001     -0.566982
  H       4.252477      0.765905      0.249235
  H       3.028206      2.094098      3.300256
  H       3.783628     -1.012491      1.869100
  H       5.626790     -2.508600      2.608885
  H       7.376649     -1.665062      4.167420
  H       7.276013      0.694517      4.965625
  H       5.475245      2.206091      4.159586
  O      -1.970325      0.882389      1.188460
  O       1.380988      0.828991     -1.956645
  N      -0.304309      0.857233     -0.380869
  N      -0.631928     -0.134587     -2.448928
  C      -2.452314     -0.173370     -0.893492
  C      -1.604188      0.551232      0.068136
  C      -1.926257     -0.478874     -2.100740
  C      -3.850852     -0.525194     -0.474487
  C       0.231704      0.542831     -1.606344
  H      -2.481319     -1.009792     -2.867623
  H       0.309890      1.376081      0.272338
  H      -0.255901     -0.379875     -3.353798
  H      -4.420461      0.377211     -0.226621
  H      -3.840967     -1.144960      0.428745
  H      -4.376927     -1.066018     -1.267076
33
Coordinates from ORCA-job phenylurea_thymine_opt_freq E -910.010224296811
  N       3.254390      0.915404      0.304363
  C       2.717404      1.528923      1.398741
  O       1.590998      2.048022      1.391074
  N       3.477460      1.560713      2.556677
  C       4.528193      0.691769      2.951368
  C       4.584210     -0.647555      2.529052
  C       5.620750     -1.475275      2.966331
  C       6.596005     -0.989701      3.843527
  C       6.529218      0.338546      4.278220
  C       5.510033      1.179675      3.827581
  H       2.732573      0.986669     -0.570566
  H       4.246737      0.736671      0.253491
  H       3.017020      2.071698      3.301221
  H       3.806221     -1.029484      1.874295
  H       5.653199     -2.509078      2.633255
  H       7.395299     -1.639981      4.186671
  H       7.279962      0.728032      4.960255
  H       5.469978      2.218006      4.146416
  O      -1.962502      0.864955      1.195035
  O       1.379532      0.815959     -1.961995
  N      -0.300045      0.843260     -0.379207
  N      -0.644791     -0.113541     -2.461761
  C      -2.456894     -0.164785     -0.896685
  C      -1.601284      0.542939      0.070592
  C      -1.939280     -0.455467     -2.110995
  C      -3.856229     -0.514881     -0.477866
  C       0.228430      0.538283     -1.609968
  H      -2.503106     -0.970665     -2.882197
  H       0.317985      1.350756      0.278340
  H      -0.272751     -0.349461     -3.370705
  H      -4.417930      0.386427     -0.209161
  H      -3.847296     -1.153471      0.412238
  H      -4.389586     -1.035803     -1.278900
33
Coordinates from ORCA-job phenylurea_thymine_opt_freq E -910.010336113589
  N       3.248503      0.873041      0.306694
  C       2.715061      1.491060      1.397991
  O       1.584250      1.999873      1.394112
  N       3.484692      1.542653      2.550006
  C       4.542891      0.686588      2.952865
  C       4.616368     -0.656356      2.545071
  C       5.658688     -1.469554      2.996587
  C       6.625435     -0.965183      3.872073
  C       6.544310      0.366925      4.289768
  C       5.518761      1.193133      3.826310
  H       2.730074      0.952162     -0.569065
  H       4.242294      0.705237      0.252468
  H       3.022276      2.053438      3.292851
  H       3.851951     -1.051817      1.884483
  H       5.703850     -2.506297      2.674660
  H       7.429557     -1.603437      4.226390
  H       7.288669      0.773294      4.969059
  H       5.470901      2.233700      4.136321
  O      -1.958607      0.825428      1.203061
  O       1.368211      0.796759     -1.970562
  N      -0.303286      0.814211     -0.379399
  N      -0.674590     -0.082233     -2.483855
  C      -2.475783     -0.153068     -0.907775
  C      -1.606630      0.522641      0.070371
  C      -1.970054     -0.419094     -2.132887
  C      -3.876913     -0.498084     -0.490107
  C       0.214312      0.530133     -1.619350
  H      -2.547327     -0.907557     -2.911486
  H       0.323578      1.301386      0.286021
  H      -0.309246     -0.301194     -3.399760
  H      -4.425272      0.401503     -0.190129
  H      -3.871442     -1.164479      0.379467
  H      -4.421577     -0.987256     -1.303514
33
Coordinates from ORCA-job phenylurea_thymine_opt_freq E -910.010437389964
  N       3.262169      0.860390      0.300252
  C       2.717355      1.467343      1.389649
  O       1.582848      1.968410      1.380470
  N       3.480795      1.524639      2.546493
  C       4.545009      0.679761      2.954684
  C       4.631694     -0.664854      2.557382
  C       5.680911     -1.465578      3.015927
  C       6.642779     -0.947102      3.887955
  C       6.551225      0.387723      4.292771
  C       5.518985      1.201398      3.821910
  H       2.745471      0.929012     -0.577446
  H       4.253025      0.674236      0.257059
  H       3.005832      2.026565      3.287038
  H       3.878534     -1.071331      1.892169
  H       5.735918     -2.504096      2.701337
  H       7.451839     -1.575589      4.248443
  H       7.292253      0.807713      4.967468
  H       5.465833      2.243762      4.124752
  O      -1.959811      0.800771      1.210720
  O       1.364244      0.784077     -1.968923
  N      -0.306715      0.796892     -0.373836
  N      -0.690423     -0.061170     -2.490516
  C      -2.487908     -0.144875     -0.912267
  C      -1.611717      0.510306      0.073414
  C      -1.986852     -0.395181     -2.142912
  C      -3.890596     -0.486928     -0.497632
  C       0.208461      0.526388     -1.618197
  H      -2.571938     -0.866468     -2.926174
  H       0.323868      1.273676      0.297333
  H      -0.328020     -0.266514     -3.410885
  H      -4.430066      0.410244     -0.175262
  H      -3.889341     -1.173610      0.356116
  H      -4.441758     -0.952454     -1.320550
33
Coordinates from ORCA-job phenylurea_thymine_opt_freq E -910.010527990513
  N       3.270155      0.832559      0.297925
  C       2.725649      1.441294      1.384428
  O       1.588863      1.938405      1.375743
  N       3.491319      1.510780      2.539521
  C       4.559370      0.675460      2.956755
  C       4.657847     -0.671106      2.569561
  C       5.711691     -1.459578      3.039003
  C       6.665851     -0.929148      3.911793
  C       6.562990      0.407898      4.305568
  C       5.526904      1.209863      3.823462
  H       2.748234      0.901779     -0.576744
  H       4.261654      0.651927      0.251891
  H       3.014450      2.020154      3.274054
  H       3.914890     -1.088194      1.900280
  H       5.775802     -2.499687      2.731176
  H       7.477762     -1.548948      4.280731
  H       7.297781      0.838881      4.980167
  H       5.465986      2.254058      4.118621
  O      -1.964179      0.759761      1.217994
  O       1.353476      0.773159     -1.968170
  N      -0.316499      0.772358     -0.370985
  N      -0.714228     -0.039654     -2.502309
  C      -2.508644     -0.137270     -0.922401
  C      -1.622838      0.489180      0.073459
  C      -2.012385     -0.368163     -2.159413
  C      -3.913021     -0.474359     -0.510452
  C       0.195134      0.522222     -1.621651
  H      -2.604502     -0.818444     -2.949695
  H       0.320062      1.236603      0.306088
  H      -0.355490     -0.229129     -3.427689
  H      -4.441907      0.420448     -0.164795
  H      -3.916181     -1.181070      0.326831
  H      -4.472090     -0.914480     -1.342008
33
Coordinates from ORCA-job phenylurea_thymine_opt_freq E -910.010617019719
  N       3.281775      0.814849      0.292137
  C       2.734625      1.422620      1.376737
  O       1.596168      1.917784      1.366181
  N       3.497999      1.499505      2.532648
  C       4.570261      0.672994      2.955970
  C       4.677291     -0.675652      2.576884
  C       5.735256     -1.453479      3.054987
  C       6.683031     -0.914276      3.928759
  C       6.570763      0.424150      4.315064
  C       5.531764      1.216225      3.823608
  H       2.748870      0.872703     -0.576840
  H       4.272480      0.632062      0.244993
  H       3.017219      2.016112      3.259069
  H       3.941221     -1.103264      1.905329
  H       5.806137     -2.494729      2.752108
  H       7.496932     -1.527444      4.304175
  H       7.300218      0.862641      4.990544
  H       5.462558      2.261959      4.111691
  O      -1.969494      0.719819      1.227333
  O       1.346392      0.765956     -1.958122
  N      -0.325681      0.750273     -0.363814
  N      -0.727685     -0.024643     -2.503529
  C      -2.525741     -0.130955     -0.929307
  C      -1.633408      0.468555      0.076536
  C      -2.028853     -0.345781     -2.169115
  C      -3.932525     -0.462626     -0.522682
  C       0.186404      0.519875     -1.618379
  H      -2.622645     -0.778520     -2.967933
  H       0.313702      1.205656      0.316087
  H      -0.370357     -0.198758     -3.432617
  H      -4.452828      0.430447     -0.159860
  H      -3.941266     -1.184484      0.301575
  H      -4.496676     -0.882017     -1.361478
33
Coordinates from ORCA-job phenylurea_thymine_opt_freq E -910.010660082000
  N       3.287470      0.784773      0.290142
  C       2.742492      1.395882      1.375363
  O       1.601720      1.886432      1.367390
  N       3.506788      1.481795      2.529091
  C       4.586202      0.666772      2.957180
  C       4.704660     -0.681887      2.584834
  C       5.766494     -1.448179      3.071860
  C       6.705408     -0.896531      3.948116
  C       6.580771      0.444542      4.326666
  C       5.537303      1.224678      3.825640
  H       2.742547      0.835430     -0.572076
  H       4.279171      0.608579      0.236321
  H       3.026964      2.009024      3.247803
  H       3.975038     -1.116332      1.910425
  H       5.846593     -2.490169      2.773458
  H       7.522242     -1.501170      4.330793
  H       7.303489      0.891529      5.003697
  H       5.453907      2.271794      4.105315
  O      -1.978987      0.684087      1.232567
  O       1.339381      0.763085     -1.951816
  N      -0.336864      0.732210     -0.358467
  N      -0.746196     -0.011375     -2.514958
  C      -2.544287     -0.123522     -0.939119
  C      -1.646337      0.451716      0.076589
  C      -2.049704     -0.323961     -2.182995
  C      -3.953121     -0.448838     -0.535535
  C       0.175058      0.520170     -1.617498
  H      -2.646622     -0.738805     -2.988987
  H       0.305957      1.185714      0.323553
  H      -0.389955     -0.169733     -3.447385
  H      -4.465418      0.443506     -0.159683
  H      -3.965961     -1.181387      0.279161
  H      -4.522298     -0.852270     -1.378707
33
Coordinates from ORCA-job phenylurea_thymine_opt_freq E -910.010743068047
  N       3.283022      0.769704      0.291898
  C       2.741961      1.388891      1.375807
  O       1.602549      1.882365      1.368000
  N       3.507941      1.477588      2.526944
  C       4.591318      0.668142      2.954399
  C       4.714721     -0.681502      2.582570
  C       5.777393     -1.444046      3.074006
  C       6.712036     -0.888788      3.952432
  C       6.582005      0.451540      4.330926
  C       5.537579      1.228071      3.827224
  H       2.737736      0.820384     -0.570176
  H       4.274813      0.594263      0.236940
  H       3.032896      2.014624      3.243246
  H       3.986430     -1.120848      1.907902
  H       5.861301     -2.486043      2.776766
  H       7.529480     -1.490972      4.337682
  H       7.301594      0.899620      5.010525
  H       5.447729      2.274928      4.105815
  O      -1.976478      0.662959      1.237145
  O       1.335612      0.758308     -1.948895
  N      -0.337119      0.719016     -0.356963
  N      -0.748421     -0.007379     -2.514403
  C      -2.548829     -0.120364     -0.941316
  C      -1.647106      0.439936      0.078570
  C      -2.054794     -0.313071     -2.185867
  C      -3.959681     -0.440400     -0.540088
  C       0.171676      0.515729     -1.618047
  H      -2.651271     -0.718412     -2.997096
  H       0.306239      1.164050      0.325327
  H      -0.394266     -0.160199     -3.448419
  H      -4.467224      0.452709     -0.159602
  H      -3.975914     -1.177029      0.270832
  H      -4.531023     -0.836217     -1.385344
33
Coordinates from ORCA-job phenylurea_thymine_opt_freq E -910.010801356237
  N       3.275298      0.759094      0.294036
  C       2.736876      1.381120      1.378676
  O       1.597816      1.874490      1.371607
  N       3.504709      1.470096      2.528332
  C       4.594443      0.667261      2.951317
  C       4.723849     -0.681825      2.578522
  C       5.787948     -1.441313      3.071754
  C       6.718571     -0.881644      3.951753
  C       6.582384      0.457658      4.331727
  C       5.535462      1.230673      3.828173
  H       2.732521      0.811126     -0.569225
  H       4.266889      0.582100      0.239461
  H       3.032844      2.009425      3.243770
  H       3.995031     -1.123300      1.904787
  H       5.876527     -2.483003      2.775127
  H       7.537623     -1.480991      4.338098
  H       7.299273      0.906887      5.013439
  H       5.438107      2.276456      4.108005
  O      -1.977611      0.658329      1.238646
  O       1.335368      0.754555     -1.945414
  N      -0.336182      0.712271     -0.354494
  N      -0.746229     -0.009545     -2.512953
  C      -2.549606     -0.117432     -0.942161
  C      -1.647408      0.437009      0.080232
  C      -2.055449     -0.308665     -2.186123
  C      -3.963009     -0.431510     -0.543990
  C       0.171472      0.511237     -1.615649
  H      -2.651712     -0.708732     -3.000154
  H       0.306576      1.154107      0.327362
  H      -0.393108     -0.159292     -3.447708
  H      -4.468537      0.464383     -0.167347
  H      -3.983468     -1.165835      0.268866
  H      -4.533364     -0.827634     -1.389731
33
Coordinates from ORCA-job phenylurea_thymine_opt_freq E -910.010868151152
  N       3.268555      0.730770      0.297551
  C       2.732433      1.356625      1.382179
  O       1.592908      1.848043      1.375612
  N       3.501620      1.448897      2.530237
  C       4.604301      0.662465      2.949272
  C       4.751041     -0.684521      2.575517
  C       5.820451     -1.433324      3.073634
  C       6.739808     -0.861894      3.958136
  C       6.586016      0.475194      4.339559
  C       5.532182      1.237034      3.833640
  H       2.730432      0.786324     -0.568382
  H       4.260149      0.552497      0.244573
  H       3.033689      1.995448      3.242446
  H       4.025978     -1.132562      1.901577
  H       5.922591     -2.473949      2.778030
  H       7.563796     -1.452125      4.348128
  H       7.294740      0.930378      5.025891
  H       5.417419      2.280517      4.115105
  O      -1.983481      0.642099      1.240193
  O       1.330432      0.743388     -1.942116
  N      -0.339232      0.693692     -0.351287
  N      -0.753297     -0.008192     -2.516670
  C      -2.559437     -0.109201     -0.947715
  C      -1.653143      0.427469      0.080811
  C      -2.067436     -0.293925     -2.192953
  C      -3.977372     -0.410134     -0.554077
  C       0.165188      0.500839     -1.614292
  H      -2.666731     -0.678921     -3.012022
  H       0.304989      1.127935      0.332434
  H      -0.403640     -0.148633     -3.454005
  H      -4.475806      0.490272     -0.178660
  H      -4.006709     -1.144515      0.258344
  H      -4.548528     -0.800432     -1.401950
33
Coordinates from ORCA-job phenylurea_thymine_opt_freq E -910.010925116044
  N       3.266171      0.711661      0.298620
  C       2.729312      1.334830      1.384182
  O       1.588663      1.823646      1.377832
  N       3.497271      1.427229      2.533177
  C       4.611749      0.656360      2.948731
  C       4.775829     -0.687299      2.572171
  C       5.851727     -1.425411      3.072106
  C       6.760400     -0.844359      3.961517
  C       6.588404      0.489420      4.347023
  C       5.526942      1.240341      3.840551
  H       2.730456      0.768309     -0.568665
  H       4.257408      0.530689      0.247454
  H       3.030716      1.978402      3.241490
  H       4.054407     -1.141776      1.899021
  H       5.967454     -2.464218      2.775334
  H       7.590007     -1.425585      4.353196
  H       7.288736      0.950066      5.038359
  H       5.396143      2.280707      4.126275
  O      -1.993254      0.637080      1.239477
  O       1.327329      0.731258     -1.936946
  N      -0.343695      0.679113     -0.347246
  N      -0.758207     -0.011563     -2.517245
  C      -2.569023     -0.101494     -0.952528
  C      -1.660705      0.423577      0.080552
  C      -2.076641     -0.285146     -2.197654
  C      -3.991187     -0.389565     -0.563899
  C       0.160701      0.489912     -1.610532
  H      -2.678282     -0.659946     -3.019662
  H       0.301460      1.109486      0.338598
  H      -0.410840     -0.145394     -3.456352
  H      -4.484392      0.516162     -0.194285
  H      -4.029828     -1.120432      0.251187
  H      -4.561327     -0.778500     -1.413096
33
Coordinates from ORCA-job phenylurea_thymine_opt_freq E -910.010997678788
  N       3.266303      0.684763      0.300480
  C       2.727179      1.303957      1.386145
  O       1.584835      1.789671      1.379688
  N       3.491868      1.397057      2.537321
  C       4.620653      0.647290      2.950989
  C       4.810789     -0.690432      2.567927
  C       5.897263     -1.412223      3.068545
  C       6.790374     -0.819696      3.966261
  C       6.590661      0.507764      4.360289
  C       5.517783      1.242523      3.853791
  H       2.732265      0.741682     -0.568004
  H       4.257544      0.503369      0.250656
  H       3.025871      1.955522      3.239820
  H       4.096668     -1.155500      1.895541
  H       6.033285     -2.447236      2.767243
  H       7.628739     -1.387645      4.358778
  H       7.277900      0.976062      5.059630
  H       5.365224      2.277578      4.147819
  O      -2.006812      0.635564      1.236055
  O       1.322242      0.711491     -1.932512
  N      -0.350895      0.660088     -0.344276
  N      -0.767931     -0.016118     -2.519331
  C      -2.584080     -0.089815     -0.959809
  C      -1.672131      0.420815      0.077827
  C      -2.091117     -0.274137     -2.204890
  C      -4.010990     -0.360615     -0.576323
  C       0.153475      0.473601     -1.607973
  H      -2.696546     -0.637334     -3.029222
  H       0.296269      1.085498      0.345004
  H      -0.423857     -0.143909     -3.460511
  H      -4.496603      0.552145     -0.213827
  H      -4.061491     -1.086667      0.242282
  H      -4.580834     -0.747554     -1.426674
33
Coordinates from ORCA-job phenylurea_thymine_opt_freq E -910.011085949493
  N       3.266687      0.663967      0.302039
  C       2.723423      1.274544      1.388688
  O       1.579784      1.758788      1.382161
  N       3.481728      1.363106      2.544486
  C       4.624763      0.635224      2.955747
  C       4.845062     -0.693392      2.560005
  C       5.945342     -1.396576      3.056547
  C       6.822014     -0.794665      3.964412
  C       6.589685      0.523016      4.373617
  C       5.502366      1.239534      3.871147
  H       2.731912      0.718731     -0.566273
  H       4.257578      0.480963      0.252970
  H       3.015419      1.927959      3.241058
  H       4.138795     -1.171373      1.890072
  H       6.104556     -2.425459      2.745675
  H       7.671641     -1.347617      4.354033
  H       7.261985      0.998402      5.082658
  H       5.326428      2.266860      4.178996
  O      -2.023036      0.652870      1.229043
  O       1.320142      0.686637     -1.926074
  N      -0.358126      0.646978     -0.341292
  N      -0.773450     -0.028600     -2.517233
  C      -2.597818     -0.076541     -0.966141
  C      -1.684390      0.427707      0.073637
  C      -2.100922     -0.270806     -2.208692
  C      -4.029381     -0.328808     -0.588498
  C       0.149298      0.454274     -1.603180
  H      -2.708612     -0.629811     -3.033101
  H       0.290348      1.070508      0.351021
  H      -0.430660     -0.157348     -3.458828
  H      -4.508708      0.592808     -0.240068
  H      -4.092587     -1.044348      0.238332
  H      -4.597360     -0.719973     -1.438228
33
Coordinates from ORCA-job phenylurea_thymine_opt_freq E -910.011191936077
  N       3.265008      0.637004      0.306507
  C       2.718562      1.242316      1.392845
  O       1.574429      1.727047      1.386333
  N       3.470549      1.327586      2.552834
  C       4.626259      0.621284      2.963643
  C       4.881286     -0.695866      2.551287
  C       5.997947     -1.376834      3.042297
  C       6.856709     -0.766473      3.961572
  C       6.587287      0.538218      4.389499
  C       5.483542      1.233277      3.892491
  H       2.727897      0.688813     -0.560841
  H       4.255960      0.455130      0.256543
  H       3.003798      1.899026      3.244076
  H       4.186115     -1.190152      1.883043
  H       6.183348     -2.397388      2.718520
  H       7.719381     -1.302184      4.346412
  H       7.242664      1.021220      5.109141
  H       5.282698      2.251076      4.216580
  O      -2.036596      0.678175      1.218871
  O       1.317740      0.656827     -1.923486
  N      -0.365022      0.637827     -0.342921
  N      -0.781710     -0.040051     -2.517669
  C      -2.612122     -0.060439     -0.973249
  C      -1.696094      0.439595      0.066386
  C      -2.112009     -0.267685     -2.213008
  C      -4.047181     -0.294952     -0.599119
  C       0.144450      0.434161     -1.602621
  H      -2.722099     -0.625848     -3.035999
  H       0.286097      1.058158      0.351822
  H      -0.439065     -0.175881     -3.458387
  H      -4.518985      0.634635     -0.261586
  H      -4.121245     -1.001617      0.234391
  H      -4.615694     -0.688449     -1.447465
33
Coordinates from ORCA-job phenylurea_thymine_opt_freq E -910.011314933163
  N       3.258331      0.615464      0.313024
  C       2.709850      1.216150      1.399668
  O       1.567066      1.705113      1.393353
  N       3.455348      1.293722      2.564130
  C       4.621046      0.604417      2.972983
  C       4.910287     -0.699268      2.540229
  C       6.044518     -1.357587      3.022325
  C       6.887899     -0.740856      3.951435
  C       6.582490      0.548877      4.400808
  C       5.461249      1.222033      3.912962
  H       2.717695      0.665016     -0.552335
  H       4.248746      0.432155      0.261832
  H       2.988482      1.868065      3.253100
  H       4.225437     -1.210981      1.874531
  H       6.255067     -2.368316      2.683170
  H       7.764531     -1.259230      4.328143
  H       7.222657      1.038582      5.129518
  H       5.237133      2.229298      4.254582
  O      -2.048912      0.721896      1.205396
  O       1.319392      0.626032     -1.919982
  N      -0.370232      0.643036     -0.346530
  N      -0.783994     -0.055213     -2.514940
  C      -2.621148     -0.044058     -0.978513
  C      -1.705713      0.463121      0.057881
  C      -2.115629     -0.272172     -2.212795
  C      -4.058749     -0.264980     -0.607532
  C       0.143793      0.417287     -1.601008
  H      -2.725164     -0.639027     -3.032444
  H       0.282847      1.061799      0.348841
  H      -0.436668     -0.208403     -3.451312
  H      -4.525511      0.671366     -0.281832
  H      -4.140976     -0.961933      0.233437
  H      -4.627262     -0.663848     -1.453383
33
Coordinates from ORCA-job phenylurea_thymine_opt_freq E -910.011435967980
  N       3.248988      0.580261      0.323230
  C       2.701946      1.185458      1.408355
  O       1.561279      1.679198      1.401652
  N       3.445086      1.262555      2.574076
  C       4.618639      0.588353      2.982358
  C       4.941762     -0.702648      2.532894
  C       6.092299     -1.337010      3.009916
  C       6.920189     -0.712338      3.946933
  C       6.580709      0.562799      4.413120
  C       5.443611      1.212750      3.931671
  H       2.706062      0.630315     -0.540826
  H       4.239386      0.397762      0.270569
  H       2.978911      1.839495      3.262148
  H       4.269713     -1.232397      1.866966
  H       6.327247     -2.338122      2.658269
  H       7.809558     -1.213025      4.317489
  H       7.206446      1.060372      5.148945
  H       5.196455      2.210280      4.285982
  O      -2.058534      0.755181      1.192401
  O       1.317398      0.596538     -1.920748
  N      -0.377272      0.650932     -0.355253
  N      -0.792946     -0.060481     -2.518421
  C      -2.632320     -0.026392     -0.985790
  C      -1.715769      0.483672      0.047805
  C      -2.124970     -0.269152     -2.216415
  C      -4.071438     -0.237428     -0.615441
  C       0.138638      0.405915     -1.605306
  H      -2.734039     -0.641436     -3.034108
  H       0.279763      1.061814      0.340572
  H      -0.439615     -0.231415     -3.449437
  H      -4.531184      0.702055     -0.288980
  H      -4.158689     -0.934454      0.225126
  H      -4.643402     -0.631848     -1.461010
33
Coordinates from ORCA-job phenylurea_thymine_opt_freq E -910.011568657358
  N       3.236641      0.551118      0.335052
  C       2.692194      1.160340      1.420355
  O       1.553940      1.658317      1.413491
  N       3.435254      1.235238      2.586253
  C       4.615458      0.572200      2.990003
  C       4.966051     -0.707287      2.526547
  C       6.130609     -1.321419      2.997357
  C       6.947505     -0.688878      3.938076
  C       6.581639      0.574152      4.417575
  C       5.430432      1.203809      3.944083
  H       2.692854      0.604571     -0.528018
  H       4.226657      0.367286      0.281948
  H       2.970062      1.809933      3.276856
  H       4.302239     -1.251511      1.861583
  H       6.384778     -2.314345      2.635937
  H       7.847976     -1.174500      4.301777
  H       7.197860      1.078572      5.156732
  H       5.163656      2.193075      4.307396
  O      -2.072946      0.795032      1.178858
  O       1.316950      0.572839     -1.916101
  N      -0.386497      0.672397     -0.362647
  N      -0.795499     -0.067618     -2.517717
  C      -2.639851     -0.010972     -0.992367
  C      -1.727218      0.510301      0.038750
  C      -2.128154     -0.271298     -2.217151
  C      -4.080753     -0.216968     -0.625139
  C       0.135083      0.402535     -1.605031
  H      -2.732697     -0.653994     -3.033523
  H       0.272808      1.074601      0.333393
  H      -0.431015     -0.260232     -3.440173
  H      -4.536858      0.723877     -0.297883
  H      -4.171967     -0.915276      0.214137
  H      -4.653285     -0.608338     -1.471670
33
Coordinates from ORCA-job phenylurea_thymine_opt_freq E -910.011694662153
  N       3.227245      0.498592      0.349244
  C       2.686830      1.116081      1.433865
  O       1.548149      1.611294      1.428073
  N       3.434597      1.200448      2.596071
  C       4.625002      0.556972      2.996406
  C       5.008043     -0.711002      2.525938
  C       6.185722     -1.300446      2.997071
  C       6.986097     -0.654465      3.941877
  C       6.589811      0.596584      4.428215
  C       5.425248      1.201070      3.956572
  H       2.684191      0.557753     -0.513921
  H       4.218821      0.323163      0.293835
  H       2.970246      1.775417      3.287438
  H       4.357806     -1.270550      1.858718
  H       6.463109     -2.285231      2.630588
  H       7.896953     -1.121650      4.303907
  H       7.193223      1.111114      5.170970
  H       5.133288      2.181719      4.323949
  O      -2.093850      0.812046      1.167369
  O       1.307660      0.545899     -1.911372
  N      -0.404303      0.683185     -0.371489
  N      -0.811246     -0.064695     -2.524150
  C      -2.658894      0.008689     -1.005040
  C      -1.746864      0.526089      0.028422
  C      -2.146235     -0.258889     -2.227116
  C      -4.102625     -0.188254     -0.641810
  C       0.120757      0.399384     -1.608704
  H      -2.748269     -0.639686     -3.046261
  H       0.259855      1.065870      0.328256
  H      -0.437807     -0.271046     -3.439999
  H      -4.549617      0.752728     -0.303041
  H      -4.201078     -0.896648      0.188303
  H      -4.677959     -0.563976     -1.493443
33
Coordinates from ORCA-job phenylurea_thymine_opt_freq E -910.011822088409
  N       3.217144      0.470244      0.364004
  C       2.677020      1.081441      1.453785
  O       1.535029      1.567358      1.452762
  N       3.429964      1.167381      2.613033
  C       4.632982      0.541885      3.002088
  C       5.039116     -0.715721      2.524740
  C       6.228706     -1.286879      2.988609
  C       7.019887     -0.629597      3.933019
  C       6.602656      0.612033      4.426651
  C       5.425289      1.196931      3.963198
  H       2.674356      0.532617     -0.498847
  H       4.210012      0.302183      0.306568
  H       2.963937      1.733236      3.309837
  H       4.393416     -1.283619      1.859920
  H       6.522521     -2.264986      2.617370
  H       7.940321     -1.082289      4.289355
  H       7.200213      1.133673      5.169233
  H       5.113922      2.169779      4.335364
  O      -2.127673      0.852666      1.150694
  O       1.302119      0.524935     -1.894408
  N      -0.425409      0.710885     -0.374146
  N      -0.812156     -0.076231     -2.518670
  C      -2.672559      0.024334     -1.017286
  C      -1.770211      0.555150      0.018340
  C      -2.151052     -0.262904     -2.230877
  C      -4.120533     -0.165589     -0.664799
  C       0.110669      0.401490     -1.599903
  H      -2.745075     -0.653288     -3.051258
  H       0.238885      1.078265      0.330952
  H      -0.425117     -0.302294     -3.424225
  H      -4.565383      0.777697     -0.330105
  H      -4.228791     -0.873493      0.164580
  H      -4.690297     -0.539739     -1.520837
33
Coordinates from ORCA-job phenylurea_thymine_opt_freq E -910.011941478139
  N       3.218347      0.413169      0.375042
  C       2.676965      1.019836      1.467562
  O       1.527106      1.486217      1.473762
  N       3.436420      1.121405      2.620843
  C       4.656011      0.527564      3.004954
  C       5.093526     -0.719517      2.530498
  C       6.293389     -1.264496      2.999178
  C       7.065261     -0.588563      3.946189
  C       6.618575      0.644009      4.436697
  C       5.429904      1.201457      3.969244
  H       2.674636      0.479557     -0.487147
  H       4.215418      0.273435      0.309935
  H       2.965196      1.681846      3.318959
  H       4.465505     -1.299707      1.861274
  H       6.611173     -2.235552      2.629441
  H       7.994017     -1.020723      4.306532
  H       7.202044      1.178825      5.181143
  H       5.092364      2.166106      4.339991
  O      -2.161712      0.852953      1.141459
  O       1.287070      0.494413     -1.878125
  N      -0.452254      0.706473     -0.375174
  N      -0.833277     -0.070921     -2.523248
  C      -2.702029      0.046558     -1.035184
  C      -1.799836      0.560831      0.009075
  C      -2.177291     -0.242090     -2.246684
  C      -4.154734     -0.126991     -0.692546
  C       0.089099      0.394417     -1.597487
  H      -2.770183     -0.620685     -3.073231
  H       0.215722      1.046786      0.340358
  H      -0.442528     -0.301294     -3.426093
  H      -4.587826      0.818376     -0.348688
  H      -4.278180     -0.843698      0.127089
  H      -4.723994     -0.482438     -1.556880
33
Coordinates from ORCA-job phenylurea_thymine_opt_freq E -910.012049169445
  N       3.218234      0.404850      0.387774
  C       2.669366      0.985744      1.489842
  O       1.509446      1.427154      1.507795
  N       3.433670      1.089616      2.639982
  C       4.668877      0.518066      3.010879
  C       5.119254     -0.722460      2.533813
  C       6.328447     -1.254127      2.992573
  C       7.096650     -0.569344      3.936623
  C       6.637911      0.657368      4.430591
  C       5.439504      1.201164      3.971302
  H       2.669905      0.464103     -0.472209
  H       4.217703      0.285077      0.316462
  H       2.954815      1.633898      3.345115
  H       4.495108     -1.304451      1.865907
  H       6.656725     -2.220472      2.619906
  H       8.032586     -0.990442      4.291516
  H       7.219617      1.197878      5.172345
  H       5.091569      2.160507      4.346075
  O      -2.201340      0.889139      1.123450
  O       1.279926      0.475982     -1.853961
  N      -0.474587      0.719999     -0.370523
  N      -0.831199     -0.086981     -2.513358
  C      -2.717892      0.058978     -1.049961
  C      -1.825738      0.583010     -0.001083
  C      -2.180086     -0.248968     -2.251688
  C      -4.175239     -0.103317     -0.722296
  C       0.078073      0.390744     -1.582833
  H      -2.766534     -0.635705     -3.078871
  H       0.189585      1.048095      0.354941
  H      -0.434905     -0.330163     -3.410418
  H      -4.608017      0.848485     -0.396276
  H      -4.312892     -0.808535      0.104907
  H      -4.734638     -0.467334     -1.589583
33
Coordinates from ORCA-job phenylurea_thymine_opt_freq E -910.012137098837
  N       3.221628      0.387656      0.392615
  C       2.667043      0.950852      1.499560
  O       1.499162      1.371899      1.527064
  N       3.433810      1.059663      2.647133
  C       4.681827      0.508661      3.013012
  C       5.147288     -0.728312      2.538348
  C       6.362950     -1.243343      2.998219
  C       7.122399     -0.546794      3.941416
  C       6.649288      0.676256      4.430568
  C       5.444049      1.204326      3.969711
  H       2.668395      0.445482     -0.464417
  H       4.223352      0.295716      0.312442
  H       2.947424      1.590951      3.356802
  H       4.535590     -1.316842      1.865713
  H       6.704180     -2.205970      2.627528
  H       8.063209     -0.954979      4.298454
  H       7.224320      1.226343      5.170490
  H       5.086090      2.160457      4.343226
  O      -2.224086      0.894167      1.116521
  O       1.275085      0.453320     -1.836397
  N      -0.488768      0.705922     -0.364163
  N      -0.838498     -0.088013     -2.510521
  C      -2.734995      0.071917     -1.061342
  C      -1.843745      0.584894     -0.006053
  C      -2.190419     -0.239477     -2.259603
  C      -4.195403     -0.076616     -0.743381
  C       0.068617      0.377381     -1.574104
  H      -2.776682     -0.620348     -3.089614
  H       0.174769      1.020841      0.369557
  H      -0.444307     -0.332875     -3.407950
  H      -4.622570      0.880306     -0.424768
  H      -4.345593     -0.776538      0.086064
  H      -4.751505     -0.439347     -1.613391
33
Coordinates from ORCA-job phenylurea_thymine_opt_freq E -910.012209278729
  N       3.226826      0.380987      0.406545
  C       2.663232      0.922000      1.518596
  O       1.487033      1.320364      1.555287
  N       3.430602      1.034912      2.664781
  C       4.688730      0.503790      3.021942
  C       5.160026     -0.727549      2.542823
  C       6.383488     -1.232043      2.991997
  C       7.144751     -0.531024      3.931203
  C       6.665454      0.688090      4.423254
  C       5.451955      1.206144      3.970351
  H       2.665355      0.426758     -0.446150
  H       4.229706      0.312683      0.319082
  H       2.936664      1.554038      3.380716
  H       4.556535     -1.316487      1.865591
  H       6.730679     -2.190531      2.615830
  H       8.091641     -0.930733      4.281580
  H       7.241006      1.243617      5.158657
  H       5.091397      2.159956      4.347280
  O      -2.249861      0.912385      1.104194
  O       1.268923      0.438488     -1.813138
  N      -0.501656      0.696848     -0.355856
  N      -0.836542     -0.098401     -2.504447
  C      -2.747630      0.082346     -1.074213
  C      -1.861952      0.592842     -0.013265
  C      -2.191174     -0.240126     -2.264552
  C      -4.211083     -0.053884     -0.769035
  C       0.062955      0.365093     -1.562821
  H      -2.773911     -0.624438     -3.095528
  H       0.155650      1.006245      0.387168
  H      -0.443962     -0.349106     -3.400924
  H      -4.637180      0.910697     -0.472336
  H      -4.373055     -0.737120      0.071936
  H      -4.760696     -0.429281     -1.637810
33
Coordinates from ORCA-job phenylurea_thymine_opt_freq E -910.012294571414
  N       3.217787      0.381065      0.419258
  C       2.652972      0.910178      1.535763
  O       1.474168      1.300456      1.579829
  N       3.423903      1.020267      2.680490
  C       4.690583      0.495609      3.029248
  C       5.171350     -0.733283      2.541797
  C       6.403264     -1.224286      2.983341
  C       7.163491     -0.518749      3.920084
  C       6.675734      0.694144      4.417735
  C       5.454496      1.201901      3.973231
  H       2.651160      0.425206     -0.430061
  H       4.220658      0.321863      0.326652
  H       2.930058      1.529125      3.402377
  H       4.573032     -1.327407      1.861093
  H       6.758493     -2.177987      2.602367
  H       8.116401     -0.909491      4.264080
  H       7.250162      1.254510      5.150315
  H       5.090847      2.152397      4.355361
  O      -2.266273      0.937421      1.091881
  O       1.270242      0.421644     -1.799228
  N      -0.508143      0.690731     -0.351372
  N      -0.833915     -0.108806     -2.499395
  C      -2.754260      0.089440     -1.083157
  C      -1.873118      0.602979     -0.019279
  C      -2.189834     -0.244488     -2.267158
  C      -4.220153     -0.037195     -0.787417
  C       0.060844      0.349872     -1.551927
  H      -2.769613     -0.633260     -3.098318
  H       0.148638      0.998372      0.392478
  H      -0.437726     -0.367655     -3.391796
  H      -4.645665      0.933568     -0.510285
  H      -4.390360     -0.705204      0.064094
  H      -4.765320     -0.425380     -1.653341
33
Coordinates from ORCA-job phenylurea_thymine_opt_freq E -910.012366721873
  N       3.213322      0.360285      0.427618
  C       2.649261      0.893053      1.543752
  O       1.470448      1.281926      1.587299
  N       3.420834      1.005596      2.688090
  C       4.691488      0.488909      3.032946
  C       5.183441     -0.734326      2.541325
  C       6.421320     -1.213342      2.979760
  C       7.177486     -0.502232      3.915242
  C       6.679566      0.705256      4.416020
  C       5.452061      1.201158      3.975469
  H       2.644813      0.407065     -0.420111
  H       4.216220      0.305449      0.333780
  H       2.926799      1.511479      3.411956
  H       4.593021     -1.334349      1.856709
  H       6.784898     -2.162588      2.595380
  H       8.135116     -0.884469      4.255665
  H       7.250528      1.270865      5.147247
  H       5.079956      2.147704      4.359360
  O      -2.275544      0.939529      1.089906
  O       1.269565      0.407820     -1.786160
  N      -0.512692      0.680690     -0.346177
  N      -0.836032     -0.110614     -2.498545
  C      -2.759992      0.097444     -1.088490
  C      -1.880751      0.603164     -0.019598
  C      -2.193341     -0.237909     -2.270505
  C      -4.228237     -0.019948     -0.799377
  C       0.059306      0.338456     -1.545210
  H      -2.770977     -0.622045     -3.105405
  H       0.144073      0.983671      0.398134
  H      -0.434807     -0.372153     -3.387858
  H      -4.649512      0.954050     -0.527045
  H      -4.405210     -0.684395      0.053558
  H      -4.772523     -0.407640     -1.665996
33
Coordinates from ORCA-job phenylurea_thymine_opt_freq E -910.012464021574
  N       3.202760      0.331009      0.453202
  C       2.639349      0.860253      1.572920
  O       1.457836      1.237554      1.620359
  N       3.416461      0.978997      2.713811
  C       4.696287      0.478851      3.043955
  C       5.204124     -0.733513      2.541937
  C       6.455117     -1.192682      2.965067
  C       7.209360     -0.473359      3.895137
  C       6.697136      0.723512      4.406441
  C       5.456923      1.199862      3.981165
  H       2.629975      0.377076     -0.391488
  H       4.205817      0.282826      0.357339
  H       2.924465      1.480366      3.442071
  H       4.622130     -1.339028      1.853282
  H       6.830844     -2.133279      2.571180
  H       8.177074     -0.841432      4.222494
  H       7.266736      1.296406      5.133018
  H       5.071744      2.138508      4.371648
  O      -2.306716      0.952465      1.079242
  O       1.264658      0.381946     -1.754558
  N      -0.528448      0.666829     -0.334051
  N      -0.835227     -0.125999     -2.491250
  C      -2.772483      0.111115     -1.103878
  C      -1.902428      0.608024     -0.023503
  C      -2.197040     -0.233989     -2.278168
  C      -4.246666      0.014340     -0.834361
  C       0.053454      0.315951     -1.526270
  H      -2.766965     -0.612631     -3.120874
  H       0.124918      0.960777      0.414448
  H      -0.420846     -0.394337     -3.372456
  H      -4.660816      0.996605     -0.581280
  H      -4.441836     -0.636525      0.024982
  H      -4.783792     -0.378943     -1.702822
33
Coordinates from ORCA-job phenylurea_thymine_opt_freq E -910.012510408755
  N       3.201884      0.310698      0.465712
  C       2.635332      0.831812      1.587966
  O       1.449904      1.195976      1.637669
  N       3.413936      0.955978      2.727435
  C       4.701504      0.472001      3.049563
  C       5.221639     -0.732864      2.543787
  C       6.480583     -1.177642      2.958731
  C       7.230728     -0.450545      3.886018
  C       6.706949      0.739708      4.401407
  C       5.458962      1.201431      3.983397
  H       2.627502      0.355202     -0.378024
  H       4.205331      0.274705      0.368427
  H       2.919061      1.451995      3.457568
  H       4.646597     -1.342065      1.853207
  H       6.865961     -2.112517      2.560660
  H       8.204648     -0.807537      4.207265
  H       7.273686      1.318633      5.125451
  H       5.063249      2.134566      4.376640
  O      -2.326026      0.950394      1.076217
  O       1.260954      0.358951     -1.732773
  N      -0.539751      0.650051     -0.324140
  N      -0.837620     -0.136478     -2.484985
  C      -2.782908      0.121835     -1.113559
  C      -1.916422      0.605073     -0.024174
  C      -2.202850     -0.227255     -2.284228
  C      -4.260850      0.043372     -0.857256
  C       0.048003      0.296828     -1.513224
  H      -2.769372     -0.596360     -3.133345
  H       0.111557      0.935304      0.428984
  H      -0.416871     -0.406172     -3.362831
  H      -4.666177      1.031447     -0.612530
  H      -4.471188     -0.601478      0.002940
  H      -4.794029     -0.347489     -1.729233
33
Coordinates from ORCA-job phenylurea_thymine_opt_freq E -910.012561750050
  N       3.199343      0.302433      0.481504
  C       2.628699      0.808921      1.608199
  O       1.438242      1.156094      1.662100
  N       3.409574      0.937421      2.745783
  C       4.704170      0.467037      3.057462
  C       5.231150     -0.731529      2.546652
  C       6.498695     -1.164922      2.947385
  C       7.249709     -0.431578      3.869199
  C       6.719203      0.753270      4.390650
  C       5.463486      1.203695      3.984643
  H       2.623285      0.342681     -0.361390
  H       4.203089      0.280411      0.382549
  H       2.912911      1.429538      3.476871
  H       4.657145     -1.341220      1.857638
  H       6.889939     -2.094883      2.543799
  H       8.230168     -0.779499      4.180439
  H       7.287337      1.336675      5.110022
  H       5.061116      2.132392      4.381689
  O      -2.345027      0.941982      1.074570
  O       1.259040      0.333210     -1.708572
  N      -0.549814      0.629905     -0.311535
  N      -0.835054     -0.154823     -2.474787
  C      -2.790124      0.130146     -1.123476
  C      -1.928260      0.597561     -0.023571
  C      -2.204263     -0.224126     -2.289838
  C      -4.272049      0.073349     -0.883350
  C       0.044665      0.273110     -1.496422
  H      -2.766779     -0.581473     -3.146431
  H       0.098070      0.907805      0.447162
  H      -0.406385     -0.424917     -3.348827
  H      -4.666596      1.067749     -0.646675
  H      -4.501171     -0.565898     -0.023911
  H      -4.799611     -0.312963     -1.760791
33
Coordinates from ORCA-job phenylurea_thymine_opt_freq E -910.012604379605
  N       3.199655      0.288344      0.491825
  C       2.624480      0.783573      1.620711
  O       1.429726      1.116430      1.677644
  N       3.405568      0.918473      2.757382
  C       4.706300      0.462213      3.064551
  C       5.243961     -0.729177      2.549177
  C       6.518558     -1.150110      2.940552
  C       7.266179     -0.410666      3.860333
  C       6.725326      0.767358      4.387159
  C       5.462972      1.205546      3.988804
  H       2.622788      0.321968     -0.351056
  H       4.203548      0.280474      0.391185
  H       2.905259      1.409413      3.486985
  H       4.673177     -1.341185      1.861581
  H       6.917788     -2.074535      2.532221
  H       8.252155     -0.748341      4.165332
  H       7.291174      1.355055      5.104865
  H       5.052565      2.129111      4.389621
  O      -2.353083      0.929567      1.074828
  O       1.257259      0.304670     -1.696705
  N      -0.555465      0.609917     -0.305883
  N      -0.838840     -0.168511     -2.471089
  C      -2.797244      0.139884     -1.130933
  C      -1.934308      0.588954     -0.024134
  C      -2.210316     -0.217411     -2.296052
  C      -4.281127      0.103269     -0.899390
  C       0.040663      0.250821     -1.489617
  H      -2.773086     -0.561853     -3.157639
  H       0.091483      0.879221      0.457752
  H      -0.407451     -0.438632     -3.343896
  H      -4.662638      1.101722     -0.658545
  H      -4.524995     -0.538340     -0.045844
  H      -4.808128     -0.269663     -1.782983
33
Coordinates from ORCA-job phenylurea_thymine_opt_freq E -910.012650703773
  N       3.197211      0.295117      0.500068
  C       2.616805      0.778788      1.630419
  O       1.418745      1.100899      1.689043
  N       3.396613      0.915300      2.767735
  C       4.698937      0.461397      3.071290
  C       5.234844     -0.728601      2.552279
  C       6.514163     -1.146059      2.931623
  C       7.267458     -0.404034      3.844910
  C       6.728015      0.773088      4.375494
  C       5.461635      1.208500      3.987258
  H       2.620893      0.321850     -0.343524
  H       4.201095      0.299070      0.398928
  H       2.893104      1.404602      3.495418
  H       4.657887     -1.339312      1.870094
  H       6.912352     -2.069388      2.519918
  H       8.257045     -0.738524      4.141586
  H       7.298933      1.362511      5.087775
  H       5.052799      2.132006      4.389777
  O      -2.348669      0.908977      1.080604
  O       1.263717      0.282339     -1.689061
  N      -0.550606      0.592817     -0.299514
  N      -0.831832     -0.182735     -2.465599
  C      -2.792835      0.142340     -1.132487
  C      -1.928600      0.575547     -0.020609
  C      -2.204850     -0.215038     -2.297236
  C      -4.277593      0.119799     -0.906638
  C       0.046175      0.232504     -1.482472
  H      -2.768729     -0.547597     -3.162695
  H       0.094241      0.859245      0.467005
  H      -0.399207     -0.450999     -3.338456
  H      -4.648414      1.119008     -0.652834
  H      -4.532760     -0.531210     -0.063545
  H      -4.804666     -0.234652     -1.797815
33
Coordinates from ORCA-job phenylurea_thymine_opt_freq E -910.012702629260
  N       3.191885      0.272137      0.511372
  C       2.609146      0.749705      1.642562
  O       1.408257      1.061064      1.705630
  N       3.389560      0.894226      2.778583
  C       4.697759      0.454798      3.079714
  C       5.247718     -0.726223      2.553228
  C       6.534321     -1.127729      2.924414
  C       7.282382     -0.378717      3.836269
  C       6.729660      0.789273      4.373557
  C       5.455528      1.209407      3.993328
  H       2.613783      0.290844     -0.331434
  H       4.195292      0.289944      0.406445
  H       2.884049      1.387097      3.502818
  H       4.673357     -1.341923      1.873656
  H       6.942324     -2.044313      2.507225
  H       8.277984     -0.700253      4.127000
  H       7.296628      1.383895      5.084681
  H       5.037832      2.126712      4.400872
  O      -2.345867      0.899060      1.080275
  O       1.265074      0.246530     -1.685542
  N      -0.549448      0.575399     -0.299992
  N      -0.836579     -0.194030     -2.467536
  C      -2.796611      0.154773     -1.138936
  C      -1.927847      0.569789     -0.023262
  C      -2.210128     -0.206158     -2.303412
  C      -4.281518      0.150998     -0.915828
  C       0.045057      0.211151     -1.482907
  H      -2.777317     -0.527088     -3.171197
  H       0.096329      0.830017      0.471615
  H      -0.406516     -0.463159     -3.341362
  H      -4.636898      1.150661     -0.642818
  H      -4.548701     -0.512230     -0.085934
  H      -4.812589     -0.178101     -1.814342
33
Coordinates from ORCA-job phenylurea_thymine_opt_freq E -910.012756119195
  N       3.185716      0.256224      0.520126
  C       2.599588      0.731861      1.650122
  O       1.397252      1.037732      1.713328
  N       3.378108      0.880541      2.787258
  C       4.689685      0.450142      3.086002
  C       5.246905     -0.725729      2.553627
  C       6.539033     -1.115515      2.917762
  C       7.286431     -0.360666      3.825136
  C       6.727054      0.801856      4.366724
  C       5.446846      1.211089      3.994465
  H       2.608296      0.269809     -0.323364
  H       4.188933      0.281045      0.414981
  H       2.869409      1.372497      3.509501
  H       4.671195     -1.345831      1.877430
  H       6.952271     -2.028298      2.497219
  H       8.286625     -0.673262      4.109744
  H       7.293595      1.401181      5.074207
  H       5.024939      2.125155      4.404883
  O      -2.334017      0.892313      1.082275
  O       1.272506      0.217152     -1.684919
  N      -0.540581      0.562130     -0.300449
  N      -0.834112     -0.199471     -2.469467
  C      -2.792347      0.163141     -1.140299
  C      -1.919539      0.565373     -0.023225
  C      -2.207531     -0.198317     -2.305071
  C      -4.276728      0.170640     -0.916429
  C       0.051392      0.196299     -1.483711
  H      -2.778184     -0.510863     -3.173811
  H       0.105052      0.809468      0.473295
  H      -0.409699     -0.467099     -3.346384
  H      -4.620507      1.167769     -0.620651
  H      -4.550773     -0.507620     -0.100801
  H      -4.812908     -0.133188     -1.820764
33
Coordinates from ORCA-job phenylurea_thymine_opt_freq E -910.012814178788
  N       3.176583      0.226136      0.532523
  C       2.589973      0.700220      1.663220
  O       1.386510      1.000032      1.728447
  N       3.368547      0.852172      2.800149
  C       4.687446      0.440729      3.091921
  C       5.259327     -0.725338      2.551734
  C       6.558594     -1.096418      2.909409
  C       7.299892     -0.332488      3.814133
  C       6.726599      0.820211      4.361726
  C       5.437986      1.210857      3.997771
  H       2.597865      0.239683     -0.310068
  H       4.179353      0.257451      0.425562
  H       2.859836      1.344939      3.521927
  H       4.686453     -1.352767      1.877417
  H       6.982994     -2.002161      2.484588
  H       8.306150     -0.630680      4.092751
  H       7.288266      1.426474      5.067144
  H       5.005148      2.117513      4.413236
  O      -2.332122      0.902192      1.077992
  O       1.275084      0.183933     -1.677641
  N      -0.538628      0.551172     -0.300055
  N      -0.834963     -0.204763     -2.470495
  C      -2.793369      0.176604     -1.145800
  C      -1.919695      0.570475     -0.026361
  C      -2.208392     -0.190212     -2.308503
  C      -4.277976      0.197263     -0.924680
  C       0.053235      0.181372     -1.481669
  H      -2.779814     -0.498232     -3.178501
  H       0.106993      0.786757      0.477398
  H      -0.415335     -0.472086     -3.349662
  H      -4.610989      1.194209     -0.616514
  H      -4.560450     -0.488067     -0.117678
  H      -4.817197     -0.089623     -1.832677
33
Coordinates from ORCA-job phenylurea_thymine_opt_freq E -910.012852308977
  N       3.172581      0.200928      0.543552
  C       2.583075      0.668982      1.675702
  O       1.377937      0.961409      1.740291
  N       3.359724      0.820418      2.814312
  C       4.686581      0.430537      3.097144
  C       5.272783     -0.725710      2.550291
  C       6.579290     -1.077628      2.901076
  C       7.314088     -0.304689      3.803306
  C       6.726970      0.837789      4.356914
  C       5.430473      1.209379      4.001090
  H       2.594203      0.214954     -0.299305
  H       4.175375      0.235189      0.438145
  H       2.849026      1.308022      3.538075
  H       4.704459     -1.360004      1.876660
  H       7.015364     -1.975909      2.472169
  H       8.326179     -0.588696      4.075576
  H       7.283242      1.451041      5.060537
  H       4.986010      2.108029      4.421665
  O      -2.335513      0.921373      1.070910
  O       1.275086      0.154142     -1.668025
  N      -0.540707      0.541518     -0.298115
  N      -0.836731     -0.209525     -2.469335
  C      -2.796176      0.189321     -1.151291
  C      -1.923631      0.579418     -0.030013
  C      -2.210472     -0.184324     -2.311204
  C      -4.281466      0.222166     -0.934600
  C       0.052866      0.167223     -1.477117
  H      -2.781005     -0.490140     -3.182555
  H       0.103693      0.768546      0.481709
  H      -0.419742     -0.476998     -3.349651
  H      -4.606844      1.221883     -0.627312
  H      -4.571644     -0.460744     -0.128213
  H      -4.821168     -0.060342     -1.843647
33
Coordinates from ORCA-job phenylurea_thymine_opt_freq E -910.012885412241
  N       3.168916      0.180350      0.554534
  C       2.577172      0.637445      1.690349
  O       1.370097      0.921250      1.755705
  N       3.352357      0.784196      2.830590
  C       4.688017      0.418412      3.102637
  C       5.289000     -0.726524      2.549021
  C       6.602987     -1.058588      2.890873
  C       7.330402     -0.276377      3.791339
  C       6.728334      0.854762      4.352204
  C       5.423800      1.206246      4.005354
  H       2.589556      0.195823     -0.287538
  H       4.171494      0.219549      0.449381
  H       2.841710      1.268045      3.556835
  H       4.725511     -1.366955      1.876666
  H       7.051498     -1.948371      2.457122
  H       8.348489     -0.545285      4.056536
  H       7.278446      1.474796      5.054718
  H       4.966532      2.095645      4.431882
  O      -2.343040      0.943327      1.062428
  O       1.272040      0.123856     -1.655618
  N      -0.546106      0.531546     -0.294570
  N      -0.839314     -0.217633     -2.466192
  C      -2.800508      0.202246     -1.157829
  C      -1.930270      0.589600     -0.034155
  C      -2.213566     -0.180784     -2.314197
  C      -4.286811      0.249146     -0.948222
  C       0.050046      0.151430     -1.470262
  H      -2.782055     -0.485071     -3.187331
  H       0.097195      0.748931      0.488557
  H      -0.421948     -0.486588     -3.345918
  H      -4.605374      1.254358     -0.651830
  H      -4.586165     -0.424039     -0.137092
  H      -4.824537     -0.037184     -1.857239
33
Coordinates from ORCA-job phenylurea_thymine_opt_freq E -910.012914297488
  N       3.169521      0.165379      0.564752
  C       2.572076      0.605150      1.704447
  O       1.362196      0.877479      1.769431
  N       3.343677      0.744468      2.848090
  C       4.688205      0.404376      3.109461
  C       5.304816     -0.728953      2.549409
  C       6.627156     -1.038240      2.880578
  C       7.346730     -0.245852      3.778544
  C       6.728854      0.872678      4.347029
  C       5.416100      1.202000      4.010091
  H       2.590422      0.178336     -0.277525
  H       4.171977      0.211325      0.461606
  H       2.829888      1.218900      3.578269
  H       4.747606     -1.375734      1.878175
  H       7.089121     -1.918465      2.441565
  H       8.371216     -0.498055      4.035412
  H       7.272382      1.500366      5.047872
  H       4.945684      2.081732      4.442336
  O      -2.349461      0.964577      1.053690
  O       1.268638      0.088933     -1.644506
  N      -0.551732      0.518643     -0.291087
  N      -0.843626     -0.226969     -2.462921
  C      -2.805296      0.215723     -1.164065
  C      -1.935989      0.598441     -0.038593
  C      -2.218251     -0.177091     -2.317251
  C      -4.292214      0.279298     -0.961417
  C       0.046147      0.131369     -1.463509
  H      -2.785573     -0.478021     -3.192174
  H       0.090226      0.727952      0.494620
  H      -0.424341     -0.499376     -3.340752
  H      -4.602939      1.291603     -0.681073
  H      -4.601482     -0.379669     -0.142517
  H      -4.827828     -0.014746     -1.869245
33
Coordinates from ORCA-job phenylurea_thymine_opt_freq E -910.012941051102
  N       3.169575      0.158956      0.571848
  C       2.567702      0.583228      1.714940
  O       1.356001      0.847987      1.779896
  N       3.336114      0.713059      2.861842
  C       4.687061      0.392604      3.115286
  C       5.314679     -0.730977      2.550880
  C       6.643477     -1.023137      2.870970
  C       7.357340     -0.223048      3.767043
  C       6.727264      0.885207      4.343006
  C       5.408152      1.197708      4.014632
  H       2.590307      0.167721     -0.270211
  H       4.171867      0.209922      0.469800
  H       2.820971      1.181680      3.594512
  H       4.761309     -1.382016      1.882212
  H       7.115078     -1.895699      2.427002
  H       8.386805     -0.462177      4.016388
  H       7.266004      1.518110      5.042866
  H       4.927519      2.069634      4.451448
  O      -2.350385      0.977492      1.048432
  O       1.264814      0.061061     -1.639329
  N      -0.553520      0.508569     -0.289180
  N      -0.846541     -0.235321     -2.461567
  C      -2.806889      0.225701     -1.167777
  C      -1.936844      0.603682     -0.041545
  C      -2.221153     -0.174889     -2.319238
  C      -4.293874      0.302646     -0.969472
  C       0.043710      0.115935     -1.460381
  H      -2.788644     -0.473068     -3.194905
  H       0.087945      0.711054      0.498829
  H      -0.425218     -0.512435     -3.337047
  H      -4.598657      1.321363     -0.706052
  H      -4.609887     -0.341515     -0.141602
  H      -4.828180     -0.001476     -1.874787
33
Coordinates from ORCA-job phenylurea_thymine_opt_freq E -910.012958867953
  N       3.170158      0.149811      0.578100
  C       2.563850      0.559873      1.723587
  O       1.350275      0.815884      1.790158
  N       3.330109      0.683987      2.872542
  C       4.686436      0.380737      3.120370
  C       5.326105     -0.735127      2.552948
  C       6.660910     -1.007937      2.865296
  C       7.367926     -0.198797      3.758754
  C       6.725457      0.899749      4.339102
  C       5.400728      1.194536      4.017265
  H       2.590630      0.153141     -0.263739
  H       4.171854      0.210303      0.475876
  H       2.812571      1.146003      3.607941
  H       4.778329     -1.391852      1.885668
  H       7.142794     -1.873267      2.418292
  H       8.401916     -0.423843      4.002412
  H       7.258840      1.539200      5.037123
  H       4.910552      2.059900      4.456451
  O      -2.351472      0.980113      1.045936
  O       1.262705      0.030286     -1.634076
  N      -0.555780      0.494681     -0.287077
  N      -0.851295     -0.241175     -2.461013
  C      -2.810065      0.236227     -1.171919
  C      -1.938139      0.603654     -0.043584
  C      -2.225535     -0.168706     -2.322461
  C      -4.296516      0.328273     -0.977400
  C       0.040444      0.097605     -1.457182
  H      -2.793899     -0.459899     -3.199918
  H       0.085733      0.689960      0.503292
  H      -0.427532     -0.523219     -3.333790
  H      -4.593248      1.352144     -0.724674
  H      -4.620004     -0.304990     -0.144161
  H      -4.830934      0.020303     -1.881379
33
Coordinates from ORCA-job phenylurea_thymine_opt_freq E -910.012976551898
  N       3.171221      0.150587      0.577410
  C       2.562950      0.559182      1.722092
  O       1.349389      0.815042      1.788466
  N       3.328127      0.682506      2.872036
  C       4.684352      0.379338      3.121081
  C       5.324315     -0.737094      2.556203
  C       6.660212     -1.007043      2.866166
  C       7.366954     -0.195704      3.757812
  C       6.723262      0.902248      4.338091
  C       5.397866      1.195063      4.016890
  H       2.592519      0.149340     -0.264964
  H       4.172911      0.212167      0.475727
  H       2.809139      1.141790      3.607939
  H       4.776988     -1.394935      1.890310
  H       7.142567     -1.872281      2.419497
  H       8.401661     -0.418612      4.000395
  H       7.256677      1.542855      5.035035
  H       4.906950      2.060726      4.454589
  O      -2.346985      0.968899      1.049766
  O       1.262230      0.024294     -1.638613
  N      -0.552720      0.490252     -0.287574
  N      -0.851815     -0.238680     -2.463930
  C      -2.808690      0.237274     -1.171064
  C      -1.934409      0.597919     -0.042155
  C      -2.225637     -0.164325     -2.323379
  C      -4.294483      0.331733     -0.974728
  C       0.040869      0.095236     -1.459699
  H      -2.795891     -0.451369     -3.201062
  H       0.089199      0.684577      0.502792
  H      -0.428021     -0.523601     -3.335750
  H      -4.589900      1.356693     -0.724635
  H      -4.617319     -0.298410     -0.138932
  H      -4.830584      0.021889     -1.877072
33
Coordinates from ORCA-job phenylurea_thymine_opt_freq E -910.013002473909
  N       3.169308      0.131143      0.579359
  C       2.560506      0.542020      1.722653
  O       1.346566      0.794599      1.791148
  N       3.326754      0.672428      2.871373
  C       4.684515      0.375707      3.121730
  C       5.331185     -0.738722      2.560636
  C       6.669763     -0.997539      2.868185
  C       7.371484     -0.178979      3.757113
  C       6.720101      0.914965      4.336766
  C       5.392256      1.197939      4.016232
  H       2.589879      0.123885     -0.262500
  H       4.170387      0.198803      0.475512
  H       2.806210      1.130752      3.606970
  H       4.788098     -1.401620      1.896523
  H       7.157218     -1.860419      2.422427
  H       8.408273     -0.392927      3.998873
  H       7.250173      1.560054      5.032119
  H       4.895887      2.061436      4.451987
  O      -2.343664      0.943625      1.057500
  O       1.260036      0.006285     -1.639458
  N      -0.550985      0.475551     -0.286052
  N      -0.855628     -0.233846     -2.468987
  C      -2.809682      0.244588     -1.172823
  C      -1.932402      0.585517     -0.039292
  C      -2.228478     -0.150114     -2.328233
  C      -4.294273      0.349330     -0.975679
  C       0.039237      0.086245     -1.461829
  H      -2.801149     -0.424951     -3.208406
  H       0.092007      0.662307      0.506463
  H      -0.432837     -0.522077     -3.340148
  H      -4.582553      1.375831     -0.723158
  H      -4.620371     -0.279706     -0.140351
  H      -4.833917      0.045451     -1.877916
33
Coordinates from ORCA-job phenylurea_thymine_opt_freq E -910.013032477097
  N       3.166739      0.119739      0.578413
  C       2.560009      0.539217      1.719545
  O       1.346607      0.792723      1.789659
  N       3.329063      0.679110      2.865318
  C       4.684965      0.378163      3.118853
  C       5.329897     -0.741512      2.564706
  C       6.668740     -0.997952      2.874165
  C       7.370468     -0.175609      3.759260
  C       6.719407      0.920481      4.334461
  C       5.392142      1.202848      4.011714
  H       2.587042      0.111510     -0.263327
  H       4.167750      0.186345      0.473264
  H       2.809070      1.137607      3.601383
  H       4.785614     -1.407501      1.903537
  H       7.155629     -1.863456      2.432883
  H       8.407234     -0.388015      4.002522
  H       7.249934      1.567521      5.027654
  H       4.896647      2.068966      4.443147
  O      -2.343241      0.915280      1.067109
  O       1.259326      0.003098     -1.642324
  N      -0.550014      0.466616     -0.282805
  N      -0.854423     -0.222431     -2.473314
  C      -2.808914      0.245169     -1.172298
  C      -1.931914      0.571627     -0.034040
  C      -2.226986     -0.137333     -2.331185
  C      -4.293073      0.351225     -0.974390
  C       0.039040      0.086342     -1.461667
  H      -2.800528     -0.401586     -3.214149
  H       0.093371      0.651649      0.510078
  H      -0.432101     -0.510975     -3.344508
  H      -4.580184      1.377155     -0.717839
  H      -4.618551     -0.279904     -0.140417
  H      -4.834859      0.051440     -1.876669
33
Coordinates from ORCA-job phenylurea_thymine_opt_freq E -910.013068889549
  N       3.163003      0.077234      0.582958
  C       2.557971      0.502724      1.722862
  O       1.342617      0.745524      1.796287
  N       3.330664      0.662327      2.863560
  C       4.689352      0.375101      3.117535
  C       5.345484     -0.741539      2.569977
  C       6.687713     -0.980444      2.879348
  C       7.380807     -0.146394      3.759876
  C       6.717658      0.944452      4.331341
  C       5.387283      1.210424      4.008001
  H       2.580986      0.066040     -0.257370
  H       4.163152      0.151730      0.474243
  H       2.807749      1.117933      3.599364
  H       4.808497     -1.416458      1.911563
  H       7.183720     -1.842648      2.441717
  H       8.420217     -0.345273      4.003308
  H       7.241352      1.599857      5.021873
  H       4.882775      2.072795      4.436514
  O      -2.346052      0.883656      1.076183
  O       1.254808     -0.023291     -1.634903
  N      -0.553819      0.439773     -0.276972
  N      -0.860191     -0.212357     -2.478372
  C      -2.812903      0.258081     -1.176334
  C      -1.936018      0.555043     -0.029689
  C      -2.231854     -0.112586     -2.339302
  C      -4.296146      0.380018     -0.980659
  C       0.034874      0.071862     -1.460035
  H      -2.806136     -0.356114     -3.227753
  H       0.089722      0.611716      0.519029
  H      -0.440910     -0.499243     -3.351535
  H      -4.571659      1.406696     -0.714264
  H      -4.630128     -0.255223     -0.153222
  H      -4.840682      0.096145     -1.886390
33
Coordinates from ORCA-job phenylurea_thymine_opt_freq E -910.013137823797
  N       3.161509      0.041425      0.586956
  C       2.558922      0.472862      1.726360
  O       1.341488      0.704770      1.802617
  N       3.335236      0.652918      2.860719
  C       4.695450      0.374762      3.116121
  C       5.358175     -0.742513      2.577610
  C       6.701872     -0.970547      2.889254
  C       7.390397     -0.125214      3.762269
  C       6.720735      0.966531      4.324762
  C       5.388748      1.221244      3.999602
  H       2.576853      0.029738     -0.251609
  H       4.161041      0.120687      0.475297
  H       2.809678      1.105474      3.596998
  H       4.826466     -1.427066      1.925198
  H       7.202994     -1.833503      2.458849
  H       8.431115     -0.315502      4.006917
  H       7.240222      1.630900      5.009855
  H       4.879305      2.083892      4.421784
  O      -2.355089      0.855441      1.084002
  O       1.247957     -0.045284     -1.624258
  N      -0.562222      0.413901     -0.268959
  N      -0.864117     -0.197090     -2.482652
  C      -2.818201      0.266844     -1.180037
  C      -1.944682      0.539434     -0.025098
  C      -2.235550     -0.088252     -2.347311
  C      -4.301426      0.398783     -0.988519
  C       0.028664      0.058876     -1.455124
  H      -2.807956     -0.310696     -3.242371
  H       0.080676      0.574610      0.530274
  H      -0.446159     -0.471026     -3.360617
  H      -4.568889      1.423497     -0.706771
  H      -4.644189     -0.246768     -0.172738
  H      -4.845116      0.134430     -1.900641
33
Coordinates from ORCA-job phenylurea_thymine_opt_freq E -910.013225069765
  N       3.157268     -0.005700      0.596889
  C       2.559807      0.437365      1.735322
  O       1.339043      0.651426      1.817144
  N       3.342886      0.648366      2.858151
  C       4.705193      0.379450      3.113887
  C       5.371472     -0.742104      2.589605
  C       6.715032     -0.964200      2.906357
  C       7.402568     -0.104338      3.765823
  C       6.731105      0.996003      4.309879
  C       5.398447      1.242213      3.981229
  H       2.566001     -0.026983     -0.236727
  H       4.155602      0.079338      0.478187
  H       2.814586      1.095527      3.595894
  H       4.843857     -1.440719      1.949589
  H       7.217901     -1.832882      2.489672
  H       8.443504     -0.289522      4.013357
  H       7.248647      1.673202      4.983747
  H       4.887135      2.109960      4.390614
  O      -2.371014      0.820798      1.092388
  O       1.238846     -0.065331     -1.610171
  N      -0.575915      0.380991     -0.257567
  N      -0.866509     -0.167936     -2.488860
  C      -2.825204      0.275988     -1.185242
  C      -1.958236      0.517551     -0.019304
  C      -2.238494     -0.053488     -2.358507
  C      -4.309372      0.413311     -1.000476
  C       0.020024      0.046545     -1.447540
  H      -2.806195     -0.247576     -3.262932
  H       0.065377      0.526080      0.545454
  H      -0.447495     -0.413096     -3.374779
  H      -4.570485      1.430534     -0.687757
  H      -4.664163     -0.256125     -0.209430
  H      -4.847313      0.182912     -1.925156
33
Coordinates from ORCA-job phenylurea_thymine_opt_freq E -910.013252145293
  N       3.164879     -0.013220      0.594462
  C       2.563641      0.418813      1.735500
  O       1.341373      0.626137      1.816022
  N       3.346979      0.643164      2.854994
  C       4.710345      0.378801      3.113738
  C       5.377613     -0.749104      2.606029
  C       6.720834     -0.967553      2.926641
  C       7.408995     -0.093315      3.771222
  C       6.737686      1.016512      4.296394
  C       5.404678      1.256907      3.964452
  H       2.574535     -0.025442     -0.239947
  H       4.162649      0.080422      0.477568
  H       2.815166      1.084984      3.593302
  H       4.851664     -1.461586      1.980984
  H       7.223307     -1.843335      2.524691
  H       8.449787     -0.275188      4.021764
  H       7.255209      1.705882      4.957811
  H       4.893223      2.131570      4.358624
  O      -2.381535      0.778317      1.101832
  O       1.230356     -0.095368     -1.600998
  N      -0.585770      0.345374     -0.249110
  N      -0.871564     -0.149155     -2.493830
  C      -2.831435      0.282191     -1.187625
  C      -1.966842      0.494099     -0.014420
  C      -2.243365     -0.026245     -2.366032
  C      -4.315575      0.425733     -1.005980
  C       0.011917      0.027998     -1.443107
  H      -2.808772     -0.195148     -3.276884
  H       0.054772      0.472046      0.557366
  H      -0.451030     -0.374977     -3.384127
  H      -4.569848      1.435774     -0.665888
  H      -4.680492     -0.263312     -0.236654
  H      -4.849474      0.225780     -1.940054
33
Coordinates from ORCA-job phenylurea_thymine_opt_freq E -910.013288899433
  N       3.165371     -0.033440      0.602159
  C       2.562368      0.404892      1.739864
  O       1.337765      0.596384      1.823214
  N       3.346572      0.641854      2.856336
  C       4.711659      0.382989      3.112947
  C       5.378650     -0.746963      2.610574
  C       6.721685     -0.965244      2.932000
  C       7.410804     -0.085470      3.770368
  C       6.740855      1.028855      4.287515
  C       5.407548      1.267852      3.955296
  H       2.572965     -0.063732     -0.230232
  H       4.161917      0.068158      0.481326
  H       2.812337      1.079465      3.595352
  H       4.851542     -1.464870      1.992229
  H       7.223241     -1.844041      2.535677
  H       8.451445     -0.266908      4.021889
  H       7.259476      1.722917      4.943161
  H       4.896353      2.145290      4.343492
  O      -2.384243      0.760484      1.105222
  O       1.228779     -0.097857     -1.602316
  N      -0.587334      0.336182     -0.246948
  N      -0.871574     -0.134778     -2.497423
  C      -2.832051      0.287175     -1.188932
  C      -1.967743      0.486141     -0.013104
  C      -2.243406     -0.010970     -2.369687
  C      -4.316178      0.430465     -1.007776
  C       0.010347      0.028186     -1.443320
  H      -2.808109     -0.170134     -3.282756
  H       0.053036      0.456752      0.560187
  H      -0.448852     -0.353634     -3.388441
  H      -4.569137      1.435680     -0.652876
  H      -4.684393     -0.269592     -0.250028
  H      -4.847790      0.245471     -1.946229
33
Coordinates from ORCA-job phenylurea_thymine_opt_freq E -910.013306508177
  N       3.158585     -0.034036      0.605160
  C       2.556904      0.398311      1.745739
  O       1.331753      0.581710      1.834625
  N       3.343817      0.637284      2.860659
  C       4.711225      0.383806      3.112066
  C       5.378235     -0.747282      2.612330
  C       6.721644     -0.964493      2.932857
  C       7.411318     -0.080940      3.767005
  C       6.742017      1.035210      4.280365
  C       5.408022      1.272709      3.949454
  H       2.563028     -0.069059     -0.224646
  H       4.153723      0.075399      0.479495
  H       2.809311      1.070853      3.601824
  H       4.849258     -1.468677      1.998926
  H       7.222854     -1.844724      2.539418
  H       8.452208     -0.261429      4.018280
  H       7.261654      1.731934      4.932407
  H       4.896536      2.150994      4.335229
  O      -2.381920      0.750765      1.106490
  O       1.230213     -0.102998     -1.604935
  N      -0.584612      0.326925     -0.245570
  N      -0.869631     -0.132541     -2.498876
  C      -2.829395      0.289209     -1.189586
  C      -1.964672      0.476382     -0.011719
  C      -2.241093     -0.005963     -2.371227
  C      -4.312908      0.437187     -1.008734
  C       0.012007      0.024685     -1.443726
  H      -2.805909     -0.159895     -3.285176
  H       0.056051      0.444301      0.561657
  H      -0.445215     -0.352903     -3.388745
  H      -4.561873      1.439667     -0.643469
  H      -4.685470     -0.269125     -0.258916
  H      -4.843757      0.264292     -1.949922
33
Coordinates from ORCA-job phenylurea_thymine_opt_freq E -910.013320496149
  N       3.163588     -0.038378      0.607443
  C       2.556462      0.389893      1.746551
  O       1.330700      0.568707      1.832848
  N       3.340454      0.630447      2.863777
  C       4.709444      0.383116      3.112960
  C       5.377435     -0.748641      2.616240
  C       6.721698     -0.962700      2.934967
  C       7.411166     -0.073966      3.764042
  C       6.741320      1.043360      4.273570
  C       5.406125      1.277479      3.944562
  H       2.571124     -0.076690     -0.224467
  H       4.158483      0.076263      0.484153
  H       2.803642      1.061698      3.604681
  H       4.846788     -1.474222      2.008739
  H       7.223519     -1.843910      2.544611
  H       8.452719     -0.251892      4.014517
  H       7.261548      1.743818      4.921157
  H       4.893604      2.156575      4.326997
  O      -2.382781      0.734867      1.109569
  O       1.229232     -0.111540     -1.605393
  N      -0.584482      0.316316     -0.243203
  N      -0.870263     -0.128722     -2.499742
  C      -2.829209      0.293160     -1.190013
  C      -1.964091      0.469680     -0.010414
  C      -2.241165      0.002384     -2.372769
  C      -4.312086      0.445451     -1.009130
  C       0.011362      0.020060     -1.443205
  H      -2.805905     -0.144713     -3.287937
  H       0.055928      0.427543      0.565458
  H      -0.444144     -0.350313     -3.388512
  H      -4.557110      1.444613     -0.632389
  H      -4.688853     -0.267820     -0.267975
  H      -4.842348      0.285636     -1.952953
33
Coordinates from ORCA-job phenylurea_thymine_opt_freq E -910.013336167202
  N       3.161076     -0.045122      0.611207
  C       2.552803      0.377402      1.751807
  O       1.326438      0.550659      1.839507
  N       3.336463      0.618606      2.869393
  C       4.707914      0.380338      3.114017
  C       5.378952     -0.750771      2.619685
  C       6.724819     -0.958479      2.935371
  C       7.413092     -0.063090      3.758398
  C       6.740637      1.053864      4.264945
  C       5.403360      1.281357      3.939275
  H       2.568736     -0.082739     -0.220829
  H       4.155368      0.074158      0.487501
  H       2.798779      1.047492      3.610889
  H       4.847893     -1.481110      2.018605
  H       7.228954     -1.839513      2.547624
  H       8.456024     -0.235938      4.006748
  H       7.260350      1.759144      4.907698
  H       4.888276      2.159872      4.319549
  O      -2.382718      0.722880      1.111347
  O       1.229695     -0.124805     -1.602664
  N      -0.583968      0.303556     -0.240796
  N      -0.869359     -0.126973     -2.500130
  C      -2.827673      0.298166     -1.191438
  C      -1.963099      0.464817     -0.009925
  C      -2.239602      0.010793     -2.374911
  C      -4.309906      0.457007     -1.011309
  C       0.012220      0.011903     -1.441807
  H      -2.803689     -0.128545     -3.291698
  H       0.055739      0.408959      0.569328
  H      -0.442150     -0.347911     -3.388558
  H      -4.549627      1.452902     -0.622841
  H      -4.692387     -0.262874     -0.279423
  H      -4.839503      0.311556     -1.957826
