25
Coordinates from ORCA-job semicarbazide_thymine_opt_freq E -734.398841502849
  N           4.98082800496952      1.91086183714870      2.11601308316383
  N           3.63338257939027      1.83501425229959      1.71762639097667
  C           2.95183374851272      2.95894932091275      1.33445668403828
  O           1.79346391229594      2.88512175920297      0.88712471656197
  N           3.59578762847416      4.14911091656166      1.50197389515557
  H           5.08688996005108      1.51537188880750      3.04718087150334
  H           5.56692462030582      1.38638804101032      1.46969738252597
  H           3.17826055243068      0.93536227928555      1.54104059600577
  H           4.57144924788355      4.15589919268306      1.75936445116915
  H           3.14960986714209      4.96925853324142      1.12527510595249
  O          -1.53330809928463      1.66855350474405     -0.35752052188148
  O           2.17530516941649     -0.61846021067186      1.11426218669497
  N           0.31379125912436      0.53270675342208      0.37767392946724
  N           0.33632678397651     -1.78468893369644      0.43735113556826
  C          -1.65236325613889     -0.71161764056426     -0.35023140491153
  C          -0.99978462719088      0.59094645096070     -0.12826585787362
  C          -0.95444368109669     -1.83216697789996     -0.05752569828955
  C          -3.05414011135316     -0.71606135762535     -0.88882937528027
  C           1.01998994097021     -0.60477216603185      0.67302920171486
  H          -1.36131537112532     -2.82939539638296     -0.19197811725750
  H           0.80445810890501      1.43461631953105      0.54752020278491
  H           0.84655339633873     -2.62989016953263      0.65103916666288
  H          -3.09966990057335     -0.20540181913556     -1.85694046944377
  H          -3.72959151318796     -0.17313998773926     -0.21860175709390
  H          -3.42669422023633     -1.73767339053133     -1.01171579791457
