25
Coordinates from ORCA-job semicarbazide_thymine_opt_freq E -734.167603712418
  N       3.442876      0.793157      1.497592
  N       2.378815      1.723883      1.501896
  C       2.589425      3.083701      1.498116
  O       1.680740      3.902265      1.502093
  N       3.898842      3.442723      1.501895
  H       3.938234      0.901462      2.388736
  H       3.048773     -0.150333      1.523046
  H       1.406024      1.426876      1.464502
  H       4.500576      2.762410      1.056156
  H       4.074339      4.417549      1.305688
  O      -1.519300      1.806700     -0.000900
  O       2.839400      0.291300     -0.000700
  N       0.664300      1.062300      0.001100
  N       1.114800     -1.231600     -0.000200
  C      -1.161200     -0.543200      0.000200
  C      -0.712900      0.880200      0.000400
  C      -0.226000     -1.501300     -0.000100
  C      -2.630000     -0.818900     -0.000100
  C       1.631000      0.054500      0.000300
  H      -0.478700     -2.555300     -0.000400
  H       1.001400      2.020900      0.001100
  H       1.756400     -2.019100     -0.000900
  H      -3.100400     -0.386000     -0.888900
  H      -3.100600     -0.386200      0.888700
  H      -2.843300     -1.893100     -0.000300
25
Coordinates from ORCA-job semicarbazide_thymine_opt_freq E -734.234475971586
  N       3.435059      0.833705      1.566102
  N       2.388937      1.791669      1.521900
  C       2.636892      3.141703      1.490643
  O       1.738704      3.979266      1.443383
  N       3.964848      3.467539      1.526588
  H       3.911114      0.963921      2.475966
  H       3.048745     -0.103421      1.613266
  H       1.409559      1.510106      1.455938
  H       4.568432      2.761767      1.121348
  H       4.170768      4.431937      1.309875
  O      -1.528717      1.777631      0.045924
  O       2.821578      0.266482     -0.065454
  N       0.647175      1.025450     -0.010154
  N       1.097964     -1.267621     -0.068001
  C      -1.186694     -0.575078     -0.010162
  C      -0.734953      0.844015      0.010990
  C      -0.249643     -1.538597     -0.046916
  C      -2.658325     -0.845391      0.012171
  C       1.614420      0.019606     -0.056828
  H      -0.503927     -2.592868     -0.062410
  H       0.989756      1.982149      0.006624
  H       1.742668     -2.048850     -0.095711
  H      -3.145622     -0.392473     -0.857481
  H      -3.112102     -0.428653      0.917368
  H      -2.873092     -1.919104     -0.005948
25
Coordinates from ORCA-job semicarbazide_thymine_opt_freq E -734.277362191170
  N       3.473457      0.861940      1.618647
  N       2.401067      1.793907      1.556470
  C       2.618703      3.142862      1.498201
  O       1.688592      3.950699      1.427986
  N       3.948257      3.501336      1.534007
  H       3.937091      1.020095      2.530572
  H       3.111669     -0.076807      1.682960
  H       1.432678      1.472953      1.487791
  H       4.578636      2.804950      1.151086
  H       4.128894      4.465601      1.295300
  O      -1.487641      1.785732      0.050528
  O       2.822814      0.222504     -0.130535
  N       0.666537      0.991709     -0.039859
  N       1.086979     -1.303341     -0.112631
  C      -1.197456     -0.576296     -0.016266
  C      -0.725621      0.830305      0.001170
  C      -0.271685     -1.557622     -0.069888
  C      -2.675288     -0.821701      0.028297
  C       1.621424     -0.024729     -0.109794
  H      -0.541210     -2.608714     -0.083745
  H       1.032593      1.941457     -0.027573
  H       1.728266     -2.083948     -0.153317
  H      -3.170611     -0.357244     -0.830773
  H      -3.110646     -0.398369      0.939562
  H      -2.903956     -1.892387      0.010823
25
Coordinates from ORCA-job semicarbazide_thymine_opt_freq E -734.311959615673
  N       3.479672      0.933201      1.728977
  N       2.455420      1.916302      1.605579
  C       2.755850      3.239915      1.479402
  O       1.868035      4.088052      1.337059
  N       4.108933      3.526534      1.534039
  H       3.939707      1.107999      2.631922
  H       3.075784      0.009921      1.808442
  H       1.481951      1.637192      1.514674
  H       4.720042      2.783892      1.212260
  H       4.341202      4.464990      1.241848
  O      -1.573919      1.716817      0.137454
  O       2.757008      0.221747     -0.145886
  N       0.583278      0.950493      0.003979
  N       1.042883     -1.320232     -0.182910
  C      -1.259770     -0.639907     -0.041471
  C      -0.815700      0.764936      0.039032
  C      -0.315975     -1.602684     -0.144080
  C      -2.735210     -0.912041     -0.002772
  C       1.561969     -0.037971     -0.129976
  H      -0.565669     -2.656860     -0.206306
  H       0.940991      1.902335      0.063094
  H       1.708793     -2.075694     -0.267627
  H      -3.244490     -0.413606     -0.834211
  H      -3.176583     -0.535179      0.925858
  H      -2.940659     -1.985260     -0.069359
25
Coordinates from ORCA-job semicarbazide_thymine_opt_freq E -734.333876184292
  N       3.663480      0.932852      1.749052
  N       2.477853      1.730940      1.721843
  C       2.534508      3.079759      1.547242
  O       1.501044      3.757523      1.487519
  N       3.820966      3.594321      1.468635
  H       4.129006      1.161692      2.634010
  H       3.392267     -0.038021      1.830938
  H       1.576460      1.276440      1.721581
  H       4.526137      2.967196      1.097194
  H       3.849030      4.548517      1.138079
  O      -1.379713      1.837242      0.005033
  O       2.839290      0.068693     -0.209221
  N       0.715115      0.922659     -0.086462
  N       1.036121     -1.373994     -0.165285
  C      -1.221992     -0.548313     -0.042501
  C      -0.700128      0.825139     -0.037635
  C      -0.337952     -1.572438     -0.103716
  C      -2.712763     -0.730713      0.015712
  C       1.634017     -0.124335     -0.179310
  H      -0.649553     -2.611765     -0.114002
  H       1.133848      1.851238     -0.109056
  H       1.669935     -2.158838     -0.222985
  H      -3.199555     -0.240820     -0.834264
  H      -3.127481     -0.277391      0.922357
  H      -2.976397     -1.792692      0.004262
25
Coordinates from ORCA-job semicarbazide_thymine_opt_freq E -734.349557186333
  N       3.691074      1.000827      1.869475
  N       2.556052      1.869372      1.800264
  C       2.701025      3.198262      1.530300
  O       1.718529      3.937810      1.411721
  N       4.016255      3.624369      1.432876
  H       4.170488      1.227502      2.744213
  H       3.349534      0.051896      1.952739
  H       1.633280      1.470223      1.805867
  H       4.689536      2.937368      1.112104
  H       4.097357      4.548660      1.032456
  O      -1.504043      1.754858      0.118752
  O       2.752297      0.081791     -0.193262
  N       0.609047      0.888112     -0.006422
  N       0.976790     -1.387879     -0.234235
  C      -1.294576     -0.622726     -0.074838
  C      -0.807823      0.758149      0.019466
  C      -0.388362     -1.620941     -0.194244
  C      -2.781433     -0.845947     -0.040952
  C       1.548723     -0.125197     -0.168758
  H      -0.675011     -2.664301     -0.274529
  H       1.002202      1.826409      0.037452
  H       1.638512     -2.143917     -0.346719
  H      -3.274809     -0.311866     -0.860183
  H      -3.214724     -0.456628      0.886693
  H      -3.016376     -1.911313     -0.121214
25
Coordinates from ORCA-job semicarbazide_thymine_opt_freq E -734.356479844581
  N       3.739408      1.036103      1.951729
  N       2.600271      1.895206      1.863774
  C       2.731575      3.208808      1.512401
  O       1.743696      3.932394      1.354977
  N       4.039523      3.642603      1.382449
  H       4.224459      1.268456      2.822656
  H       3.407209      0.082005      2.024201
  H       1.675021      1.490962      1.883722
  H       4.719498      2.946049      1.098689
  H       4.106330      4.541528      0.925303
  O      -1.533679      1.732865      0.173830
  O       2.730301      0.062949     -0.180668
  N       0.584717      0.875681      0.035131
  N       0.952239     -1.394011     -0.264567
  C      -1.317317     -0.635318     -0.090406
  C      -0.830995      0.743301      0.047586
  C      -0.410216     -1.628471     -0.238096
  C      -2.803770     -0.862106     -0.069431
  C       1.522450     -0.131883     -0.157817
  H      -0.696934     -2.668777     -0.352725
  H       0.967092      1.818351      0.108952
  H       1.616091     -2.143621     -0.403676
  H      -3.293997     -0.302589     -0.873560
  H      -3.241035     -0.501194      0.867975
  H      -3.038396     -1.924398     -0.183407
25
Coordinates from ORCA-job semicarbazide_thymine_opt_freq E -734.364266476637
  N       3.811041      1.086230      2.074338
  N       2.658051      1.913568      1.966460
  C       2.744993      3.188045      1.477871
  O       1.731062      3.857579      1.258758
  N       4.032988      3.651535      1.288543
  H       4.298020      1.322421      2.941402
  H       3.509403      0.120655      2.120282
  H       1.740428      1.495043      2.011645
  H       4.735031      2.952430      1.072504
  H       4.064948      4.499286      0.739304
  O      -1.559583      1.711240      0.251523
  O       2.710570      0.048023     -0.155249
  N       0.564520      0.866270      0.097217
  N       0.930025     -1.389659     -0.302711
  C      -1.338563     -0.639124     -0.108917
  C      -0.848203      0.732134      0.091594
  C      -0.431023     -1.624908     -0.296644
  C      -2.824727     -0.864300     -0.107035
  C       1.498496     -0.132711     -0.135568
  H      -0.719518     -2.658478     -0.459897
  H       0.929462      1.813390      0.206817
  H       1.593664     -2.131274     -0.478317
  H      -3.308361     -0.268488     -0.888835
  H      -3.266401     -0.544476      0.843200
  H      -3.062779     -1.919538     -0.269268
25
Coordinates from ORCA-job semicarbazide_thymine_opt_freq E -734.373440484198
  N       3.911533      1.160275      2.250586
  N       2.731177      1.927896      2.126209
  C       2.727896      3.095806      1.411121
  O       1.660959      3.634329      1.095491
  N       3.971297      3.608920      1.110640
  H       4.398250      1.396508      3.115527
  H       3.670056      0.176695      2.245677
  H       1.831679      1.474209      2.215248
  H       4.722173      2.933630      1.019896
  H       3.938377      4.339057      0.412895
  O      -1.592230      1.694358      0.373828
  O       2.697689      0.070256     -0.090759
  N       0.542626      0.878614      0.200878
  N       0.921555     -1.345324     -0.342851
  C      -1.352511     -0.621791     -0.131857
  C      -0.865616      0.735258      0.162558
  C      -0.437668     -1.588471     -0.373700
  C      -2.836988     -0.848913     -0.163413
  C       1.481214     -0.099888     -0.084096
  H      -0.720246     -2.609832     -0.609233
  H       0.877703      1.831771      0.368083
  H       1.589396     -2.069814     -0.565951
  H      -3.311695     -0.204159     -0.911092
  H      -3.290437     -0.593178      0.800575
  H      -3.072647     -1.891320     -0.397240
25
Coordinates from ORCA-job semicarbazide_thymine_opt_freq E -734.379039028118
  N       4.000152      1.261513      2.432481
  N       2.790091      1.959829      2.279871
  C       2.698359      2.944104      1.326662
  O       1.583996      3.294792      0.912036
  N       3.883373      3.500335      0.918374
  H       4.480545      1.499554      3.297337
  H       3.833266      0.264149      2.371684
  H       1.916900      1.460247      2.409265
  H       4.697540      2.900562      0.987566
  H       3.798352      4.055739      0.078868
  O      -1.630002      1.677888      0.509296
  O       2.685684      0.135557     -0.026326
  N       0.518878      0.910045      0.301818
  N       0.926306     -1.268285     -0.388567
  C      -1.357358     -0.591848     -0.151583
  C      -0.884219      0.746520      0.240728
  C      -0.428988     -1.527996     -0.452752
  C      -2.838532     -0.829756     -0.210565
  C       1.467699     -0.037058     -0.038679
  H      -0.696251     -2.534051     -0.761134
  H       0.822345      1.871752      0.529893
  H       1.603776     -1.967109     -0.658893
  H      -3.314261     -0.139418     -0.915680
  H      -3.300988     -0.646616      0.765582
  H      -3.063117     -1.855556     -0.518263
25
Coordinates from ORCA-job semicarbazide_thymine_opt_freq E -734.382797568579
  N       3.970817      1.306519      2.524591
  N       2.813234      2.072339      2.319762
  C       2.800186      2.980601      1.281097
  O       1.718474      3.429460      0.866336
  N       4.017935      3.430746      0.861079
  H       4.427726      1.516728      3.405496
  H       3.779683      0.316813      2.423551
  H       1.908604      1.641997      2.470634
  H       4.788697      2.785363      0.987434
  H       3.985973      3.945938     -0.007004
  O      -1.705463      1.592551      0.628489
  O       2.630779      0.199767     -0.021218
  N       0.456357      0.898594      0.340471
  N       0.907827     -1.229582     -0.465396
  C      -1.388182     -0.632021     -0.158353
  C      -0.940436      0.694477      0.299775
  C      -0.440766     -1.524079     -0.527869
  C      -2.863689     -0.904673     -0.205638
  C       1.418564     -0.004800     -0.052175
  H      -0.684687     -2.519395     -0.886357
  H       0.742096      1.878671      0.576070
  H       1.600361     -1.894941     -0.778864
  H      -3.370095     -0.189558     -0.863131
  H      -3.313008     -0.789047      0.786872
  H      -3.067445     -1.917573     -0.566632
25
Coordinates from ORCA-job semicarbazide_thymine_opt_freq E -734.385205119200
  N       3.987555      1.363791      2.614549
  N       2.841944      2.144069      2.394525
  C       2.816530      2.964454      1.276347
  O       1.729336      3.382175      0.841044
  N       4.023026      3.333876      0.767345
  H       4.418235      1.552669      3.512129
  H       3.817830      0.375513      2.463388
  H       1.933479      1.732255      2.577931
  H       4.789034      2.698068      0.955653
  H       3.975836      3.748006     -0.152300
  O      -1.735077      1.554343      0.712486
  O       2.610521      0.255180     -0.004254
  N       0.430646      0.904762      0.371092
  N       0.908523     -1.184543     -0.512678
  C      -1.394114     -0.632663     -0.169903
  C      -0.961855      0.682467      0.332216
  C      -0.436419     -1.496104     -0.580345
  C      -2.865954     -0.924830     -0.216522
  C       1.401615      0.029425     -0.049935
  H      -0.666640     -2.480710     -0.975335
  H       0.714602      1.884787      0.605940
  H       1.609887     -1.828559     -0.850358
  H      -3.388258     -0.193985     -0.843579
  H      -3.309751     -0.852602      0.782576
  H      -3.056987     -1.926952     -0.612991
25
Coordinates from ORCA-job semicarbazide_thymine_opt_freq E -734.387215775298
  N       4.040777      1.411211      2.655320
  N       2.892972      2.191997      2.445502
  C       2.821893      2.959384      1.286371
  O       1.719446      3.353455      0.872408
  N       4.008173      3.298461      0.719461
  H       4.428070      1.582330      3.575979
  H       3.902060      0.425778      2.453807
  H       1.991244      1.790954      2.680121
  H       4.791266      2.696553      0.945551
  H       3.939310      3.657404     -0.220911
  O      -1.751714      1.539248      0.738401
  O       2.593935      0.259781      0.005521
  N       0.410363      0.890356      0.379603
  N       0.896567     -1.184997     -0.528414
  C      -1.409006     -0.634255     -0.184173
  C      -0.981602      0.670917      0.343601
  C      -0.449635     -1.492970     -0.602629
  C      -2.880682     -0.926792     -0.242684
  C       1.386060      0.021290     -0.045486
  H      -0.677317     -2.471370     -1.013757
  H       0.720279      1.853776      0.601897
  H       1.599749     -1.827473     -0.865403
  H      -3.401327     -0.186020     -0.859347
  H      -3.329747     -0.871688      0.755095
  H      -3.067592     -1.922437     -0.656813
25
Coordinates from ORCA-job semicarbazide_thymine_opt_freq E -734.388161890972
  N       4.109122      1.445735      2.669122
  N       2.953665      2.214944      2.464185
  C       2.850739      2.958407      1.290857
  O       1.737367      3.314823      0.879118
  N       4.027635      3.307902      0.710949
  H       4.441000      1.609584      3.612065
  H       3.989946      0.465095      2.432553
  H       2.061699      1.818594      2.740005
  H       4.833338      2.752663      0.971810
  H       3.957028      3.643828     -0.237339
  O      -1.794404      1.520793      0.743589
  O       2.563037      0.255247      0.018739
  N       0.370657      0.880957      0.381104
  N       0.872540     -1.191692     -0.527852
  C      -1.437461     -0.641726     -0.201158
  C      -1.020624      0.662603      0.336499
  C      -0.473468     -1.498419     -0.612036
  C      -2.907652     -0.940178     -0.273244
  C       1.355634      0.012729     -0.037235
  H      -0.696285     -2.476049     -1.027598
  H       0.699651      1.831161      0.619800
  H       1.578553     -1.837799     -0.851740
  H      -3.425895     -0.199216     -0.891677
  H      -3.365494     -0.889991      0.720799
  H      -3.086781     -1.935102     -0.692298
25
Coordinates from ORCA-job semicarbazide_thymine_opt_freq E -734.388638366548
  N       4.158959      1.449581      2.662097
  N       2.988807      2.205118      2.466241
  C       2.856810      2.959377      1.304774
  O       1.733950      3.308956      0.917502
  N       4.022698      3.335461      0.714119
  H       4.481795      1.609366      3.609057
  H       4.044371      0.470014      2.416980
  H       2.106198      1.804503      2.766324
  H       4.844546      2.799573      0.962193
  H       3.938572      3.690950     -0.225785
  O      -1.814121      1.529622      0.701847
  O       2.548690      0.238840      0.032010
  N       0.354103      0.877801      0.372949
  N       0.859102     -1.208298     -0.505977
  C      -1.451603     -0.645285     -0.210573
  C      -1.037160      0.662328      0.323025
  C      -0.487017     -1.510519     -0.599250
  C      -2.921865     -0.940178     -0.298062
  C       1.341694      0.000790     -0.027103
  H      -0.709995     -2.491987     -1.005775
  H       0.690750      1.823424      0.622582
  H       1.564978     -1.863909     -0.810273
  H      -3.429936     -0.202979     -0.929362
  H      -3.391293     -0.879558      0.689989
  H      -3.099488     -1.938099     -0.710509
25
Coordinates from ORCA-job semicarbazide_thymine_opt_freq E -734.389335862110
  N       4.242132      1.449015      2.637024
  N       3.041856      2.171182      2.465489
  C       2.861803      2.960940      1.341846
  O       1.723346      3.299822      0.996860
  N       4.006073      3.398242      0.741930
  H       4.579076      1.591860      3.581942
  H       4.130528      0.470921      2.383733
  H       2.178723      1.754060      2.799350
  H       4.857371      2.895858      0.954050
  H       3.894841      3.805923     -0.173406
  O      -1.838364      1.555108      0.600345
  O       2.526738      0.203924      0.052608
  N       0.333292      0.879815      0.332112
  N       0.835078     -1.242779     -0.462852
  C      -1.473625     -0.649839     -0.230926
  C      -1.058016      0.676377      0.259322
  C      -0.511283     -1.537177     -0.567793
  C      -2.944535     -0.937915     -0.332773
  C       1.320567     -0.021307     -0.018234
  H      -0.738179     -2.531279     -0.940444
  H       0.676832      1.818648      0.608118
  H       1.538389     -1.919700     -0.722603
  H      -3.435038     -0.222387     -1.001868
  H      -3.430096     -0.834621      0.643929
  H      -3.123964     -1.949798     -0.708739
25
Coordinates from ORCA-job semicarbazide_thymine_opt_freq E -734.389780204745
  N       4.319986      1.468276      2.619639
  N       3.094045      2.150604      2.478050
  C       2.869436      2.958517      1.380696
  O       1.715319      3.270231      1.060484
  N       3.986244      3.435119      0.757967
  H       4.673068      1.593228      3.561368
  H       4.220686      0.491584      2.355530
  H       2.252378      1.713623      2.838410
  H       4.862992      2.968015      0.942894
  H       3.842203      3.865846     -0.141844
  O      -1.858955      1.574550      0.511017
  O       2.504503      0.183668      0.079809
  N       0.313520      0.877759      0.306383
  N       0.812957     -1.268103     -0.425249
  C      -1.494431     -0.655524     -0.247159
  C      -1.076693      0.678209      0.223616
  C      -0.533268     -1.557918     -0.544541
  C      -2.965573     -0.934088     -0.369575
  C       1.299111     -0.037772     -0.003968
  H      -0.762205     -2.559083     -0.896558
  H       0.655632      1.812801      0.600629
  H       1.515160     -1.956947     -0.654417
  H      -3.437737     -0.229989     -1.063593
  H      -3.467709     -0.805090      0.595619
  H      -3.147125     -1.952621     -0.726188
25
Coordinates from ORCA-job semicarbazide_thymine_opt_freq E -734.390174879830
  N       4.401304      1.497006      2.604149
  N       3.149329      2.133033      2.500545
  C       2.872103      2.952054      1.425813
  O       1.700967      3.242838      1.143348
  N       3.952429      3.464317      0.770935
  H       4.766494      1.603043      3.544336
  H       4.327240      0.521753      2.324224
  H       2.332774      1.671635      2.884448
  H       4.852987      3.031504      0.919867
  H       3.765213      3.915440     -0.110491
  O      -1.867492      1.593207      0.428833
  O       2.485562      0.156416      0.115626
  N       0.300346      0.871373      0.273763
  N       0.790414     -1.296913     -0.390021
  C      -1.513966     -0.658260     -0.269375
  C      -1.088962      0.684740      0.167442
  C      -0.556706     -1.578293     -0.525410
  C      -2.985902     -0.924178     -0.406565
  C       1.280463     -0.060995      0.011071
  H      -0.789967     -2.586441     -0.853611
  H       0.643193      1.797758      0.587011
  H       1.490022     -1.997690     -0.588854
  H      -3.439327     -0.236701     -1.129112
  H      -3.501771     -0.760555      0.546030
  H      -3.173204     -1.951199     -0.734978
25
Coordinates from ORCA-job semicarbazide_thymine_opt_freq E -734.390478988625
  N       4.468312      1.532982      2.591512
  N       3.196647      2.128072      2.529181
  C       2.871578      2.940783      1.462448
  O       1.685565      3.205886      1.210138
  N       3.917130      3.476837      0.776809
  H       4.852623      1.621834      3.526313
  H       4.424743      0.559446      2.297198
  H       2.401678      1.639800      2.924605
  H       4.835395      3.073618      0.899468
  H       3.690625      3.931846     -0.093247
  O      -1.870608      1.607798      0.368239
  O       2.470636      0.130849      0.155367
  N       0.290579      0.862829      0.257547
  N       0.771772     -1.319837     -0.358748
  C      -1.529635     -0.659167     -0.287068
  C      -1.098139      0.685842      0.134091
  C      -0.575847     -1.592036     -0.512622
  C      -3.001629     -0.912196     -0.442085
  C       1.265362     -0.082434      0.031565
  H      -0.811925     -2.603643     -0.827491
  H       0.630748      1.785996      0.575696
  H       1.469596     -2.027072     -0.540676
  H      -3.437412     -0.232773     -1.182805
  H      -3.530347     -0.727433      0.499467
  H      -3.193904     -1.942935     -0.755884
25
Coordinates from ORCA-job semicarbazide_thymine_opt_freq E -734.390682517046
  N       4.528432      1.568955      2.578247
  N       3.241965      2.132691      2.556213
  C       2.872362      2.933348      1.491906
  O       1.674618      3.169832      1.266335
  N       3.888005      3.483417      0.775671
  H       4.923657      1.645045      3.509952
  H       4.510922      0.598339      2.270070
  H       2.466739      1.616950      2.956308
  H       4.818454      3.103469      0.879213
  H       3.627965      3.934379     -0.087070
  O      -1.875864      1.615961      0.332842
  O       2.455209      0.104889      0.200491
  N       0.279215      0.852501      0.257287
  N       0.753987     -1.338925     -0.328745
  C      -1.543892     -0.658879     -0.303656
  C      -1.109171      0.685310      0.113776
  C      -0.593128     -1.600966     -0.504710
  C      -3.014974     -0.901968     -0.480087
  C       1.250344     -0.102615      0.058535
  H      -0.830430     -2.613946     -0.814094
  H       0.619471      1.771988      0.580056
  H       1.450578     -2.050200     -0.499443
  H      -3.434001     -0.225427     -1.232992
  H      -3.557314     -0.705310      0.451230
  H      -3.209607     -1.933946     -0.788315
25
Coordinates from ORCA-job semicarbazide_thymine_opt_freq E -734.390883915940
  N       4.582949      1.602670      2.556831
  N       3.284589      2.141030      2.579175
  C       2.869995      2.928507      1.517855
  O       1.662703      3.138305      1.323527
  N       3.857181      3.497353      0.777030
  H       5.001518      1.667206      3.479470
  H       4.583130      0.634588      2.238919
  H       2.529234      1.592659      2.975138
  H       4.797135      3.136579      0.861239
  H       3.566421      3.948551     -0.075755
  O      -1.875757      1.623707      0.301441
  O       2.441284      0.067583      0.252071
  N       0.271680      0.837563      0.266924
  N       0.734898     -1.363144     -0.292467
  C      -1.556004     -0.658322     -0.318880
  C      -1.116594      0.683155      0.100570
  C      -0.611010     -1.611092     -0.494705
  C      -3.025711     -0.888858     -0.522093
  C       1.237145     -0.129010      0.092471
  H      -0.851525     -2.624240     -0.801190
  H       0.613432      1.754699      0.591293
  H       1.428650     -2.079582     -0.452988
  H      -3.424310     -0.212095     -1.285834
  H      -3.583648     -0.682361      0.397829
  H      -3.223844     -1.920557     -0.828853
25
Coordinates from ORCA-job semicarbazide_thymine_opt_freq E -734.391124959833
  N       4.651778      1.643656      2.525290
  N       3.342424      2.157081      2.598756
  C       2.876673      2.928639      1.541713
  O       1.661022      3.098871      1.377182
  N       3.833213      3.522272      0.778868
  H       5.084967      1.698596      3.441994
  H       4.661457      0.679211      2.195471
  H       2.612618      1.566680      2.983464
  H       4.783386      3.186213      0.849803
  H       3.513627      3.972301     -0.064098
  O      -1.884696      1.625273      0.278446
  O       2.416407      0.020786      0.328008
  N       0.254088      0.814688      0.295959
  N       0.706776     -1.392845     -0.245503
  C      -1.573849     -0.660098     -0.337344
  C      -1.132474      0.676477      0.094926
  C      -0.635589     -1.623595     -0.485681
  C      -3.040027     -0.876837     -0.580050
  C       1.214162     -0.162549      0.145035
  H      -0.878649     -2.634923     -0.796422
  H       0.600259      1.726911      0.628973
  H       1.397519     -2.114632     -0.394631
  H      -3.411847     -0.195378     -1.353112
  H      -3.620035     -0.665667      0.325099
  H      -3.239668     -1.906238     -0.893125
25
Coordinates from ORCA-job semicarbazide_thymine_opt_freq E -734.391335016035
  N       4.700999      1.670364      2.480704
  N       3.384787      2.167916      2.604846
  C       2.876977      2.941310      1.563619
  O       1.656393      3.082849      1.427538
  N       3.808311      3.565158      0.791181
  H       5.166063      1.718073      3.382317
  H       4.705607      0.706795      2.148059
  H       2.677422      1.535774      2.965720
  H       4.764183      3.241606      0.843631
  H       3.467018      4.028094     -0.036138
  O      -1.878427      1.628370      0.252417
  O       2.397890     -0.040638      0.406053
  N       0.247306      0.785412      0.330365
  N       0.680255     -1.430684     -0.194648
  C      -1.584778     -0.662682     -0.350533
  C      -1.136355      0.668186      0.092601
  C      -0.658060     -1.640435     -0.471671
  C      -3.046952     -0.859706     -0.633300
  C       1.197669     -0.205264      0.200370
  H      -0.908350     -2.648722     -0.786700
  H       0.599671      1.694033      0.665771
  H       1.364529     -2.161065     -0.331274
  H      -3.388301     -0.172908     -1.415666
  H      -3.648110     -0.640877      0.256153
  H      -3.252203     -1.886067     -0.952396
25
Coordinates from ORCA-job semicarbazide_thymine_opt_freq E -734.391558769662
  N       4.731771      1.690391      2.448157
  N       3.410281      2.176492      2.594116
  C       2.882827      2.946527      1.556866
  O       1.660400      3.059888      1.422316
  N       3.802882      3.602771      0.797147
  H       5.202988      1.744071      3.346206
  H       4.725723      0.726188      2.118209
  H       2.719773      1.513481      2.931485
  H       4.764031      3.294930      0.854152
  H       3.460076      4.073503     -0.024989
  O      -1.879234      1.621661      0.259720
  O       2.381172     -0.090803      0.479449
  N       0.236896      0.757386      0.381310
  N       0.660398     -1.456659     -0.161605
  C      -1.593008     -0.665924     -0.356143
  C      -1.141843      0.656707      0.109675
  C      -0.673491     -1.651017     -0.469001
  C      -3.050579     -0.846432     -0.672978
  C       1.182183     -0.238870      0.253778
  H      -0.927582     -2.652988     -0.800707
  H       0.593320      1.662775      0.723508
  H       1.340105     -2.191966     -0.294381
  H      -3.368574     -0.147185     -1.454137
  H      -3.668822     -0.633217      0.206101
  H      -3.258150     -1.866815     -1.009232
25
Coordinates from ORCA-job semicarbazide_thymine_opt_freq E -734.391836141109
  N       4.756680      1.698623      2.393380
  N       3.429133      2.168833      2.567500
  C       2.883205      2.969738      1.563114
  O       1.658564      3.068460      1.437174
  N       3.789350      3.662836      0.819207
  H       5.243093      1.756618      3.283228
  H       4.737617      0.733352      2.067885
  H       2.755870      1.478262      2.881106
  H       4.753700      3.361397      0.859267
  H       3.440347      4.161957      0.016810
  O      -1.861355      1.620945      0.243143
  O       2.365458     -0.159061      0.566604
  N       0.235988      0.721162      0.428459
  N       0.638707     -1.495759     -0.117108
  C      -1.596763     -0.670999     -0.361143
  C      -1.134965      0.644302      0.116136
  C      -0.690449     -1.670232     -0.456018
  C      -3.048813     -0.826005     -0.714561
  C       1.169048     -0.286784      0.314590
  H      -0.953633     -2.666318     -0.797975
  H       0.599399      1.622452      0.774113
  H       1.308799     -2.242346     -0.234865
  H      -3.335283     -0.119092     -1.500913
  H      -3.685091     -0.605844      0.149789
  H      -3.265062     -1.841604     -1.059902
25
Coordinates from ORCA-job semicarbazide_thymine_opt_freq E -734.392168875316
  N       4.757840      1.705225      2.350306
  N       3.422184      2.154572      2.528228
  C       2.874871      2.973619      1.542262
  O       1.648318      3.060421      1.407083
  N       3.773331      3.704015      0.827698
  H       5.251343      1.779418      3.234993
  H       4.737291      0.737398      2.033977
  H       2.760970      1.442751      2.819242
  H       4.741774      3.414491      0.862396
  H       3.426494      4.222101      0.036556
  O      -1.837193      1.617613      0.259701
  O       2.357474     -0.225665      0.661620
  N       0.241472      0.686858      0.494095
  N       0.629750     -1.522975     -0.087118
  C      -1.591247     -0.670795     -0.358688
  C      -1.120058      0.632081      0.143168
  C      -0.694707     -1.679169     -0.453469
  C      -3.037485     -0.798439     -0.743541
  C       1.163851     -0.329124      0.379833
  H      -0.963797     -2.665574     -0.817832
  H       0.606700      1.587926      0.839498
  H       1.291084     -2.278319     -0.198138
  H      -3.296993     -0.075459     -1.524494
  H      -3.688324     -0.582758      0.110971
  H      -3.261400     -1.805318     -1.109328
25
Coordinates from ORCA-job semicarbazide_thymine_opt_freq E -734.392660100295
  N       4.792109      1.715067      2.269853
  N       3.446559      2.125028      2.483350
  C       2.875854      2.981764      1.550042
  O       1.643953      3.059345      1.434408
  N       3.746429      3.760895      0.856043
  H       5.290159      1.782419      3.152820
  H       4.777100      0.752169      1.937962
  H       2.808336      1.384323      2.749147
  H       4.722219      3.495508      0.856064
  H       3.376619      4.315462      0.100965
  O      -1.816436      1.622314      0.232164
  O       2.320320     -0.290204      0.806406
  N       0.231955      0.652998      0.553727
  N       0.605985     -1.558855     -0.022943
  C      -1.592115     -0.673180     -0.366787
  C      -1.113646      0.622334      0.147473
  C      -0.708320     -1.696211     -0.433012
  C      -3.026094     -0.772800     -0.800073
  C       1.137588     -0.377117      0.472341
  H      -0.980724     -2.677676     -0.807839
  H       0.602330      1.554289      0.901169
  H       1.256189     -2.327599     -0.103215
  H      -3.244586     -0.045336     -1.589251
  H      -3.701586     -0.544508      0.031633
  H      -3.256652     -1.775535     -1.173425
25
Coordinates from ORCA-job semicarbazide_thymine_opt_freq E -734.393302484283
  N       4.797912      1.709758      2.197364
  N       3.440828      2.069302      2.421210
  C       2.856652      2.963926      1.544364
  O       1.619221      3.036037      1.442149
  N       3.700996      3.786852      0.871482
  H       5.290778      1.771863      3.083867
  H       4.814937      0.754097      1.844816
  H       2.817902      1.306958      2.664427
  H       4.683043      3.550973      0.832430
  H       3.302282      4.367266      0.151099
  O      -1.787093      1.636932      0.221545
  O       2.294669     -0.335237      0.954912
  N       0.235009      0.641762      0.612857
  N       0.603615     -1.569836      0.034477
  C      -1.576059     -0.662396     -0.367740
  C      -1.095529      0.626527      0.159966
  C      -0.700600     -1.694176     -0.411592
  C      -2.997763     -0.741681     -0.840807
  C       1.125867     -0.402161      0.564307
  H      -0.970653     -2.672286     -0.796524
  H       0.603499      1.547455      0.950441
  H       1.242426     -2.350864     -0.011292
  H      -3.183415     -0.011206     -1.635540
  H      -3.693456     -0.503538     -0.028849
  H      -3.231524     -1.741437     -1.220350
25
Coordinates from ORCA-job semicarbazide_thymine_opt_freq E -734.393886428554
  N       4.825198      1.701602      2.091992
  N       3.468261      2.029276      2.367854
  C       2.860128      2.965324      1.558708
  O       1.618717      3.040819      1.495006
  N       3.678668      3.829570      0.905752
  H       5.340789      1.722867      2.967775
  H       4.844994      0.754833      1.715295
  H       2.857849      1.244193      2.568573
  H       4.663196      3.618226      0.824244
  H       3.246276      4.448683      0.238743
  O      -1.785029      1.645237      0.193255
  O       2.231644     -0.353875      1.125157
  N       0.209867      0.633642      0.669600
  N       0.584025     -1.583852      0.117678
  C      -1.570963     -0.660259     -0.378088
  C      -1.102245      0.627591      0.163432
  C      -0.702602     -1.699428     -0.379879
  C      -2.973060     -0.731198     -0.907064
  C       1.086655     -0.421309      0.671132
  H      -0.962597     -2.678718     -0.768872
  H       0.578562      1.541753      1.009799
  H       1.214398     -2.373077      0.115795
  H      -3.120834     -0.004160     -1.712894
  H      -3.698343     -0.481272     -0.125082
  H      -3.200011     -1.731576     -1.288890
25
Coordinates from ORCA-job semicarbazide_thymine_opt_freq E -734.394386271549
  N       4.842964      1.693996      2.045280
  N       3.483296      1.990454      2.328643
  C       2.856649      2.937705      1.547363
  O       1.614649      2.997006      1.495947
  N       3.658488      3.830201      0.906692
  H       5.350276      1.677850      2.926639
  H       4.898694      0.759343      1.640836
  H       2.877078      1.192412      2.501306
  H       4.648172      3.651179      0.820023
  H       3.198508      4.454940      0.263479
  O      -1.810459      1.651829      0.209758
  O       2.194437     -0.339901      1.232508
  N       0.186417      0.653319      0.705301
  N       0.582156     -1.565022      0.165617
  C      -1.563207     -0.646803     -0.383719
  C      -1.120341      0.640614      0.179530
  C      -0.691686     -1.681121     -0.363669
  C      -2.952008     -0.729450     -0.946822
  C       1.063811     -0.404943      0.739710
  H      -0.933916     -2.662615     -0.758928
  H       0.545423      1.557796      1.059740
  H       1.210339     -2.355592      0.194864
  H      -3.087246     -0.002429     -1.755115
  H      -3.697065     -0.484729     -0.181847
  H      -3.161886     -1.731147     -1.334117
25
Coordinates from ORCA-job semicarbazide_thymine_opt_freq E -734.394728124365
  N       4.860884      1.679874      1.965118
  N       3.508324      1.977274      2.298101
  C       2.870549      2.962482      1.565513
  O       1.629874      3.023480      1.532080
  N       3.668935      3.880295      0.955032
  H       5.385361      1.626343      2.835797
  H       4.896560      0.763272      1.518105
  H       2.900734      1.170144      2.420887
  H       4.656865      3.697529      0.856139
  H       3.207172      4.540995      0.350446
  O      -1.818989      1.650359      0.176677
  O       2.144148     -0.343349      1.323032
  N       0.159996      0.646196      0.734426
  N       0.557113     -1.580680      0.230827
  C      -1.565188     -0.654589     -0.388600
  C      -1.132656      0.636822      0.175032
  C      -0.702146     -1.694445     -0.333241
  C      -2.937569     -0.736937     -0.991835
  C       1.029247     -0.414614      0.801724
  H      -0.939667     -2.678076     -0.725823
  H       0.525112      1.547670      1.088302
  H       1.178661     -2.374916      0.288808
  H      -3.045639     -0.017685     -1.811079
  H      -3.703206     -0.481161     -0.251166
  H      -3.140932     -1.741390     -1.375281
25
Coordinates from ORCA-job semicarbazide_thymine_opt_freq E -734.394970151979
  N       4.883595      1.695536      1.966076
  N       3.540218      1.996980      2.320046
  C       2.885919      2.984674      1.585570
  O       1.649575      3.024837      1.549908
  N       3.684846      3.916152      0.992081
  H       5.437947      1.614502      2.815445
  H       4.934623      0.809506      1.463189
  H       2.926548      1.188587      2.426238
  H       4.674348      3.727651      0.919259
  H       3.232312      4.585021      0.390120
  O      -1.826957      1.645488      0.139608
  O       2.144102     -0.372959      1.288873
  N       0.153979      0.641693      0.700326
  N       0.523924     -1.602285      0.251180
  C      -1.582050     -0.665184     -0.394957
  C      -1.143294      0.631704      0.150734
  C      -0.733715     -1.712848     -0.315924
  C      -2.952858     -0.750252     -1.004563
  C       1.019082     -0.423992      0.785403
  H      -0.982236     -2.700254     -0.691692
  H       0.519194      1.533780      1.060709
  H       1.137891     -2.401273      0.322204
  H      -3.052314     -0.046884     -1.838604
  H      -3.719723     -0.475124     -0.272089
  H      -3.161411     -1.760161     -1.370121
25
Coordinates from ORCA-job semicarbazide_thymine_opt_freq E -734.395351670152
  N       4.889010      1.691120      1.915456
  N       3.540798      1.960950      2.267608
  C       2.870061      2.964193      1.575672
  O       1.631811      2.986132      1.544540
  N       3.649817      3.931681      1.017814
  H       5.436248      1.609776      2.767693
  H       4.940990      0.825486      1.381123
  H       2.943079      1.141925      2.367974
  H       4.642769      3.764146      0.938112
  H       3.189922      4.618522      0.442618
  O      -1.796149      1.658738      0.112801
  O       2.123141     -0.389049      1.360035
  N       0.160335      0.638292      0.726709
  N       0.515374     -1.611611      0.297284
  C      -1.568749     -0.658928     -0.392909
  C      -1.123381      0.637621      0.148789
  C      -0.733153     -1.716204     -0.290978
  C      -2.928641     -0.730347     -1.027487
  C       1.010383     -0.434058      0.833276
  H      -0.986962     -2.702655     -0.665592
  H       0.522632      1.530149      1.096065
  H       1.115989     -2.417968      0.392826
  H      -3.002303     -0.033585     -1.869652
  H      -3.705672     -0.438757     -0.312410
  H      -3.143806     -1.740674     -1.388348
25
Coordinates from ORCA-job semicarbazide_thymine_opt_freq E -734.395574394012
  N       4.895319      1.691354      1.862008
  N       3.549869      1.929415      2.229945
  C       2.867060      2.958134      1.600612
  O       1.626323      2.978094      1.591439
  N       3.630839      3.951023      1.067353
  H       5.457673      1.587703      2.700572
  H       4.954650      0.849977      1.292726
  H       2.959104      1.104708      2.325549
  H       4.623812      3.799489      0.961688
  H       3.156136      4.659626      0.531901
  O      -1.763552      1.673517      0.045524
  O       2.106354     -0.395527      1.405009
  N       0.168297      0.641737      0.712513
  N       0.499323     -1.621807      0.341880
  C      -1.564477     -0.660014     -0.397936
  C      -1.107014      0.642975      0.116056
  C      -0.743150     -1.725603     -0.259215
  C      -2.917677     -0.727103     -1.046054
  C       1.000169     -0.439883      0.860732
  H      -1.005523     -2.717603     -0.612649
  H       0.526175      1.538487      1.079579
  H       1.087286     -2.433347      0.467993
  H      -2.970958     -0.052227     -1.907409
  H      -3.698476     -0.404649     -0.348633
  H      -3.144018     -1.743582     -1.382160
25
Coordinates from ORCA-job semicarbazide_thymine_opt_freq E -734.395790406703
  N       4.900238      1.709996      1.837237
  N       3.555210      1.916201      2.210328
  C       2.857775      2.950412      1.612674
  O       1.615513      2.956995      1.612509
  N       3.605993      3.960780      1.091135
  H       5.476531      1.595508      2.663827
  H       4.978955      0.897113      1.231229
  H       2.976321      1.082713      2.307152
  H       4.599849      3.823320      0.974758
  H       3.121113      4.674710      0.572077
  O      -1.722109      1.685510      0.008580
  O       2.099466     -0.428951      1.433915
  N       0.183317      0.630032      0.708888
  N       0.480374     -1.642262      0.372896
  C      -1.560755     -0.658161     -0.401466
  C      -1.086265      0.643073      0.098570
  C      -0.757105     -1.734985     -0.239148
  C      -2.908931     -0.711112     -1.060591
  C       0.996057     -0.462269      0.880428
  H      -1.032616     -2.727649     -0.580506
  H       0.540123      1.525442      1.083395
  H       1.057447     -2.459600      0.512450
  H      -2.942785     -0.048998     -1.932793
  H      -3.690375     -0.364067     -0.375872
  H      -3.149796     -1.728858     -1.382653
25
Coordinates from ORCA-job semicarbazide_thymine_opt_freq E -734.396086358179
  N       4.916522      1.736335      1.783778
  N       3.572703      1.895158      2.170014
  C       2.854121      2.945935      1.633832
  O       1.611447      2.936486      1.650908
  N       3.581937      3.988163      1.146861
  H       5.504515      1.591054      2.596762
  H       5.018271      0.976748      1.115623
  H       3.009473      1.047412      2.252337
  H       4.576155      3.870495      1.013814
  H       3.082545      4.719633      0.667502
  O      -1.667254      1.698473     -0.058527
  O       2.075535     -0.475774      1.488537
  N       0.196028      0.613308      0.703559
  N       0.442029     -1.672483      0.431619
  C      -1.559249     -0.659646     -0.407871
  C      -1.062579      0.641323      0.067655
  C      -0.784705     -1.750378     -0.201457
  C      -2.896363     -0.697849     -1.089760
  C       0.978965     -0.493543      0.918039
  H      -1.078794     -2.745098     -0.520631
  H       0.555680      1.506535      1.079579
  H       1.002754     -2.497125      0.594393
  H      -2.898305     -0.060213     -1.980703
  H      -3.680857     -0.311760     -0.429898
  H      -3.157033     -1.718296     -1.386944
25
Coordinates from ORCA-job semicarbazide_thymine_opt_freq E -734.396480798870
  N       4.929622      1.774652      1.739087
  N       3.579067      1.871533      2.116137
  C       2.836750      2.928907      1.633316
  O       1.594265      2.893761      1.652889
  N       3.540273      4.007771      1.191147
  H       5.520036      1.606454      2.545748
  H       5.074580      1.067818      1.022990
  H       3.040459      1.004095      2.181113
  H       4.536108      3.919187      1.048818
  H       3.022810      4.748018      0.745396
  O      -1.592724      1.713726     -0.106365
  O       2.053323     -0.544777      1.552047
  N       0.219252      0.587725      0.715148
  N       0.402104     -1.708457      0.489970
  C      -1.551403     -0.654554     -0.409676
  C      -1.026451      0.639827      0.050451
  C      -0.812259     -1.761583     -0.165926
  C      -2.876418     -0.669192     -1.115383
  C       0.966334     -0.537308      0.963185
  H      -1.129723     -2.754481     -0.468344
  H       0.588202      1.478657      1.086722
  H       0.945809     -2.542313      0.664048
  H      -2.843533     -0.051117     -2.019457
  H      -3.661040     -0.245525     -0.479085
  H      -3.161901     -1.687931     -1.394954
25
Coordinates from ORCA-job semicarbazide_thymine_opt_freq E -734.396904894422
  N       4.964044      1.817053      1.682497
  N       3.605306      1.849883      2.048498
  C       2.840318      2.921137      1.638881
  O       1.599356      2.863655      1.658058
  N       3.521424      4.042340      1.271406
  H       5.542469      1.604394      2.488111
  H       5.142768      1.165192      0.922738
  H       3.091741      0.963905      2.082406
  H       4.519156      3.987866      1.127336
  H       2.986046      4.800254      0.879875
  O      -1.536008      1.717235     -0.185043
  O       2.018653     -0.592766      1.605293
  N       0.227637      0.567152      0.707716
  N       0.348918     -1.739997      0.556200
  C      -1.555942     -0.659854     -0.414063
  C      -1.003968      0.633875      0.016261
  C      -0.853205     -1.777751     -0.121666
  C      -2.868099     -0.662319     -1.143845
  C       0.940015     -0.570278      1.000720
  H      -1.194044     -2.771014     -0.396731
  H       0.613579      1.458924      1.062419
  H       0.874229     -2.581090      0.750474
  H      -2.801821     -0.074533     -2.066133
  H      -3.651943     -0.197172     -0.536063
  H      -3.177085     -1.681198     -1.396327
25
Coordinates from ORCA-job semicarbazide_thymine_opt_freq E -734.397312976292
  N       4.991587      1.858994      1.712168
  N       3.611365      1.849383      2.014216
  C       2.841915      2.917528      1.602251
  O       1.603268      2.842161      1.572009
  N       3.515189      4.061921      1.294431
  H       5.527485      1.638373      2.546489
  H       5.227480      1.198382      0.974740
  H       3.118799      0.951357      2.030186
  H       4.518428      4.033506      1.187029
  H       2.975841      4.816880      0.902473
  O      -1.516319      1.712835     -0.200980
  O       2.024438     -0.632970      1.575599
  N       0.238254      0.547524      0.694779
  N       0.327693     -1.763611      0.556283
  C      -1.568440     -0.663875     -0.407250
  C      -0.994910      0.626381      0.009814
  C      -0.879800     -1.788884     -0.113527
  C      -2.885432     -0.654284     -1.128773
  C       0.940630     -0.597213      0.983413
  H      -1.236537     -2.779438     -0.378452
  H       0.652367      1.439260      1.018404
  H       0.846306     -2.610768      0.740715
  H      -2.817339     -0.071203     -2.053870
  H      -3.659627     -0.177380     -0.517583
  H      -3.209098     -1.669966     -1.375544
25
Coordinates from ORCA-job semicarbazide_thymine_opt_freq E -734.397590729159
  N       5.015584      1.874562      1.731916
  N       3.623370      1.857299      1.994634
  C       2.863427      2.933194      1.580646
  O       1.626767      2.858728      1.515135
  N       3.542526      4.084738      1.314784
  H       5.513290      1.640957      2.587377
  H       5.260529      1.191649      1.017343
  H       3.133504      0.959109      1.985884
  H       4.548618      4.060850      1.237579
  H       3.010587      4.845187      0.923415
  O      -1.542078      1.698928     -0.201522
  O       2.017757     -0.626804      1.552586
  N       0.222121      0.541427      0.689419
  N       0.319661     -1.770648      0.547869
  C      -1.584610     -0.675793     -0.403619
  C      -1.011482      0.617082      0.011558
  C      -0.892255     -1.800532     -0.116957
  C      -2.904431     -0.667950     -1.120418
  C       0.930405     -0.600091      0.969046
  H      -1.247017     -2.791151     -0.383966
  H       0.655417      1.434540      0.992447
  H       0.836897     -2.618390      0.732275
  H      -2.841737     -0.080660     -2.043188
  H      -3.678278     -0.197747     -0.503649
  H      -3.225027     -1.683591     -1.371573
25
Coordinates from ORCA-job semicarbazide_thymine_opt_freq E -734.397707735541
  N       5.030403      1.890412      1.800386
  N       3.628379      1.861706      1.999557
  C       2.874425      2.926882      1.554264
  O       1.640434      2.840551      1.450607
  N       3.550111      4.082638      1.299088
  H       5.482555      1.666269      2.683927
  H       5.301731      1.188527      1.113777
  H       3.145072      0.960593      1.990350
  H       4.558321      4.070355      1.254176
  H       3.022532      4.832553      0.882370
  O      -1.561497      1.694342     -0.193189
  O       2.045135     -0.620652      1.481778
  N       0.226350      0.542997      0.657271
  N       0.329983     -1.768481      0.508943
  C      -1.598483     -0.678941     -0.398343
  C      -1.019734      0.614862      0.006969
  C      -0.896665     -1.802956     -0.130013
  C      -2.932792     -0.671582     -1.087514
  C       0.944402     -0.596638      0.920800
  H      -1.252764     -2.793682     -0.394308
  H       0.669221      1.436570      0.947303
  H       0.847790     -2.616686      0.689171
  H      -2.891121     -0.080597     -2.009075
  H      -3.695244     -0.206778     -0.452844
  H      -3.255001     -1.687372     -1.336432
25
Coordinates from ORCA-job semicarbazide_thymine_opt_freq E -734.397822906976
  N       5.018322      1.887575      1.830960
  N       3.613099      1.864745      1.988627
  C       2.876848      2.938873      1.538884
  O       1.643945      2.860720      1.409724
  N       3.565326      4.091120      1.302069
  H       5.450131      1.675199      2.727513
  H       5.300369      1.173006      1.162373
  H       3.119280      0.969517      1.959637
  H       4.574171      4.068193      1.272408
  H       3.052875      4.845252      0.874148
  O      -1.564900      1.688448     -0.182659
  O       2.061133     -0.625953      1.448314
  N       0.234386      0.539431      0.644478
  N       0.339837     -1.770927      0.487444
  C      -1.601164     -0.683452     -0.392348
  C      -1.018050      0.609291      0.008997
  C      -0.894871     -1.808134     -0.136476
  C      -2.942898     -0.673418     -1.066619
  C       0.955851     -0.599791      0.897243
  H      -1.251289     -2.798066     -0.402644
  H       0.684903      1.433533      0.917624
  H       0.853585     -2.620385      0.673448
  H      -2.912261     -0.079030     -1.986381
  H      -3.698695     -0.212066     -0.421704
  H      -3.266390     -1.688788     -1.316041
25
Coordinates from ORCA-job semicarbazide_thymine_opt_freq E -734.397945788658
  N       5.019535      1.894015      1.860660
  N       3.612298      1.861388      1.971725
  C       2.881408      2.936890      1.520323
  O       1.651020      2.853534      1.365894
  N       3.569634      4.094336      1.309495
  H       5.427726      1.676391      2.766597
  H       5.322776      1.189864      1.190689
  H       3.118257      0.966457      1.918337
  H       4.579000      4.073341      1.301432
  H       3.063728      4.850307      0.877086
  O      -1.567480      1.687370     -0.177742
  O       2.068177     -0.625825      1.427314
  N       0.240963      0.538463      0.626389
  N       0.342463     -1.771798      0.475270
  C      -1.605165     -0.685085     -0.390641
  C      -1.019167      0.607269      0.005542
  C      -0.897804     -1.810288     -0.137308
  C      -2.952180     -0.674888     -1.054165
  C       0.960419     -0.601343      0.880456
  H      -1.255393     -2.800567     -0.400296
  H       0.692479      1.431465      0.903862
  H       0.850129     -2.621649      0.676200
  H      -2.929359     -0.082293     -1.975319
  H      -3.702329     -0.211604     -0.404129
  H      -3.277591     -1.690858     -1.298653
25
Coordinates from ORCA-job semicarbazide_thymine_opt_freq E -734.398144398986
  N       5.020079      1.903905      1.946043
  N       3.610817      1.866839      1.960399
  C       2.905231      2.950553      1.491331
  O       1.683813      2.871997      1.273447
  N       3.605828      4.109171      1.336256
  H       5.376083      1.672545      2.870181
  H       5.372604      1.219815      1.279459
  H       3.114967      0.975318      1.867633
  H       4.614130      4.081182      1.380833
  H       3.125544      4.873811      0.890177
  O      -1.585481      1.678818     -0.198079
  O       2.096558     -0.617310      1.332197
  N       0.251958      0.539801      0.550223
  N       0.348933     -1.771899      0.430298
  C      -1.626128     -0.697202     -0.388509
  C      -1.031478      0.600025     -0.025710
  C      -0.910576     -1.818251     -0.139804
  C      -2.993300     -0.697779     -1.009474
  C       0.975463     -0.597962      0.807817
  H      -1.273468     -2.812685     -0.378841
  H       0.706073      1.434124      0.823172
  H       0.854302     -2.618579      0.650402
  H      -3.001185     -0.118698     -1.939454
  H      -3.722863     -0.224834     -0.343144
  H      -3.324363     -1.717814     -1.227832
25
Coordinates from ORCA-job semicarbazide_thymine_opt_freq E -734.398323317259
  N       5.021694      1.922989      2.000751
  N       3.616605      1.854563      1.911553
  C       2.915439      2.946338      1.458564
  O       1.707479      2.859446      1.177335
  N       3.601470      4.122325      1.388978
  H       5.314887      1.662802      2.939273
  H       5.444754      1.283372      1.331001
  H       3.136959      0.958024      1.775147
  H       4.606791      4.107298      1.480632
  H       3.129633      4.898570      0.954174
  O      -1.560520      1.678419     -0.251321
  O       2.114934     -0.628519      1.265585
  N       0.280291      0.533068      0.479262
  N       0.342586     -1.782537      0.416245
  C      -1.636823     -0.701703     -0.383117
  C      -1.018274      0.596317     -0.066641
  C      -0.930600     -1.824786     -0.120510
  C      -3.018068     -0.701119     -0.972139
  C       0.988383     -0.608262      0.757291
  H      -1.311288     -2.820518     -0.324415
  H       0.742009      1.426470      0.736100
  H       0.838344     -2.628821      0.659160
  H      -3.040129     -0.147276     -1.917155
  H      -3.725359     -0.199544     -0.302632
  H      -3.367652     -1.722025     -1.154101
25
Coordinates from ORCA-job semicarbazide_thymine_opt_freq E -734.398494330029
  N       5.009784      1.923912      2.077083
  N       3.611674      1.855050      1.887962
  C       2.935070      2.955127      1.417045
  O       1.746941      2.873750      1.062016
  N       3.621407      4.133160      1.415362
  H       5.237265      1.646460      3.028706
  H       5.485389      1.300067      1.428283
  H       3.145109      0.958010      1.723278
  H       4.620032      4.114609      1.563169
  H       3.175636      4.919675      0.971751
  O      -1.570218      1.672350     -0.279329
  O       2.141114     -0.611040      1.174708
  N       0.290644      0.535162      0.416467
  N       0.351452     -1.782366      0.380467
  C      -1.650783     -0.709589     -0.374097
  C      -1.023542      0.593348     -0.093470
  C      -0.937284     -1.829076     -0.117199
  C      -3.048452     -0.717463     -0.923378
  C       1.003257     -0.602626      0.693860
  H      -1.324801     -2.827190     -0.295806
  H       0.756810      1.431578      0.657785
  H       0.853716     -2.625222      0.621523
  H      -3.096361     -0.176245     -1.874724
  H      -3.736384     -0.206335     -0.240927
  H      -3.403929     -1.740215     -1.081517
25
Coordinates from ORCA-job semicarbazide_thymine_opt_freq E -734.398598467513
  N       4.999071      1.919475      2.096624
  N       3.607302      1.849256      1.865220
  C       2.936675      2.955198      1.400662
  O       1.757628      2.876206      1.017276
  N       3.616933      4.136607      1.438539
  H       5.197946      1.628865      3.050568
  H       5.502830      1.313317      1.452774
  H       3.150177      0.949522      1.693918
  H       4.612299      4.120755      1.607246
  H       3.179188      4.930149      0.999501
  O      -1.560420      1.671059     -0.311412
  O       2.157212     -0.608209      1.138848
  N       0.300917      0.536225      0.391048
  N       0.353355     -1.782730      0.380345
  C      -1.652273     -0.710532     -0.366959
  C      -1.015773      0.593822     -0.111072
  C      -0.940556     -1.829601     -0.104749
  C      -3.055261     -0.719087     -0.902725
  C       1.013430     -0.600692      0.672483
  H      -1.336190     -2.827564     -0.265865
  H       0.770368      1.436250      0.610992
  H       0.859361     -2.625860      0.611745
  H      -3.108070     -0.189080     -1.860077
  H      -3.734697     -0.196909     -0.220118
  H      -3.417909     -1.741550     -1.045794
25
Coordinates from ORCA-job semicarbazide_thymine_opt_freq E -734.398681529524
  N       4.983943      1.913195      2.116851
  N       3.601014      1.849028      1.843815
  C       2.942390      2.961624      1.379689
  O       1.772718      2.888902      0.967431
  N       3.622449      4.141969      1.450057
  H       5.154415      1.609572      3.072129
  H       5.507426      1.316201      1.480495
  H       3.148908      0.949485      1.661110
  H       4.613370      4.123764      1.642996
  H       3.198037      4.940797      1.007442
  O      -1.562025      1.667699     -0.315420
  O       2.168362     -0.604523      1.113264
  N       0.302077      0.536424      0.386458
  N       0.356260     -1.782502      0.380610
  C      -1.653504     -0.713031     -0.359226
  C      -1.014673      0.592289     -0.111322
  C      -0.940061     -1.831753     -0.099679
  C      -3.059145     -0.721989     -0.888029
  C       1.019337     -0.598989      0.660360
  H      -1.337846     -2.829546     -0.256046
  H       0.776128      1.439340      0.586959
  H       0.867985     -2.626146      0.596474
  H      -3.115550     -0.192464     -1.845420
  H      -3.735660     -0.200096     -0.202386
  H      -3.422813     -1.744358     -1.029591
25
Coordinates from ORCA-job semicarbazide_thymine_opt_freq E -734.398750270702
  N       4.975425      1.909559      2.120712
  N       3.601114      1.843956      1.818191
  C       2.940654      2.958571      1.365973
  O       1.774967      2.884677      0.941382
  N       3.612644      4.142250      1.459864
  H       5.130473      1.586749      3.072272
  H       5.515392      1.330480      1.481607
  H       3.154615      0.942703      1.630153
  H       4.600858      4.130142      1.666340
  H       3.188888      4.943038      1.020055
  O      -1.554747      1.668747     -0.318821
  O       2.176723     -0.607520      1.106926
  N       0.304496      0.536579      0.393019
  N       0.353900     -1.781657      0.397072
  C      -1.651043     -0.711329     -0.353696
  C      -1.009027      0.593180     -0.109054
  C      -0.940651     -1.831129     -0.089453
  C      -3.055268     -0.717676     -0.886058
  C       1.023146     -0.599245      0.663278
  H      -1.341049     -2.828161     -0.243230
  H       0.784266      1.440477      0.578578
  H       0.868772     -2.626827      0.598804
  H      -3.107753     -0.188813     -1.844012
  H      -3.732829     -0.194370     -0.202607
  H      -3.420422     -1.739488     -1.028273
25
Coordinates from ORCA-job semicarbazide_thymine_opt_freq E -734.398789653751
  N       4.968541      1.911339      2.139268
  N       3.606555      1.843170      1.792061
  C       2.948982      2.960896      1.346713
  O       1.792375      2.887774      0.896727
  N       3.612126      4.146811      1.472297
  H       5.097598      1.565210      3.086541
  H       5.530566      1.351531      1.501761
  H       3.164295      0.942555      1.589341
  H       4.594679      4.138647      1.703914
  H       3.192703      4.950473      1.033522
  O      -1.553447      1.667554     -0.318900
  O       2.182490     -0.611266      1.088833
  N       0.305908      0.534188      0.388703
  N       0.349962     -1.783462      0.403738
  C      -1.653592     -0.712775     -0.349076
  C      -1.008876      0.591160     -0.109182
  C      -0.944728     -1.833152     -0.082532
  C      -3.058816     -0.718033     -0.878625
  C       1.024741     -0.602239      0.655900
  H      -1.346352     -2.830198     -0.232572
  H       0.793310      1.437082      0.562472
  H       0.866927     -2.629127      0.598284
  H      -3.113328     -0.189795     -1.836790
  H      -3.734494     -0.193580     -0.194186
  H      -3.424582     -1.739870     -1.019192
25
Coordinates from ORCA-job semicarbazide_thymine_opt_freq E -734.398810531358
  N       4.971421      1.912520      2.139977
  N       3.613853      1.839377      1.777448
  C       2.950028      2.956356      1.341860
  O       1.795320      2.879769      0.886891
  N       3.604468      4.145771      1.479494
  H       5.095274      1.551741      3.082541
  H       5.541554      1.365267      1.498505
  H       3.172730      0.938429      1.573605
  H       4.585196      4.144274      1.718367
  H       3.178941      4.949910      1.047552
  O      -1.550226      1.669541     -0.324399
  O       2.184048     -0.613048      1.088809
  N       0.306973      0.535373      0.386545
  N       0.345801     -1.781957      0.413924
  C      -1.653911     -0.711255     -0.348844
  C      -1.008202      0.592416     -0.112220
  C      -0.947299     -1.831442     -0.075846
  C      -3.058266     -0.716905     -0.880603
  C       1.024440     -0.601668      0.658137
  H      -1.349088     -2.828926     -0.222575
  H       0.797808      1.436934      0.558414
  H       0.862966     -2.627530      0.608668
  H      -3.111777     -0.191286     -1.840256
  H      -3.734382     -0.189699     -0.198654
  H      -3.424127     -1.739070     -1.018319
25
Coordinates from ORCA-job semicarbazide_thymine_opt_freq E -734.398814910413
  N       4.972476      1.914773      2.145713
  N       3.619203      1.838061      1.766836
  C       2.953883      2.955995      1.336590
  O       1.802776      2.878919      0.872484
  N       3.602119      4.147032      1.488069
  H       5.087645      1.544956      3.085965
  H       5.550769      1.374580      1.505423
  H       3.178674      0.937435      1.559953
  H       4.580528      4.148695      1.736005
  H       3.174418      4.953142      1.062083
  O      -1.547359      1.669324     -0.333642
  O       2.185154     -0.614686      1.081844
  N       0.309975      0.534693      0.376372
  N       0.343684     -1.782749      0.414748
  C      -1.655564     -0.711609     -0.348403
  C      -1.007344      0.591874     -0.118908
  C      -0.950326     -1.831649     -0.071747
  C      -3.061282     -0.717570     -0.876600
  C       1.025047     -0.602548      0.652835
  H      -1.353481     -2.829418     -0.213003
  H       0.803011      1.435531      0.545108
  H       0.860094     -2.627917      0.613321
  H      -3.116983     -0.195868     -1.838260
  H      -3.734713     -0.186267     -0.195107
  H      -3.428860     -1.739835     -1.008661
25
Coordinates from ORCA-job semicarbazide_thymine_opt_freq E -734.398837919555
  N       4.973437      1.914453      2.146272
  N       3.621767      1.837219      1.760474
  C       2.955660      2.956390      1.334527
  O       1.805988      2.880041      0.866753
  N       3.601836      4.147485      1.492564
  H       5.085063      1.539954      3.085179
  H       5.553763      1.376105      1.506196
  H       3.179865      0.936916      1.555736
  H       4.579057      4.150103      1.745004
  H       3.172519      4.955814      1.072552
  O      -1.546562      1.669137     -0.340538
  O       2.185001     -0.613979      1.081487
  N       0.311078      0.535368      0.370621
  N       0.343376     -1.782202      0.414965
  C      -1.656164     -0.711817     -0.348611
  C      -1.007331      0.591928     -0.123476
  C      -0.951086     -1.831302     -0.069592
  C      -3.062603     -0.718926     -0.875003
  C       1.025173     -0.601345      0.651308
  H      -1.354576     -2.829449     -0.207490
  H       0.803900      1.436293      0.538591
  H       0.859622     -2.626618      0.617084
  H      -3.119563     -0.199954     -1.838064
  H      -3.734869     -0.185310     -0.194122
  H      -3.430806     -1.741413     -1.003400
25
Coordinates from ORCA-job semicarbazide_thymine_opt_freq E -734.398823865450
  N       4.973625      1.915014      2.144399
  N       3.623907      1.835885      1.751852
  C       2.955216      2.955951      1.332780
  O       1.805794      2.879624      0.864180
  N       3.598644      4.147493      1.496991
  H       5.081618      1.535622      3.081860
  H       5.556954      1.379508      1.504628
  H       3.181144      0.935204      1.550661
  H       4.575001      4.151967      1.752543
  H       3.166392      4.958126      1.084613
  O      -1.541566      1.669272     -0.348253
  O       2.184976     -0.616073      1.083204
  N       0.314438      0.534541      0.366056
  N       0.342954     -1.783083      0.416177
  C      -1.655488     -0.711407     -0.348438
  C      -1.004309      0.591831     -0.127851
  C      -0.952010     -1.831235     -0.066704
  C      -3.062401     -0.717797     -0.873658
  C       1.026039     -0.602186      0.651108
  H      -1.357359     -2.829124     -0.201157
  H       0.807162      1.435730      0.532340
  H       0.857846     -2.627318      0.622383
  H      -3.119146     -0.201870     -1.838364
  H      -3.733175     -0.180810     -0.193945
  H      -3.432713     -1.739974     -0.998385
25
Coordinates from ORCA-job semicarbazide_thymine_opt_freq E -734.398823463314
  N       4.972336      1.913344      2.141494
  N       3.624267      1.835845      1.743279
  C       2.954639      2.957586      1.330601
  O       1.804652      2.882881      0.862974
  N       3.598859      4.147987      1.498024
  H       5.076561      1.529141      3.077502
  H       5.556815      1.378921      1.501814
  H       3.178934      0.935243      1.547992
  H       4.574310      4.151845      1.756896
  H       3.165601      4.961760      1.093075
  O      -1.539396      1.669107     -0.351002
  O       2.184334     -0.616451      1.088067
  N       0.315679      0.534330      0.365819
  N       0.343686     -1.783265      0.417071
  C      -1.654428     -0.711429     -0.348265
  C      -1.002730      0.591711     -0.128972
  C      -0.951403     -1.831347     -0.065398
  C      -3.061284     -0.717759     -0.873699
  C       1.026360     -0.602039      0.653280
  H      -1.357535     -2.829054     -0.198853
  H       0.807109      1.436333      0.532116
  H       0.857794     -2.627191      0.626428
  H      -3.117303     -0.203198     -1.839177
  H      -3.731970     -0.179582     -0.194857
  H      -3.432346     -1.739825     -0.997189
25
Coordinates from ORCA-job semicarbazide_thymine_opt_freq E -734.398831266824
  N       4.971934      1.912971      2.136876
  N       3.625247      1.835600      1.734874
  C       2.952730      2.957965      1.329678
  O       1.801088      2.883385      0.865894
  N       3.596656      4.148178      1.498706
  H       5.073688      1.523888      3.071189
  H       5.558493      1.381704      1.496439
  H       3.178316      0.934722      1.544348
  H       4.571742      4.152554      1.758791
  H       3.160973      4.964005      1.100644
  O      -1.535227      1.669341     -0.352462
  O       2.183625     -0.619007      1.093721
  N       0.317599      0.533100      0.367601
  N       0.343135     -1.784382      0.420221
  C      -1.652955     -0.711003     -0.348068
  C      -0.999892      0.591523     -0.128907
  C      -0.951604     -1.831616     -0.063481
  C      -3.059101     -0.715944     -0.875367
  C       1.026488     -0.603766      0.656940
  H      -1.359117     -2.828761     -0.196770
  H       0.808629      1.435472      0.533958
  H       0.855472     -2.628728      0.632238
  H      -3.112868     -0.202472     -1.841557
  H      -3.730082     -0.176211     -0.198092
  H      -3.431426     -1.737625     -0.998391
25
Coordinates from ORCA-job semicarbazide_thymine_opt_freq E -734.398826116456
  N       4.972789      1.911867      2.131283
  N       3.626166      1.836147      1.729505
  C       2.951545      2.959100      1.330305
  O       1.797648      2.885046      0.871960
  N       3.596702      4.148749      1.498017
  H       5.074483      1.519422      3.064212
  H       5.559269      1.382549      1.489140
  H       3.176945      0.935512      1.543335
  H       4.571857      4.152659      1.757741
  H       3.159129      4.966203      1.105500
  O      -1.534135      1.669269     -0.351378
  O       2.181896     -0.619909      1.100420
  N       0.317171      0.532597      0.371577
  N       0.342169     -1.784767      0.423991
  C      -1.652107     -0.711058     -0.348373
  C      -0.999169      0.591301     -0.127275
  C      -0.951667     -1.831921     -0.062439
  C      -3.056995     -0.715460     -0.878933
  C       1.025348     -0.604666      0.661882
  H      -1.359286     -2.828810     -0.197083
  H       0.807571      1.435197      0.539440
  H       0.853169     -2.629496      0.637729
  H      -3.108223     -0.202172     -1.845370
  H      -3.729411     -0.175413     -0.203362
  H      -3.429321     -1.737052     -1.002804
25
Coordinates from ORCA-job semicarbazide_thymine_opt_freq E -734.398830553843
  N       4.974002      1.911540      2.128597
  N       3.627345      1.836208      1.727015
  C       2.951355      2.959227      1.330946
  O       1.796426      2.885102      0.875113
  N       3.596416      4.148978      1.498289
  H       5.075931      1.517791      3.060952
  H       5.560807      1.383585      1.485636
  H       3.177022      0.935781      1.542357
  H       4.571628      4.153204      1.757744
  H       3.157365      4.966945      1.108548
  O      -1.533853      1.669170     -0.351526
  O       2.180920     -0.619881      1.102846
  N       0.316795      0.532474      0.372968
  N       0.341180     -1.784842      0.426473
  C      -1.652002     -0.711145     -0.348630
  C      -0.999062      0.591185     -0.126935
  C      -0.952103     -1.832034     -0.061591
  C      -3.056229     -0.715342     -0.880844
  C       1.024524     -0.605062      0.663982
  H      -1.359614     -2.828905     -0.196637
  H       0.807294      1.434913      0.541492
  H       0.851485     -2.629848      0.640822
  H      -3.106262     -0.202419     -1.847537
  H      -3.729271     -0.174805     -0.206301
  H      -3.428556     -1.736927     -1.004757
25
Coordinates from ORCA-job semicarbazide_thymine_opt_freq E -734.398828510214
  N       4.976919      1.911165      2.123042
  N       3.629486      1.836177      1.724213
  C       2.951272      2.959427      1.333044
  O       1.794619      2.885328      0.881495
  N       3.596215      4.149350      1.499460
  H       5.081146      1.516219      3.054621
  H       5.562938      1.384975      1.477970
  H       3.177285      0.936117      1.542230
  H       4.571769      4.154224      1.757514
  H       3.154469      4.968049      1.114401
  O      -1.533686      1.668877     -0.353119
  O       2.178676     -0.619747      1.107802
  N       0.315608      0.532434      0.375257
  N       0.339106     -1.784872      0.431044
  C      -1.652092     -0.711389     -0.349383
  C      -0.999322      0.590986     -0.127011
  C      -0.953079     -1.832171     -0.060065
  C      -3.055147     -0.715547     -0.884600
  C       1.022656     -0.605335      0.667962
  H      -1.360256     -2.829137     -0.195413
  H       0.806137      1.434591      0.544822
  H       0.848737     -2.630160      0.645873
  H      -3.103118     -0.203432     -1.851830
  H      -3.729351     -0.174078     -0.211967
  H      -3.427444     -1.737158     -1.008344
25
Coordinates from ORCA-job semicarbazide_thymine_opt_freq E -734.398832129598
  N       4.978168      1.910969      2.121289
  N       3.630834      1.835777      1.722094
  C       2.951659      2.959194      1.333330
  O       1.794623      2.885127      0.882659
  N       3.596045      4.149289      1.500436
  H       5.082680      1.515734      3.052724
  H       5.564519      1.385468      1.475979
  H       3.177668      0.935919      1.541497
  H       4.571529      4.154891      1.758676
  H       3.152887      4.968402      1.117920
  O      -1.533735      1.668737     -0.354710
  O       2.177784     -0.618932      1.109035
  N       0.315098      0.532638      0.375489
  N       0.338255     -1.784689      0.432987
  C      -1.652282     -0.711504     -0.349613
  C      -0.999536      0.590980     -0.127630
  C      -0.953548     -1.832146     -0.059165
  C      -3.055008     -0.715815     -0.885674
  C       1.021891     -0.605052      0.669080
  H      -1.360529     -2.829256     -0.194088
  H       0.805814      1.434642      0.545107
  H       0.847990     -2.629986      0.647518
  H      -3.102422     -0.204294     -1.853244
  H      -3.729464     -0.173742     -0.213772
  H      -3.427374     -1.737459     -1.008904
25
Coordinates from ORCA-job semicarbazide_thymine_opt_freq E -734.398833195978
  N       4.982130      1.910849      2.113529
  N       3.634590      1.834772      1.715556
  C       2.951741      2.958773      1.335226
  O       1.792890      2.884756      0.889090
  N       3.594871      4.149243      1.503716
  H       5.088865      1.513811      3.043958
  H       5.568442      1.388133      1.465995
  H       3.178927      0.935195      1.539731
  H       4.570517      4.156709      1.761093
  H       3.147209      4.969763      1.129644
  O      -1.532346      1.668446     -0.359833
  O       2.174610     -0.618661      1.115838
  N       0.313909      0.532617      0.377553
  N       0.335231     -1.784746      0.439804
  C      -1.652352     -0.711643     -0.350484
  C      -0.999360      0.590863     -0.129237
  C      -0.955161     -1.832169     -0.056098
  C      -3.053703     -0.715953     -0.890149
  C       1.019421     -0.604999      0.674346
  H      -1.362215     -2.829413     -0.189917
  H       0.804745      1.434380      0.547431
  H       0.844889     -2.630100      0.654245
  H      -3.098336     -0.206328     -1.858846
  H      -3.729328     -0.171876     -0.221032
  H      -3.426641     -1.737529     -1.012138
25
Coordinates from ORCA-job semicarbazide_thymine_opt_freq E -734.398841502849
  N       4.980828      1.910862      2.116013
  N       3.633383      1.835014      1.717626
  C       2.951834      2.958949      1.334457
  O       1.793464      2.885122      0.887125
  N       3.595788      4.149111      1.501974
  H       5.086890      1.515372      3.047181
  H       5.566925      1.386388      1.469697
  H       3.178261      0.935362      1.541041
  H       4.571449      4.155899      1.759364
  H       3.149610      4.969259      1.125275
  O      -1.533308      1.668554     -0.357521
  O       2.175305     -0.618460      1.114262
  N       0.313791      0.532707      0.377674
  N       0.336327     -1.784689      0.437351
  C      -1.652363     -0.711618     -0.350231
  C      -0.999785      0.590946     -0.128266
  C      -0.954444     -1.832167     -0.057526
  C      -3.054140     -0.716061     -0.888829
  C       1.019990     -0.604772      0.673029
  H      -1.361315     -2.829395     -0.191978
  H       0.804458      1.434616      0.547520
  H       0.846553     -2.629890      0.651039
  H      -3.099670     -0.205402     -1.856940
  H      -3.729592     -0.173140     -0.218602
  H      -3.426694     -1.737673     -1.011716
