23
Coordinates from ORCA-job thiourea_thymine_opt_freq E -1002.018568174533
  S           1.78160169934488      3.66338007784400      0.92309315179315
  N           3.87563873288652      2.08318162983366      1.49341913729172
  N           4.24323768870033      4.35132692461074      1.65481561237734
  C           3.37749938212417      3.33043395781813      1.38357261716612
  H           4.86198122143267      1.92480722324732      1.64520818568145
  H           3.30104668741588      1.27795866696423      1.23404125974749
  H           3.85126489497667      5.27993553758180      1.69081105843259
  H           5.10611460128610      4.19050687727420      2.15571335681500
  O          -1.74324472338543      1.59363119655300     -0.10936744142052
  O           2.36002626236528     -0.27127212509139      0.78132727370956
  N           0.29673507014687      0.65754730825299      0.33310844088165
  N           0.59804206214304     -1.63619313948509      0.28676268133089
  C          -1.59092189860228     -0.78680085502108     -0.19046446268796
  C          -1.07055889493116      0.57765688832491      0.00187116478913
  C          -0.73411477701338     -1.82236552607201     -0.03857446503475
  C          -3.04194664024170     -0.94613025456388     -0.54291468581937
  C           1.16576402926179     -0.39195704350488      0.48874736116921
  H          -1.03716190115024     -2.85695996865340     -0.16336440954387
  H           0.69380152224281      1.60110975331744      0.48114077843316
  H           1.22288382050836     -2.42180704572387      0.40113341810202
  H          -3.27474804190401     -0.42365853287553     -1.47726754097463
  H          -3.67977318533219     -0.50296057684504      0.22963581157454
  H          -3.30716761227507     -2.00176897378627     -0.65504830381394
