23
Coordinates from ORCA-job thiourea_thymine_opt_freq E -1001.630289728520
  S       1.664888      3.907639      1.501100
  N       2.385320      1.722497      1.501100
  N       3.916536      3.434416      1.501100
  C       2.581078      3.088020      1.500700
  H       3.165065      1.073542      1.500800
  H       1.452035      1.324666      1.501100
  H       4.208132      4.406017      1.501200
  H       4.648046      2.731605      1.501000
  O      -1.519300      1.806700     -0.000900
  O       2.839400      0.291300     -0.000700
  N       0.664300      1.062300      0.001100
  N       1.114800     -1.231600     -0.000200
  C      -1.161200     -0.543200      0.000200
  C      -0.712900      0.880200      0.000400
  C      -0.226000     -1.501300     -0.000100
  C      -2.630000     -0.818900     -0.000100
  C       1.631000      0.054500      0.000300
  H      -0.478700     -2.555300     -0.000400
  H       1.001400      2.020900      0.001100
  H       1.756400     -2.019100     -0.000900
  H      -3.100400     -0.386000     -0.888900
  H      -3.100600     -0.386200      0.888700
  H      -2.843300     -1.893100     -0.000300
23
Coordinates from ORCA-job thiourea_thymine_opt_freq E -1001.785148369042
  S       1.610406      3.947971      1.500472
  N       2.398266      1.728279      1.514143
  N       3.921436      3.432900      1.496159
  C       2.609587      3.064653      1.503333
  H       3.171858      1.079132      1.512351
  H       1.473322      1.339707      1.509862
  H       4.204060      4.403674      1.487578
  H       4.657215      2.736574      1.498667
  O      -1.512112      1.805871      0.004447
  O       2.843948      0.282132     -0.001156
  N       0.665396      1.054502      0.005283
  N       1.117547     -1.235766     -0.003126
  C      -1.167660     -0.546158     -0.001640
  C      -0.717005      0.872460      0.002747
  C      -0.229605     -1.508162     -0.004010
  C      -2.639006     -0.817567     -0.003494
  C       1.635423      0.047763      0.000464
  H      -0.482338     -2.562818     -0.007539
  H       1.004842      2.019219      0.011289
  H       1.762952     -2.017261     -0.006521
  H      -3.109243     -0.380424     -0.890424
  H      -3.110412     -0.385493      0.885303
  H      -2.852879     -1.891586     -0.006788
23
Coordinates from ORCA-job thiourea_thymine_opt_freq E -1001.869339267053
  S       1.573396      3.992404      1.498393
  N       2.421886      1.740115      1.540017
  N       3.944885      3.447409      1.487096
  C       2.649634      3.055840      1.509074
  H       3.186102      1.084841      1.536825
  H       1.497592      1.359843      1.530847
  H       4.211589      4.418865      1.461590
  H       4.689026      2.761892      1.494923
  O      -1.510028      1.799745      0.015447
  O       2.842352      0.265061      0.003630
  N       0.660218      1.040725      0.016597
  N       1.112531     -1.244152     -0.008042
  C      -1.181279     -0.555034     -0.007120
  C      -0.729559      0.857722      0.008220
  C      -0.240724     -1.520509     -0.013424
  C      -2.655225     -0.822461     -0.014738
  C       1.632728      0.036102      0.004108
  H      -0.492421     -2.575834     -0.025064
  H       1.000519      2.012084      0.035846
  H       1.764769     -2.017473     -0.016647
  H      -3.123922     -0.376973     -0.898404
  H      -3.129865     -0.394114      0.874223
  H      -2.868203     -1.896494     -0.025997
23
Coordinates from ORCA-job thiourea_thymine_opt_freq E -1001.929216355139
  S       1.545949      4.060479      1.502023
  N       2.473191      1.768618      1.597119
  N       3.997335      3.493806      1.470017
  C       2.708880      3.079181      1.526070
  H       3.225664      1.100331      1.587017
  H       1.543666      1.395212      1.579240
  H       4.237002      4.468762      1.410382
  H       4.755876      2.825229      1.485411
  O      -1.512713      1.784116      0.037115
  O       2.829425      0.221257      0.011625
  N       0.647317      1.010360      0.039900
  N       1.089942     -1.270069     -0.019757
  C      -1.206780     -0.575490     -0.020088
  C      -0.752017      0.829329      0.018730
  C      -0.267950     -1.546551     -0.034710
  C      -2.683856     -0.835421     -0.040339
  C       1.617498      0.005510      0.010025
  H      -0.520623     -2.601461     -0.063673
  H       0.986053      1.986590      0.087829
  H       1.750916     -2.034383     -0.039728
  H      -3.147436     -0.372026     -0.917533
  H      -3.164083     -0.414935      0.849435
  H      -2.897253     -1.908840     -0.068708
23
Coordinates from ORCA-job thiourea_thymine_opt_freq E -1001.965082493661
  S       1.514988      4.124131      1.522410
  N       2.547388      1.807000      1.674360
  N       4.043147      3.556679      1.451371
  C       2.761855      3.123448      1.555136
  H       3.294999      1.130927      1.644903
  H       1.614096      1.433461      1.646815
  H       4.245085      4.537241      1.351764
  H       4.819896      2.910374      1.469569
  O      -1.507373      1.767754      0.053189
  O       2.811653      0.154316      0.012289
  N       0.639870      0.966960      0.062028
  N       1.056273     -1.313025     -0.037149
  C      -1.233293     -0.597982     -0.035078
  C      -0.767974      0.797805      0.027699
  C      -0.303781     -1.579176     -0.060158
  C      -2.713997     -0.843174     -0.067796
  C       1.598065     -0.042809      0.010209
  H      -0.564121     -2.631459     -0.107558
  H       0.978172      1.939427      0.133927
  H       1.721940     -2.072702     -0.071958
  H      -3.169489     -0.357680     -0.937357
  H      -3.196943     -0.427693      0.822977
  H      -2.934459     -1.914220     -0.114189
23
Coordinates from ORCA-job thiourea_thymine_opt_freq E -1001.982938883048
  S       1.486711      4.168803      1.553168
  N       2.625499      1.843740      1.746299
  N       4.073109      3.614008      1.437961
  C       2.801295      3.166688      1.586292
  H       3.374913      1.169868      1.688560
  H       1.692970      1.466058      1.715921
  H       4.236585      4.598849      1.308694
  H       4.866783      2.989628      1.453085
  O      -1.500651      1.753795      0.053377
  O       2.794758      0.089600      0.011674
  N       0.635291      0.924687      0.076115
  N       1.023624     -1.356383     -0.053213
  C      -1.256119     -0.616556     -0.048243
  C      -0.777703      0.771711      0.028915
  C      -0.337357     -1.608112     -0.082395
  C      -2.739881     -0.846236     -0.088961
  C       1.579650     -0.090508      0.008295
  H      -0.608272     -2.657066     -0.143154
  H       0.975463      1.891006      0.154024
  H       1.689826     -2.114842     -0.101172
  H      -3.187513     -0.343486     -0.952944
  H      -3.222650     -0.431362      0.802395
  H      -2.970330     -1.914289     -0.147292
23
Coordinates from ORCA-job thiourea_thymine_opt_freq E -1001.992207738904
  S       1.477986      4.204268      1.588748
  N       2.702221      1.882618      1.809961
  N       4.099974      3.672284      1.434012
  C       2.837405      3.210792      1.618241
  H       3.456094      1.217781      1.712654
  H       1.771480      1.498049      1.786314
  H       4.231103      4.660327      1.287995
  H       4.907928      3.067077      1.443478
  O      -1.498447      1.738113      0.040845
  O       2.776778      0.028198      0.009380
  N       0.627709      0.883397      0.082060
  N       0.991560     -1.399372     -0.068578
  C      -1.279219     -0.635193     -0.061043
  C      -0.786960      0.747424      0.022004
  C      -0.370480     -1.635964     -0.102264
  C      -2.765234     -0.850423     -0.105575
  C       1.559871     -0.137615      0.003527
  H      -0.653017     -2.681440     -0.171185
  H       0.973287      1.845145      0.154204
  H       1.654368     -2.160077     -0.127178
  H      -3.206245     -0.336509     -0.966510
  H      -3.245603     -0.433734      0.786380
  H      -3.006559     -1.915543     -0.170070
23
Coordinates from ORCA-job thiourea_thymine_opt_freq E -1001.997604291695
  S       1.487024      4.231514      1.626336
  N       2.777425      1.922025      1.866448
  N       4.125781      3.734159      1.435283
  C       2.873816      3.254007      1.649420
  H       3.534616      1.270567      1.715966
  H       1.850531      1.527083      1.860849
  H       4.229567      4.724380      1.280411
  H       4.946898      3.147194      1.438454
  O      -1.499398      1.721158      0.023532
  O       2.757210     -0.029223      0.008101
  N       0.616779      0.842880      0.085351
  N       0.960069     -1.441132     -0.081599
  C      -1.303412     -0.654417     -0.073545
  C      -0.797250      0.723402      0.012921
  C      -0.403773     -1.663394     -0.119677
  C      -2.791134     -0.855680     -0.121934
  C       1.538909     -0.184072     -0.000532
  H      -0.697798     -2.705397     -0.194355
  H       0.971199      1.800017      0.146352
  H       1.616722     -2.206365     -0.148555
  H      -3.225262     -0.333990     -0.981742
  H      -3.269275     -0.437115      0.770409
  H      -3.043243     -1.917998     -0.190495
23
Coordinates from ORCA-job thiourea_thymine_opt_freq E -1002.001171639265
  S       1.511594      4.252966      1.667112
  N       2.855953      1.963112      1.920415
  N       4.152700      3.799810      1.436073
  C       2.914488      3.296976      1.680100
  H       3.609790      1.326645      1.702199
  H       1.934879      1.554594      1.943182
  H       4.231545      4.790886      1.271911
  H       4.986939      3.231576      1.433746
  O      -1.504754      1.702478      0.010421
  O       2.734923     -0.082676      0.012372
  N       0.601233      0.802956      0.091129
  N       0.927985     -1.481398     -0.091321
  C      -1.329678     -0.674934     -0.087447
  C      -0.810856      0.698499      0.004340
  C      -0.438027     -1.690987     -0.136427
  C      -2.818629     -0.863032     -0.142888
  C       1.515750     -0.229517      0.000045
  H      -0.742108     -2.729668     -0.217446
  H       0.966465      1.754871      0.144083
  H       1.577364     -2.252180     -0.164383
  H      -3.244424     -0.334628     -1.002745
  H      -3.296780     -0.444011      0.749245
  H      -3.080352     -1.922735     -0.216316
23
Coordinates from ORCA-job thiourea_thymine_opt_freq E -1002.003520930399
  S       1.545426      4.266700      1.714398
  N       2.940880      2.003871      1.974040
  N       4.179270      3.865761      1.429487
  C       2.959509      3.337440      1.709707
  H       3.680218      1.381665      1.676674
  H       2.028158      1.579597      2.034446
  H       4.232011      4.855669      1.249391
  H       5.027527      3.318443      1.422461
  O      -1.514885      1.683151      0.004984
  O       2.710278     -0.130711      0.027630
  N       0.581405      0.765498      0.103416
  N       0.895660     -1.518335     -0.095869
  C      -1.357257     -0.695634     -0.102840
  C      -0.828579      0.673497      0.002804
  C      -0.472186     -1.717407     -0.153086
  C      -2.846901     -0.872093     -0.171754
  C       1.490615     -0.271654      0.008727
  H      -0.783723     -2.753071     -0.243697
  H       0.957344      1.712271      0.155763
  H       1.538243     -2.294358     -0.172682
  H      -3.261788     -0.334827     -1.031411
  H      -3.329242     -0.456579      0.719741
  H      -3.115982     -1.929291     -0.254930
23
Coordinates from ORCA-job thiourea_thymine_opt_freq E -1002.004924174034
  S       1.582361      4.274326      1.764323
  N       3.029152      2.042277      2.026967
  N       4.205066      3.925142      1.414506
  C       3.006713      3.373206      1.736637
  H       3.741824      1.430627      1.650063
  H       2.126220      1.603796      2.129265
  H       4.230360      4.911327      1.210198
  H       5.067597      3.400254      1.406506
  O      -1.530934      1.664016      0.011079
  O       2.684353     -0.170395      0.057680
  N       0.558246      0.733592      0.118273
  N       0.865005     -1.548941     -0.098101
  C      -1.384276     -0.714978     -0.121607
  C      -0.849700      0.650632     -0.000468
  C      -0.503650     -1.740561     -0.172180
  C      -2.874141     -0.883181     -0.205188
  C       1.464500     -0.306701      0.024603
  H      -0.819123     -2.773931     -0.274212
  H       0.941981      1.676038      0.182284
  H       1.503116     -2.328604     -0.175095
  H      -3.278687     -0.337566     -1.064473
  H      -3.362537     -0.472317      0.685154
  H      -3.147445     -1.938455     -0.298814
23
Coordinates from ORCA-job thiourea_thymine_opt_freq E -1002.005773412083
  S       1.620939      4.275729      1.821763
  N       3.123821      2.077034      2.076268
  N       4.230067      3.975215      1.384924
  C       3.057017      3.403025      1.759141
  H       3.799795      1.472668      1.624559
  H       2.232810      1.627376      2.227365
  H       4.225104      4.955336      1.152062
  H       5.107012      3.474531      1.375849
  O      -1.554961      1.645037      0.022167
  O       2.655622     -0.198548      0.102715
  N       0.529839      0.708490      0.144319
  N       0.835996     -1.571508     -0.093103
  C      -1.411316     -0.733003     -0.139130
  C      -0.877079      0.629133      0.015405
  C      -0.531868     -1.759603     -0.189981
  C      -2.900108     -0.897156     -0.248447
  C       1.435943     -0.332183      0.052201
  H      -0.846783     -2.791129     -0.310463
  H       0.916257      1.648309      0.226888
  H       1.473245     -2.351899     -0.169773
  H      -3.290871     -0.336868     -1.104681
  H      -3.401510     -0.499968      0.640841
  H      -3.172970     -1.950417     -0.363491
23
Coordinates from ORCA-job thiourea_thymine_opt_freq E -1002.006401405849
  S       1.657951      4.269884      1.881816
  N       3.222115      2.108394      2.125019
  N       4.250786      4.015336      1.345811
  C       3.106701      3.426489      1.778547
  H       3.854568      1.508876      1.606235
  H       2.345379      1.650791      2.330411
  H       4.212921      4.987012      1.082311
  H       5.142961      3.542117      1.340122
  O      -1.585018      1.625954      0.049480
  O       2.625156     -0.218771      0.164916
  N       0.499488      0.689642      0.167180
  N       0.809501     -1.587719     -0.089763
  C      -1.436359     -0.748286     -0.162890
  C      -0.904753      0.612133      0.010943
  C      -0.556306     -1.774514     -0.212424
  C      -2.923816     -0.911705     -0.292572
  C       1.406636     -0.350732      0.085020
  H      -0.868290     -2.804829     -0.349540
  H       0.883077      1.626928      0.282964
  H       1.448243     -2.367431     -0.160826
  H      -3.303953     -0.343729     -1.148541
  H      -3.436635     -0.522194      0.593603
  H      -3.194354     -1.964045     -0.420422
23
Coordinates from ORCA-job thiourea_thymine_opt_freq E -1002.006977658683
  S       1.696059      4.253046      1.954030
  N       3.327609      2.133305      2.166394
  N       4.263154      4.042098      1.285748
  C       3.156441      3.440113      1.791604
  H       3.912756      1.538330      1.588265
  H       2.471484      1.670629      2.438286
  H       4.187934      5.003965      0.995202
  H       5.171382      3.600456      1.279098
  O      -1.622145      1.608213      0.076348
  O       2.591266     -0.225357      0.242776
  N       0.463854      0.678128      0.208215
  N       0.785656     -1.594780     -0.075271
  C      -1.460286     -0.760817     -0.182502
  C      -0.938708      0.596295      0.037886
  C      -0.576104     -1.783666     -0.230825
  C      -2.943938     -0.926522     -0.349732
  C       1.374857     -0.358933      0.133088
  H      -0.880599     -2.812379     -0.394267
  H       0.838138      1.614072      0.360043
  H       1.429253     -2.370910     -0.141636
  H      -3.307101     -0.340795     -1.201165
  H      -3.478042     -0.558154      0.532876
  H      -3.206919     -1.976732     -0.507062
23
Coordinates from ORCA-job thiourea_thymine_opt_freq E -1002.007503684248
  S       1.724690      4.225579      2.016955
  N       3.414022      2.144523      2.197565
  N       4.259531      4.042312      1.213387
  C       3.191747      3.436917      1.794429
  H       3.964803      1.552600      1.582759
  H       2.582378      1.682086      2.536032
  H       4.151772      4.995144      0.903445
  H       5.181743      3.630701      1.207773
  O      -1.660968      1.595323      0.111958
  O       2.561375     -0.213837      0.329369
  N       0.430580      0.679353      0.251311
  N       0.772371     -1.586903     -0.059447
  C      -1.475808     -0.765333     -0.200999
  C      -0.968790      0.589686      0.060261
  C      -0.583969     -1.781703     -0.248290
  C      -2.954450     -0.937902     -0.402874
  C       1.348487     -0.351355      0.185854
  H      -0.877548     -2.809194     -0.437437
  H       0.790444      1.613725      0.446012
  H       1.423406     -2.357342     -0.119252
  H      -3.303925     -0.338038     -1.250251
  H      -3.509485     -0.590196      0.475167
  H      -3.206406     -1.986546     -0.586328
23
Coordinates from ORCA-job thiourea_thymine_opt_freq E -1002.007949639552
  S       1.736759      4.195338      2.051555
  N       3.461911      2.141311      2.216656
  N       4.241215      4.015590      1.140105
  C       3.205152      3.418573      1.785310
  H       4.000565      1.548123      1.593332
  H       2.651336      1.683448      2.607807
  H       4.114429      4.962807      0.819804
  H       5.172340      3.624462      1.138979
  O      -1.692934      1.589561      0.150608
  O       2.541359     -0.186281      0.406777
  N       0.406314      0.692096      0.294510
  N       0.772878     -1.565377     -0.046336
  C      -1.479672     -0.761207     -0.212643
  C      -0.989242      0.592486      0.084821
  C      -0.577839     -1.768666     -0.262570
  C      -2.952970     -0.943466     -0.442423
  C       1.333051     -0.329623      0.234101
  H      -0.859156     -2.794922     -0.475689
  H       0.750050      1.623395      0.527177
  H       1.432333     -2.328872     -0.102840
  H      -3.293983     -0.331115     -1.284344
  H      -3.525655     -0.617436      0.432581
  H      -3.192241     -1.990624     -0.649877
23
Coordinates from ORCA-job thiourea_thymine_opt_freq E -1002.008385581021
  S       1.739349      4.154888      2.075392
  N       3.502106      2.133348      2.235133
  N       4.206950      3.974618      1.055786
  C       3.208777      3.390155      1.770039
  H       4.032004      1.532298      1.613692
  H       2.715844      1.679888      2.676635
  H       4.060811      4.916292      0.727045
  H       5.147865      3.607269      1.060498
  O      -1.721160      1.587084      0.196291
  O       2.523801     -0.152900      0.491245
  N       0.385503      0.708395      0.346104
  N       0.779500     -1.537939     -0.032424
  C      -1.477532     -0.751361     -0.222362
  C      -1.004851      0.599915      0.114085
  C      -0.564979     -1.749029     -0.277386
  C      -2.944636     -0.942708     -0.481109
  C       1.321612     -0.303337      0.287512
  H      -0.833499     -2.772831     -0.517328
  H       0.714695      1.634781      0.616739
  H       1.446977     -2.294458     -0.088059
  H      -3.277445     -0.315969     -1.315722
  H      -3.535341     -0.641484      0.390801
  H      -3.170351     -1.987312     -0.715204
23
Coordinates from ORCA-job thiourea_thymine_opt_freq E -1002.008951662335
  S       1.733631      4.079955      2.106842
  N       3.563223      2.121137      2.260342
  N       4.134757      3.904746      0.929164
  C       3.205297      3.339399      1.746168
  H       4.076507      1.501742      1.644105
  H       2.818950      1.670927      2.771929
  H       3.951946      4.836257      0.589242
  H       5.093376      3.585145      0.938543
  O      -1.754025      1.587812      0.260278
  O       2.500871     -0.108094      0.617150
  N       0.360489      0.731439      0.425908
  N       0.792300     -1.498090     -0.007933
  C      -1.468732     -0.731116     -0.234156
  C      -1.021127      0.614250      0.158706
  C      -0.542651     -1.716179     -0.295463
  C      -2.925838     -0.931232     -0.537094
  C       1.308582     -0.268094      0.368462
  H      -0.793839     -2.734567     -0.574267
  H       0.674061      1.649288      0.745027
  H       1.468822     -2.246480     -0.063271
  H      -3.244898     -0.282662     -1.360342
  H      -3.542939     -0.665589      0.328094
  H      -3.132765     -1.970391     -0.810035
23
Coordinates from ORCA-job thiourea_thymine_opt_freq E -1002.009409053832
  S       1.718284      3.971715      2.149411
  N       3.644400      2.110016      2.284288
  N       4.025131      3.816408      0.791452
  C       3.193446      3.272040      1.722869
  H       4.130347      1.465582      1.671166
  H       2.958863      1.658943      2.872255
  H       3.783818      4.730979      0.440643
  H       5.006795      3.573086      0.794511
  O      -1.778812      1.596132      0.316591
  O       2.477302     -0.067787      0.758676
  N       0.339371      0.755450      0.513001
  N       0.807236     -1.457263      0.027600
  C      -1.453361     -0.702161     -0.245667
  C      -1.031261      0.634618      0.203674
  C      -0.516476     -1.677039     -0.308145
  C      -2.898253     -0.905586     -0.599491
  C       1.297002     -0.235403      0.460150
  H      -0.750640     -2.688136     -0.625686
  H       0.642655      1.663731      0.873585
  H       1.489938     -2.200153     -0.024725
  H      -3.198606     -0.234406     -1.411569
  H      -3.544514     -0.673742      0.254073
  H      -3.086667     -1.937421     -0.911262
23
Coordinates from ORCA-job thiourea_thymine_opt_freq E -1002.009622660333
  S       1.702022      3.904516      2.176156
  N       3.691025      2.109971      2.293628
  N       3.959400      3.782904      0.738434
  C       3.182591      3.239961      1.718687
  H       4.159877      1.453862      1.678847
  H       3.038719      1.649311      2.913706
  H       3.676131      4.683258      0.380837
  H       4.951212      3.581938      0.726409
  O      -1.774783      1.607743      0.324120
  O       2.471480     -0.067915      0.817214
  N       0.338756      0.762002      0.548191
  N       0.811400     -1.447692      0.049266
  C      -1.443768     -0.686696     -0.249512
  C      -1.026621      0.645985      0.216843
  C      -0.507976     -1.662303     -0.307430
  C      -2.883742     -0.884456     -0.626191
  C       1.295883     -0.230960      0.499640
  H      -0.738851     -2.670188     -0.637267
  H       0.643348      1.668242      0.911713
  H       1.492319     -2.192399      0.000186
  H      -3.171326     -0.204924     -1.435910
  H      -3.541976     -0.659493      0.220037
  H      -3.069120     -1.913065     -0.950206
23
Coordinates from ORCA-job thiourea_thymine_opt_freq E -1002.009790775427
  S       1.684595      3.856000      2.190615
  N       3.725665      2.119863      2.299824
  N       3.914464      3.775866      0.715345
  C       3.173082      3.226454      1.720119
  H       4.185235      1.457392      1.683332
  H       3.096912      1.646399      2.935182
  H       3.594512      4.659573      0.346983
  H       4.910266      3.597371      0.683677
  O      -1.759474      1.617839      0.320952
  O       2.472647     -0.088823      0.847424
  N       0.344888      0.756676      0.572660
  N       0.809242     -1.453237      0.065158
  C      -1.437777     -0.677861     -0.251191
  C      -1.017002      0.650704      0.223144
  C      -0.508192     -1.658894     -0.304751
  C      -2.875469     -0.864268     -0.643191
  C       1.297665     -0.241381      0.523201
  H      -0.740788     -2.664205     -0.641100
  H       0.654972      1.663098      0.931372
  H       1.485551     -2.202128      0.016664
  H      -3.150557     -0.178021     -1.451544
  H      -3.540329     -0.638820      0.197729
  H      -3.064109     -1.889995     -0.974205
23
Coordinates from ORCA-job thiourea_thymine_opt_freq E -1002.009919074589
  S       1.665756      3.826692      2.182211
  N       3.740295      2.130856      2.305021
  N       3.886633      3.767528      0.697651
  C       3.162153      3.219084      1.715034
  H       4.206801      1.465933      1.695195
  H       3.125592      1.651730      2.949709
  H       3.544516      4.636605      0.315378
  H       4.882825      3.596480      0.652607
  O      -1.748369      1.621892      0.332292
  O       2.475714     -0.106282      0.868835
  N       0.349300      0.749056      0.600405
  N       0.808959     -1.456880      0.072731
  C      -1.432612     -0.671358     -0.251305
  C      -1.009854      0.651570      0.236204
  C      -0.506655     -1.655443     -0.307568
  C      -2.868505     -0.848082     -0.655140
  C       1.299998     -0.250092      0.541972
  H      -0.739196     -2.657267     -0.654185
  H       0.661008      1.654152      0.963228
  H       1.483538     -2.206968      0.019209
  H      -3.135167     -0.151973     -1.457834
  H      -3.538063     -0.627977      0.183505
  H      -3.058667     -1.869655     -0.997755
23
Coordinates from ORCA-job thiourea_thymine_opt_freq E -1002.010100929828
  S       1.635351      3.793948      2.144134
  N       3.753219      2.154089      2.315568
  N       3.860472      3.754407      0.671319
  C       3.147607      3.213343      1.699437
  H       4.242526      1.489104      1.723766
  H       3.153444      1.674089      2.972737
  H       3.491706      4.598485      0.259961
  H       4.856173      3.589323      0.611624
  O      -1.737844      1.619674      0.370754
  O       2.477966     -0.134322      0.903040
  N       0.351707      0.731181      0.651289
  N       0.808068     -1.462949      0.076958
  C      -1.426924     -0.663733     -0.251349
  C      -1.003412      0.647076      0.266132
  C      -0.504047     -1.650227     -0.320027
  C      -2.859791     -0.825396     -0.672986
  C       1.300681     -0.265983      0.571667
  H      -0.734474     -2.644341     -0.689495
  H       0.662698      1.631671      1.031345
  H       1.483085     -2.211505      0.009402
  H      -3.115876     -0.108757     -1.460880
  H      -3.536288     -0.621683      0.164294
  H      -3.050048     -1.837892     -1.041290
23
Coordinates from ORCA-job thiourea_thymine_opt_freq E -1002.010254610286
  S       1.602052      3.772810      2.079020
  N       3.748317      2.177510      2.329105
  N       3.852525      3.738026      0.647787
  C       3.133575      3.209334      1.676044
  H       4.274301      1.517228      1.765163
  H       3.151994      1.703531      2.993623
  H       3.469840      4.557265      0.201007
  H       4.847580      3.573308      0.584230
  O      -1.735427      1.609402      0.427798
  O       2.479238     -0.159608      0.933263
  N       0.351435      0.712946      0.702612
  N       0.810274     -1.464777      0.071052
  C      -1.422128     -0.657516     -0.249382
  C      -1.000970      0.638960      0.303855
  C      -0.498570     -1.642006     -0.339305
  C      -2.852446     -0.807120     -0.684203
  C       1.301212     -0.279536      0.597482
  H      -0.725502     -2.626299     -0.736245
  H       0.657570      1.607919      1.101435
  H       1.488828     -2.208100     -0.016345
  H      -3.103599     -0.067854     -1.452533
  H      -3.533998     -0.627168      0.154467
  H      -3.040099     -1.808653     -1.082532
23
Coordinates from ORCA-job thiourea_thymine_opt_freq E -1002.010339164629
  S       1.597320      3.775990      2.031472
  N       3.751347      2.197930      2.341590
  N       3.874814      3.739685      0.643368
  C       3.141827      3.216494      1.662576
  H       4.295202      1.541053      1.792417
  H       3.148652      1.733555      3.005806
  H       3.490653      4.544093      0.171698
  H       4.870872      3.579233      0.585960
  O      -1.748982      1.591729      0.470818
  O       2.469773     -0.171886      0.951670
  N       0.341706      0.698525      0.725049
  N       0.806369     -1.468049      0.060270
  C      -1.427605     -0.660609     -0.250624
  C      -1.010572      0.626898      0.326211
  C      -0.500685     -1.640952     -0.356333
  C      -2.856764     -0.807082     -0.689867
  C       1.292715     -0.290007      0.608152
  H      -0.724937     -2.618749     -0.770595
  H       0.645647      1.590016      1.137610
  H       1.488835     -2.206308     -0.038772
  H      -3.109319     -0.055507     -1.445736
  H      -3.540146     -0.644437      0.150836
  H      -3.040722     -1.802015     -1.106176
23
Coordinates from ORCA-job thiourea_thymine_opt_freq E -1002.010393180650
  S       1.590433      3.782982      1.986941
  N       3.733974      2.202488      2.351204
  N       3.895532      3.731905      0.643064
  C       3.142896      3.216106      1.650757
  H       4.301931      1.550167      1.822066
  H       3.117010      1.743694      3.007282
  H       3.523224      4.532002      0.154617
  H       4.891793      3.566862      0.598428
  O      -1.762147      1.579414      0.502114
  O       2.466554     -0.171204      0.954154
  N       0.336645      0.699139      0.732917
  N       0.810782     -1.459421      0.045436
  C      -1.428972     -0.661324     -0.248002
  C      -1.017050      0.622031      0.342074
  C      -0.496503     -1.634136     -0.368550
  C      -2.858618     -0.812250     -0.683043
  C       1.291939     -0.286077      0.607850
  H      -0.718577     -2.607978     -0.793275
  H       0.635822      1.590959      1.142374
  H       1.496709     -2.193125     -0.062998
  H      -3.119003     -0.055320     -1.430894
  H      -3.540011     -0.663291      0.161765
  H      -3.038362     -1.804021     -1.108881
23
Coordinates from ORCA-job thiourea_thymine_opt_freq E -1002.010422006454
  S       1.599928      3.782110      1.981240
  N       3.744717      2.206573      2.357349
  N       3.905532      3.724334      0.637453
  C       3.153755      3.213415      1.648314
  H       4.313446      1.551620      1.832077
  H       3.125017      1.751284      3.012420
  H       3.534637      4.522364      0.144428
  H       4.903948      3.569076      0.600279
  O      -1.780920      1.570215      0.517027
  O       2.454562     -0.157650      0.968052
  N       0.324585      0.702681      0.734617
  N       0.810922     -1.451077      0.040425
  C      -1.433440     -0.662813     -0.250303
  C      -1.028899      0.619607      0.348049
  C      -0.495505     -1.629889     -0.375082
  C      -2.861898     -0.820013     -0.686309
  C       1.283836     -0.279095      0.611973
  H      -0.713928     -2.602264     -0.805125
  H       0.624053      1.594073      1.146761
  H       1.499044     -2.182820     -0.067007
  H      -3.126505     -0.062378     -1.431983
  H      -3.544623     -0.678554      0.158675
  H      -3.036266     -1.811197     -1.115930
23
Coordinates from ORCA-job thiourea_thymine_opt_freq E -1002.010459039254
  S       1.608357      3.787035      1.973015
  N       3.748087      2.208711      2.361032
  N       3.919460      3.724738      0.639925
  C       3.162375      3.214838      1.647350
  H       4.321349      1.553040      1.841483
  H       3.120681      1.751319      3.007623
  H       3.554160      4.524312      0.145347
  H       4.918429      3.570916      0.610598
  O      -1.794447      1.563672      0.522734
  O       2.447751     -0.148216      0.969049
  N       0.315745      0.705473      0.732282
  N       0.810670     -1.445275      0.034431
  C      -1.437824     -0.665801     -0.250788
  C      -1.037881      0.617286      0.349952
  C      -0.496143     -1.628603     -0.378637
  C      -2.866205     -0.828398     -0.684742
  C       1.278917     -0.273612      0.610007
  H      -0.712206     -2.600702     -0.810494
  H       0.616446      1.597869      1.141591
  H       1.499159     -2.176924     -0.071122
  H      -3.135021     -0.071935     -1.430111
  H      -3.548343     -0.689966      0.161187
  H      -3.037514     -1.820174     -1.114312
23
Coordinates from ORCA-job thiourea_thymine_opt_freq E -1002.010495674245
  S       1.613792      3.784674      1.948828
  N       3.753765      2.216103      2.367333
  N       3.938103      3.725892      0.641439
  C       3.172066      3.215696      1.641778
  H       4.343487      1.562719      1.863187
  H       3.115557      1.751505      2.998298
  H       3.577311      4.523605      0.140754
  H       4.937751      3.574692      0.623467
  O      -1.812534      1.553585      0.535546
  O       2.438503     -0.139394      0.973737
  N       0.302568      0.705677      0.737811
  N       0.809831     -1.437626      0.025747
  C      -1.443835     -0.669398     -0.250843
  C      -1.050462      0.612593      0.357208
  C      -0.497171     -1.626175     -0.385364
  C      -2.871733     -0.837069     -0.684433
  C       1.271743     -0.268285      0.610894
  H      -0.708872     -2.596511     -0.823265
  H       0.605226      1.598878      1.145079
  H       1.498393     -2.169452     -0.077854
  H      -3.144735     -0.079372     -1.427052
  H      -3.553933     -0.704579      0.162379
  H      -3.038821     -1.828157     -1.117275
23
Coordinates from ORCA-job thiourea_thymine_opt_freq E -1002.010534199473
  S       1.621560      3.788668      1.919664
  N       3.756830      2.223910      2.370768
  N       3.969960      3.745095      0.657653
  C       3.185518      3.224594      1.637851
  H       4.368404      1.579067      1.881893
  H       3.103119      1.746653      2.976396
  H       3.617024      4.544439      0.154193
  H       4.969281      3.591631      0.653224
  O      -1.826571      1.544519      0.537251
  O       2.430524     -0.138532      0.965403
  N       0.290921      0.701786      0.735208
  N       0.804089     -1.437430      0.015723
  C      -1.453554     -0.677367     -0.250263
  C      -1.062476      0.605456      0.357421
  C      -0.504253     -1.630761     -0.389415
  C      -2.882384     -0.848796     -0.679659
  C       1.263919     -0.268641      0.603838
  H      -0.713607     -2.601119     -0.828339
  H       0.596247      1.596992      1.136286
  H       1.491392     -2.171033     -0.083606
  H      -3.159169     -0.092657     -1.422503
  H      -3.562358     -0.715957      0.168872
  H      -3.048416     -1.840915     -1.110459
23
Coordinates from ORCA-job thiourea_thymine_opt_freq E -1002.010600736195
  S       1.623459      3.770772      1.871898
  N       3.767433      2.235770      2.373271
  N       4.005510      3.770740      0.675018
  C       3.200890      3.229695      1.626956
  H       4.420554      1.611510      1.912189
  H       3.099793      1.734804      2.943744
  H       3.654333      4.568131      0.167390
  H       5.005444      3.623397      0.689014
  O      -1.843413      1.534605      0.540135
  O       2.417979     -0.140842      0.963998
  N       0.274700      0.694391      0.740350
  N       0.794989     -1.438134      0.006859
  C      -1.466132     -0.685841     -0.249662
  C      -1.078034      0.596617      0.360106
  C      -0.514050     -1.635805     -0.394185
  C      -2.895203     -0.859409     -0.678173
  C       1.251709     -0.271182      0.601936
  H      -0.719340     -2.605366     -0.836729
  H       0.582322      1.591234      1.137313
  H       1.480881     -2.173951     -0.085686
  H      -3.173404     -0.103436     -1.420714
  H      -3.574510     -0.726202      0.170824
  H      -3.059910     -1.851900     -1.108451
23
Coordinates from ORCA-job thiourea_thymine_opt_freq E -1002.010706388807
  S       1.635460      3.754518      1.811631
  N       3.781893      2.244776      2.364371
  N       4.070310      3.838472      0.727719
  C       3.230664      3.247824      1.617381
  H       4.493148      1.661753      1.937109
  H       3.094591      1.702246      2.870458
  H       3.725315      4.644291      0.229322
  H       5.069909      3.697145      0.771052
  O      -1.857468      1.527790      0.513375
  O       2.401812     -0.154080      0.939616
  N       0.257066      0.681889      0.723334
  N       0.773031     -1.454072     -0.001380
  C      -1.489524     -0.704195     -0.248599
  C      -1.096699      0.584103      0.344042
  C      -0.538922     -1.656382     -0.390078
  C      -2.921226     -0.879524     -0.668783
  C       1.233561     -0.283269      0.584780
  H      -0.744433     -2.630240     -0.822938
  H       0.568946      1.582912      1.106632
  H       1.454901     -2.195457     -0.078350
  H      -3.199812     -0.132961     -1.420722
  H      -3.596081     -0.730260      0.181083
  H      -3.090442     -1.877678     -1.083654
23
Coordinates from ORCA-job thiourea_thymine_opt_freq E -1002.010884716063
  S       1.645194      3.727956      1.778367
  N       3.801902      2.241373      2.340239
  N       4.115449      3.911549      0.785313
  C       3.255827      3.261959      1.612878
  H       4.559769      1.705136      1.932954
  H       3.109950      1.656432      2.789489
  H       3.767557      4.731386      0.312245
  H       5.115114      3.781959      0.851738
  O      -1.856497      1.533384      0.461997
  O       2.390045     -0.171417      0.913457
  N       0.249244      0.672255      0.694315
  N       0.748646     -1.478966      0.005797
  C      -1.509595     -0.719328     -0.248353
  C      -1.105630      0.578249      0.314240
  C      -0.565890     -1.681126     -0.373224
  C      -2.943814     -0.892650     -0.661763
  C       1.218671     -0.299389      0.567935
  H      -0.776757     -2.662805     -0.785356
  H       0.565049      1.576570      1.065603
  H       1.426112     -2.226079     -0.053291
  H      -3.217293     -0.161064     -1.430152
  H      -3.615264     -0.717001      0.185753
  H      -3.121789     -1.898779     -1.052778
23
Coordinates from ORCA-job thiourea_thymine_opt_freq E -1002.011197566066
  S       1.652481      3.693070      1.790512
  N       3.828087      2.217436      2.286280
  N       4.140697      4.002711      0.863976
  C       3.276296      3.275384      1.620258
  H       4.618896      1.740207      1.869322
  H       3.148293      1.585944      2.685710
  H       3.780208      4.848266      0.448574
  H       5.140915      3.888389      0.946638
  O      -1.831030      1.556332      0.361355
  O       2.385980     -0.195952      0.873239
  N       0.257742      0.666677      0.634329
  N       0.717372     -1.520273      0.038273
  C      -1.527088     -0.732278     -0.248941
  C      -1.099400      0.580995      0.255243
  C      -0.600091     -1.715356     -0.332029
  C      -2.964656     -0.898944     -0.653838
  C       1.208296     -0.323240      0.543967
  H      -0.826815     -2.711139     -0.699610
  H       0.577968      1.574770      0.991199
  H       1.389659     -2.273512      0.001150
  H      -3.226149     -0.195914     -1.452424
  H      -3.631836     -0.676392      0.186025
  H      -3.159825     -1.917579     -1.001809
23
Coordinates from ORCA-job thiourea_thymine_opt_freq E -1002.011515470121
  S       1.657981      3.653582      1.777218
  N       3.852438      2.198916      2.235614
  N       4.162508      4.073875      0.931933
  C       3.296008      3.282372      1.619057
  H       4.677697      1.777599      1.826002
  H       3.183587      1.525949      2.583401
  H       3.790980      4.936713      0.564326
  H       5.162302      3.977514      1.039162
  O      -1.816510      1.569231      0.286521
  O       2.378532     -0.212724      0.847187
  N       0.261407      0.663142      0.586765
  N       0.691564     -1.549761      0.067716
  C      -1.541968     -0.741941     -0.248993
  C      -1.097270      0.581774      0.211140
  C      -0.627457     -1.739203     -0.298043
  C      -2.981452     -0.904868     -0.648171
  C       1.197183     -0.340790      0.528679
  H      -0.867532     -2.744139     -0.630758
  H       0.584747      1.574366      0.931783
  H       1.360728     -2.306343      0.045262
  H      -3.234869     -0.225151     -1.469195
  H      -3.645901     -0.648736      0.184273
  H      -3.188704     -1.931772     -0.963481
23
Coordinates from ORCA-job thiourea_thymine_opt_freq E -1002.012130776206
  S       1.667643      3.606243      1.754252
  N       3.884227      2.169268      2.146344
  N       4.188009      4.168626      1.039749
  C       3.323229      3.292496      1.619019
  H       4.749151      1.827605      1.744918
  H       3.234604      1.442169      2.414531
  H       3.804402      5.055548      0.750064
  H       5.184296      4.094555      1.191265
  O      -1.795727      1.583720      0.178319
  O       2.369402     -0.232543      0.809133
  N       0.270682      0.660572      0.506753
  N       0.655382     -1.589652      0.121174
  C      -1.560362     -0.754025     -0.248689
  C      -1.090906      0.583244      0.145504
  C      -0.665116     -1.769613     -0.242043
  C      -3.002180     -0.913153     -0.638547
  C       1.182897     -0.365063      0.507095
  H      -0.929505     -2.785277     -0.519484
  H       0.600624      1.576508      0.831515
  H       1.320827     -2.349730      0.111915
  H      -3.246598     -0.270151     -1.491173
  H      -3.662652     -0.611443      0.181721
  H      -3.226328     -1.950301     -0.905933
23
Coordinates from ORCA-job thiourea_thymine_opt_freq E -1002.013100747564
  S       1.685331      3.546059      1.675429
  N       3.930640      2.138860      2.009047
  N       4.220328      4.281868      1.205730
  C       3.362802      3.304947      1.608576
  H       4.850566      1.908828      1.649012
  H       3.307267      1.345738      2.137341
  H       3.818768      5.189138      1.023388
  H       5.203605      4.228206      1.434641
  O      -1.773854      1.593123      0.035866
  O       2.355608     -0.258388      0.757147
  N       0.280520      0.654731      0.397556
  N       0.608627     -1.631674      0.196735
  C      -1.584686     -0.769902     -0.245882
  C      -1.084672      0.580973      0.059194
  C      -0.713553     -1.802251     -0.163835
  C      -3.029618     -0.926306     -0.621388
  C       1.163996     -0.393237      0.479218
  H      -1.009891     -2.826829     -0.366584
  H       0.620125      1.578130      0.689224
  H       1.268218     -2.396818      0.203224
  H      -3.266050     -0.335459     -1.512996
  H      -3.683479     -0.566355      0.180497
  H      -3.274600     -1.973781     -0.823740
23
Coordinates from ORCA-job thiourea_thymine_opt_freq E -1002.013039206100
  S       1.698875      3.571428      1.562570
  N       3.942619      2.123322      1.910274
  N       4.234463      4.316511      1.272872
  C       3.378788      3.308573      1.600781
  H       4.868503      1.934331      1.564756
  H       3.352662      1.313480      1.962635
  H       3.856933      5.240842      1.134312
  H       5.194122      4.278913      1.595494
  O      -1.792253      1.580017      0.059236
  O       2.334655     -0.258836      0.803715
  N       0.278070      0.650921      0.362902
  N       0.586582     -1.653036      0.272168
  C      -1.587574     -0.775118     -0.248940
  C      -1.084259      0.579233      0.065265
  C      -0.727833     -1.810098     -0.132671
  C      -3.026900     -0.931444     -0.633717
  C       1.145082     -0.415457      0.512829
  H      -1.057324     -2.826586     -0.324777
  H       0.644642      1.570179      0.643759
  H       1.243197     -2.419421      0.228300
  H      -3.264144     -0.340852     -1.525035
  H      -3.691627     -0.589219      0.166946
  H      -3.271279     -1.978081     -0.846274
23
Coordinates from ORCA-job thiourea_thymine_opt_freq E -1002.014318511619
  S       1.718300      3.543924      1.492270
  N       3.968652      2.119739      1.847821
  N       4.255124      4.361201      1.382344
  C       3.402108      3.318120      1.582648
  H       4.939121      1.985365      1.564427
  H       3.369778      1.280363      1.790571
  H       3.856074      5.283547      1.298164
  H       5.202085      4.307056      1.736662
  O      -1.779840      1.584416     -0.050082
  O       2.333095     -0.269024      0.741548
  N       0.278927      0.649692      0.305306
  N       0.570149     -1.655976      0.284791
  C      -1.604400     -0.786438     -0.240790
  C      -1.087429      0.574748      0.004428
  C      -0.750498     -1.822981     -0.091436
  C      -3.049194     -0.946009     -0.607776
  C       1.142547     -0.412709      0.474614
  H      -1.079067     -2.847598     -0.236265
  H       0.640917      1.577938      0.557940
  H       1.222128     -2.427759      0.281573
  H      -3.285631     -0.393268     -1.523328
  H      -3.702370     -0.555866      0.180448
  H      -3.304575     -1.998879     -0.768478
23
Coordinates from ORCA-job thiourea_thymine_opt_freq E -1002.014875897548
  S       1.700989      3.505446      1.551126
  N       3.966406      2.104081      1.840052
  N       4.235308      4.348208      1.376648
  C       3.384634      3.303156      1.586128
  H       4.927406      1.962635      1.542337
  H       3.375252      1.268650      1.797551
  H       3.815316      5.264116      1.321298
  H       5.189928      4.289403      1.706104
  O      -1.764745      1.596523     -0.099130
  O       2.349448     -0.256595      0.717788
  N       0.285000      0.661904      0.301019
  N       0.578494     -1.638436      0.280870
  C      -1.600583     -0.780938     -0.236113
  C      -1.084588      0.581641     -0.017325
  C      -0.745186     -1.817132     -0.076826
  C      -3.047387     -0.941994     -0.602666
  C       1.154196     -0.391016      0.458864
  H      -1.056075     -2.849298     -0.205188
  H       0.641751      1.594976      0.546584
  H       1.229458     -2.410677      0.311270
  H      -3.278882     -0.397258     -1.524358
  H      -3.696608     -0.531480      0.178580
  H      -3.303532     -1.996314     -0.747213
23
Coordinates from ORCA-job thiourea_thymine_opt_freq E -1002.015923714970
  S       1.717443      3.514121      1.447078
  N       3.975963      2.094645      1.745102
  N       4.252321      4.367524      1.480254
  C       3.395053      3.308406      1.561705
  H       4.955643      1.991067      1.504372
  H       3.396682      1.258519      1.604218
  H       3.825161      5.282162      1.483768
  H       5.183280      4.288219      1.868049
  O      -1.763580      1.592885     -0.166558
  O       2.347777     -0.251842      0.695375
  N       0.283242      0.663098      0.256223
  N       0.566954     -1.634494      0.313859
  C      -1.609729     -0.789146     -0.228447
  C      -1.089941      0.577229     -0.054659
  C      -0.757986     -1.823294     -0.035615
  C      -3.058658     -0.954770     -0.587439
  C       1.149540     -0.383585      0.444465
  H      -1.065819     -2.860121     -0.126837
  H       0.649361      1.599237      0.474556
  H       1.213847     -2.408892      0.368561
  H      -3.289673     -0.431932     -1.521829
  H      -3.702916     -0.517802      0.183600
  H      -3.317965     -2.011632     -0.702402
23
Coordinates from ORCA-job thiourea_thymine_opt_freq E -1002.004634278247
  S       2.040380      3.738082      0.333277
  N       3.900608      2.131618      1.670951
  N       4.324761      4.378307      1.630596
  C       3.441714      3.364900      1.257229
  H       4.853636      1.997475      1.978697
  H       3.390649      1.345170      1.224071
  H       3.996889      5.323473      1.448383
  H       5.023925      4.289254      2.390108
  O      -1.824523      1.536757      0.169080
  O       2.268417     -0.258977      0.884756
  N       0.228815      0.590909      0.484026
  N       0.586434     -1.641998      0.150530
  C      -1.630876     -0.827568     -0.186083
  C      -1.148297      0.518774      0.155099
  C      -0.743695     -1.855404     -0.177617
  C      -3.089991     -0.964498     -0.536312
  C       1.108029     -0.402157      0.518923
  H      -0.966717     -2.891414     -0.422310
  H       0.700772      1.473025      0.622421
  H       1.180656     -2.450810      0.275400
  H      -3.342829     -0.309459     -1.380765
  H      -3.709381     -0.613206      0.298295
  H      -3.333376     -2.002651     -0.781352
23
Coordinates from ORCA-job thiourea_thymine_opt_freq E -1002.014153885890
  S       1.964629      3.776104      0.563362
  N       3.904070      2.123177      1.628076
  N       4.345443      4.371067      1.645062
  C       3.442398      3.374657      1.326586
  H       4.885426      1.979249      1.824530
  H       3.370882      1.362000      1.240802
  H       4.007775      5.318979      1.544215
  H       5.086788      4.237636      2.329470
  O      -1.845155      1.544280      0.053657
  O       2.313398     -0.279721      0.832437
  N       0.220581      0.632707      0.416211
  N       0.583527     -1.647182      0.209156
  C      -1.630708     -0.823862     -0.192131
  C      -1.150313      0.538522      0.088123
  C      -0.747976     -1.848874     -0.121075
  C      -3.083653     -0.985831     -0.546158
  C       1.124584     -0.403531      0.508250
  H      -1.002725     -2.885873     -0.317759
  H       0.652167      1.561855      0.556083
  H       1.190912     -2.446706      0.323553
  H      -3.334891     -0.383350     -1.427038
  H      -3.717731     -0.611111      0.265549
  H      -3.323431     -2.034591     -0.743559
23
Coordinates from ORCA-job thiourea_thymine_opt_freq E -1002.016551540972
  S       1.937257      3.770179      0.698428
  N       3.880791      2.120046      1.578672
  N       4.327089      4.369230      1.716011
  C       3.444938      3.378465      1.374545
  H       4.881126      1.988215      1.734133
  H       3.347135      1.328712      1.176144
  H       3.966819      5.309692      1.690072
  H       5.074201      4.193256      2.363407
  O      -1.800774      1.561779     -0.098548
  O       2.330910     -0.286271      0.716452
  N       0.261106      0.649268      0.301135
  N       0.585292     -1.647939      0.244924
  C      -1.621749     -0.813218     -0.183946
  C      -1.111377      0.555393     -0.002729
  C      -0.753268     -1.838870     -0.051627
  C      -3.077908     -0.985962     -0.508013
  C       1.150165     -0.402355      0.443160
  H      -1.049874     -2.874904     -0.175358
  H       0.651092      1.588171      0.397781
  H       1.206967     -2.434125      0.367984
  H      -3.335714     -0.455215     -1.430344
  H      -3.704511     -0.561325      0.283467
  H      -3.333712     -2.042621     -0.628348
23
Coordinates from ORCA-job thiourea_thymine_opt_freq E -1002.012105361615
  S       1.749710      3.548795      1.109377
  N       3.880236      2.093860      1.743199
  N       4.283221      4.346753      1.395257
  C       3.379789      3.308912      1.433000
  H       4.865850      1.886836      1.662725
  H       3.342102      1.293337      1.647437
  H       3.867217      5.268983      1.349227
  H       5.168023      4.241929      1.902993
  O      -1.781426      1.588484      0.011666
  O       2.345222     -0.208245      0.844174
  N       0.254836      0.644584      0.450321
  N       0.603483     -1.618299      0.221917
  C      -1.599226     -0.782280     -0.211021
  C      -1.099353      0.574105      0.081825
  C      -0.722878     -1.809342     -0.120364
  C      -3.041222     -0.946772     -0.596615
  C       1.143404     -0.379516      0.512164
  H      -1.010321     -2.837940     -0.322263
  H       0.630240      1.585952      0.681270
  H       1.254151     -2.387584      0.300390
  H      -3.272002     -0.363496     -1.495347
  H      -3.702306     -0.582191      0.197994
  H      -3.282751     -1.997264     -0.791926
23
Coordinates from ORCA-job thiourea_thymine_opt_freq E -1002.016552041356
  S       1.774473      3.552366      1.059897
  N       3.911019      2.096565      1.721345
  N       4.280776      4.364597      1.460430
  C       3.399481      3.316329      1.430668
  H       4.913790      1.933719      1.666795
  H       3.344470      1.264913      1.545499
  H       3.861409      5.283939      1.422135
  H       5.147438      4.260841      1.985602
  O      -1.776084      1.588493     -0.026359
  O       2.335809     -0.231578      0.815126
  N       0.260131      0.645736      0.409779
  N       0.592593     -1.626877      0.235082
  C      -1.605927     -0.787270     -0.208516
  C      -1.098056      0.572057      0.052886
  C      -0.734390     -1.817343     -0.103180
  C      -3.051147     -0.950559     -0.580528
  C       1.139503     -0.385110      0.500956
  H      -1.027585     -2.847771     -0.282043
  H       0.637269      1.586930      0.614909
  H       1.239850     -2.398810      0.317525
  H      -3.285213     -0.384543     -1.489104
  H      -3.704058     -0.563857      0.209991
  H      -3.299551     -2.003164     -0.751495
23
Coordinates from ORCA-job thiourea_thymine_opt_freq E -1002.014380703516
  S       1.808908      3.718358      0.942985
  N       3.902050      2.083926      1.591638
  N       4.304091      4.333622      1.651718
  C       3.393253      3.332304      1.426269
  H       4.898491      1.990007      1.604303
  H       3.340446      1.270391      1.239470
  H       3.951613      5.276063      1.668910
  H       5.118038      4.181429      2.206613
  O      -1.812476      1.577843     -0.132881
  O       2.324873     -0.280266      0.768322
  N       0.249732      0.689370      0.301346
  N       0.596476     -1.614693      0.285130
  C      -1.608748     -0.802953     -0.196727
  C      -1.121855      0.574167     -0.024044
  C      -0.732258     -1.825407     -0.046232
  C      -3.060271     -0.985076     -0.537055
  C       1.145126     -0.359359      0.494581
  H      -1.006494     -2.867188     -0.164320
  H       0.658857      1.632181      0.402064
  H       1.217133     -2.404302      0.398183
  H      -3.310611     -0.461788     -1.466535
  H      -3.695443     -0.544004      0.239057
  H      -3.304930     -2.045023     -0.645396
23
Coordinates from ORCA-job thiourea_thymine_opt_freq E -1002.001538143044
  S       1.795292      3.498469      0.962216
  N       3.907064      2.100329      1.629771
  N       4.238040      4.389309      1.497467
  C       3.408138      3.310125      1.394641
  H       4.938266      1.947571      1.632927
  H       3.482393      1.258863      1.407282
  H       3.767351      5.289670      1.484655
  H       5.076157      4.275515      2.107193
  O      -1.743918      1.588536     -0.004049
  O       2.348593     -0.177232      0.826469
  N       0.290480      0.614233      0.407197
  N       0.573067     -1.658892      0.270841
  C      -1.602642     -0.773041     -0.201609
  C      -1.061440      0.573597      0.077389
  C      -0.757864     -1.810758     -0.065926
  C      -3.044144     -0.924354     -0.590329
  C       1.150100     -0.425659      0.480217
  H      -1.107355     -2.827828     -0.237314
  H       0.659240      1.538857      0.659611
  H       1.222822     -2.425271      0.349020
  H      -3.263058     -0.367559     -1.506846
  H      -3.710053     -0.551626      0.195201
  H      -3.310529     -1.973250     -0.768623
23
Coordinates from ORCA-job thiourea_thymine_opt_freq E -1002.014288110535
  S       1.787709      3.540084      1.008879
  N       3.921147      2.090013      1.622862
  N       4.260171      4.367892      1.531322
  C       3.404165      3.306145      1.413562
  H       4.932985      1.961432      1.599996
  H       3.453392      1.229269      1.376699
  H       3.818756      5.276307      1.545560
  H       5.095734      4.252414      2.097823
  O      -1.779851      1.593042     -0.058512
  O       2.322902     -0.201544      0.805708
  N       0.264660      0.654813      0.377071
  N       0.584701     -1.632308      0.282068
  C      -1.605357     -0.780345     -0.202930
  C      -1.094044      0.582722      0.038002
  C      -0.745191     -1.812029     -0.054262
  C      -3.047620     -0.948009     -0.582361
  C       1.141446     -0.386833      0.487126
  H      -1.057576     -2.841062     -0.205441
  H       0.652207      1.583148      0.595318
  H       1.226832     -2.406671      0.373085
  H      -3.274384     -0.404076     -1.505326
  H      -3.707603     -0.552213      0.197029
  H      -3.299182     -2.002589     -0.735878
23
Coordinates from ORCA-job thiourea_thymine_opt_freq E -1002.017020396275
  S       1.789714      3.592823      1.015039
  N       3.928476      2.084067      1.613889
  N       4.285267      4.358273      1.554425
  C       3.407092      3.315466      1.417392
  H       4.935001      1.962141      1.591443
  H       3.419751      1.249255      1.351526
  H       3.865858      5.276380      1.579128
  H       5.123356      4.231686      2.106271
  O      -1.807121      1.586845     -0.080862
  O       2.328898     -0.225515      0.803448
  N       0.243369      0.674326      0.365950
  N       0.585936     -1.623016      0.287297
  C      -1.610485     -0.789677     -0.204778
  C      -1.117161      0.580880      0.020679
  C      -0.742128     -1.816782     -0.052800
  C      -3.053389     -0.967246     -0.580549
  C       1.138008     -0.372311      0.496148
  H      -1.033628     -2.852228     -0.196504
  H       0.636922      1.619024      0.572675
  H       1.223408     -2.401248      0.381186
  H      -3.284260     -0.426474     -1.504768
  H      -3.711239     -0.562379      0.196250
  H      -3.295645     -2.024690     -0.725083
23
Coordinates from ORCA-job thiourea_thymine_opt_freq E -1002.014228078020
  S       1.860940      3.724161      0.715907
  N       3.833807      2.094578      1.660101
  N       4.287698      4.335505      1.606191
  C       3.385010      3.344642      1.355602
  H       4.810564      1.973096      1.829587
  H       3.256119      1.306028      1.329313
  H       3.957859      5.287171      1.515384
  H       5.077396      4.200754      2.215346
  O      -1.764060      1.572565     -0.003017
  O       2.333614     -0.317713      0.762047
  N       0.288759      0.643459      0.368872
  N       0.604207     -1.628957      0.221342
  C      -1.595733     -0.799893     -0.185904
  C      -1.087297      0.556229      0.051551
  C      -0.725241     -1.828834     -0.103635
  C      -3.055489     -0.952653     -0.515646
  C       1.162081     -0.388176      0.483865
  H      -0.997537     -2.865569     -0.266983
  H       0.691351      1.558374      0.479381
  H       1.230643     -2.417661      0.285857
  H      -3.312127     -0.375878     -1.410608
  H      -3.675770     -0.548611      0.291831
  H      -3.310795     -2.003014     -0.678986
23
Coordinates from ORCA-job thiourea_thymine_opt_freq E -1002.017803069063
  S       1.856784      3.726445      0.762415
  N       3.837965      2.104224      1.642081
  N       4.295053      4.355265      1.606784
  C       3.395675      3.357024      1.368570
  H       4.830108      1.963237      1.785528
  H       3.278238      1.317531      1.328563
  H       3.950658      5.301042      1.535084
  H       5.093092      4.205167      2.207281
  O      -1.769832      1.571802     -0.018119
  O       2.360931     -0.311798      0.759774
  N       0.283792      0.640564      0.366959
  N       0.596555     -1.651250      0.232838
  C      -1.600838     -0.799754     -0.188873
  C      -1.087045      0.558477      0.046215
  C      -0.736169     -1.833034     -0.090011
  C      -3.056382     -0.954279     -0.528056
  C       1.166714     -0.412134      0.476386
  H      -1.031850     -2.864635     -0.250413
  H       0.674868      1.582095      0.509914
  H       1.224729     -2.439157      0.300244
  H      -3.306291     -0.389828     -1.432681
  H      -3.686033     -0.551931      0.272794
  H      -3.314723     -2.005470     -0.685877
23
Coordinates from ORCA-job thiourea_thymine_opt_freq E -1002.013310252511
  S       1.820313      3.568762      0.880749
  N       3.912863      2.072452      1.493999
  N       4.240848      4.367557      1.641997
  C       3.405406      3.309504      1.368200
  H       4.944261      1.969174      1.595916
  H       3.379799      1.192355      1.219829
  H       3.772953      5.265719      1.709598
  H       5.048402      4.198054      2.249624
  O      -1.745827      1.603191     -0.128090
  O       2.353286     -0.184630      0.747462
  N       0.287831      0.654580      0.328742
  N       0.587681     -1.622633      0.305910
  C      -1.603031     -0.780301     -0.186611
  C      -1.077141      0.584850     -0.001883
  C      -0.744713     -1.813795     -0.012974
  C      -3.050774     -0.947122     -0.547119
  C       1.155030     -0.373017      0.463953
  H      -1.052054     -2.850640     -0.124653
  H       0.677986      1.593491      0.506049
  H       1.232594     -2.393535      0.418701
  H      -3.279873     -0.426746     -1.484364
  H      -3.697093     -0.513243      0.224654
  H      -3.312747     -2.004425     -0.662288
23
Coordinates from ORCA-job thiourea_thymine_opt_freq E -1002.009464132517
  S       1.800833      3.779450      0.866169
  N       3.791122      2.080029      1.658888
  N       4.318526      4.290110      1.588365
  C       3.360601      3.334046      1.398372
  H       4.742725      1.915861      1.733754
  H       3.233016      1.322485      1.395160
  H       4.027326      5.249803      1.541180
  H       5.119012      4.138636      2.145390
  O      -1.801300      1.575749     -0.065168
  O       2.343149     -0.309861      0.759755
  N       0.269924      0.697923      0.337449
  N       0.626790     -1.604532      0.238546
  C      -1.584974     -0.796561     -0.190383
  C      -1.102104      0.576013      0.013131
  C      -0.701653     -1.813975     -0.088432
  C      -3.040056     -0.978307     -0.516143
  C       1.169728     -0.355321      0.493169
  H      -0.971530     -2.851592     -0.237548
  H       0.653902      1.643800      0.425212
  H       1.254426     -2.391859      0.309939
  H      -3.305813     -0.432264     -1.426927
  H      -3.668330     -0.564368      0.278990
  H      -3.279323     -2.035662     -0.651469
23
Coordinates from ORCA-job thiourea_thymine_opt_freq E -1002.017982877519
  S       1.834901      3.748260      0.856083
  N       3.825245      2.099741      1.634435
  N       4.315272      4.348440      1.602551
  C       3.392795      3.358683      1.391831
  H       4.815173      1.923978      1.731283
  H       3.239133      1.310009      1.368799
  H       3.973049      5.296884      1.560275
  H       5.124890      4.185177      2.185595
  O      -1.776125      1.574476     -0.063592
  O       2.365488     -0.283367      0.751914
  N       0.278511      0.655164      0.340806
  N       0.603965     -1.638295      0.236688
  C      -1.600312     -0.801625     -0.191737
  C      -1.091855      0.563530      0.018538
  C      -0.728994     -1.830290     -0.080119
  C      -3.054789     -0.968519     -0.526044
  C       1.165792     -0.394057      0.470491
  H      -1.021781     -2.864764     -0.226913
  H       0.661684      1.607416      0.464682
  H       1.236803     -2.421554      0.318613
  H      -3.307930     -0.424487     -1.442526
  H      -3.685325     -0.551338      0.266683
  H      -3.309590     -2.023857     -0.660939
23
Coordinates from ORCA-job thiourea_thymine_opt_freq E -1002.018211871308
  S       1.831556      3.711099      0.835846
  N       3.833335      2.094383      1.613262
  N       4.294260      4.348117      1.605989
  C       3.389920      3.347088      1.380239
  H       4.824942      1.930181      1.728590
  H       3.263178      1.285367      1.339020
  H       3.932398      5.288897      1.571841
  H       5.097168      4.190631      2.200845
  O      -1.761707      1.581001     -0.059530
  O       2.355589     -0.265463      0.752057
  N       0.288577      0.650220      0.344067
  N       0.603765     -1.635099      0.242904
  C      -1.596732     -0.795516     -0.189158
  C      -1.082600      0.566850      0.024148
  C      -0.729212     -1.826102     -0.072729
  C      -3.051094     -0.958087     -0.527013
  C       1.165419     -0.390617      0.468438
  H      -1.024374     -2.860342     -0.217368
  H       0.675773      1.589688      0.478576
  H       1.237534     -2.416918      0.329833
  H      -3.300144     -0.413426     -1.444109
  H      -3.682258     -0.539852      0.264569
  H      -3.309295     -2.012498     -0.662917
23
Coordinates from ORCA-job thiourea_thymine_opt_freq E -1002.018367873005
  S       1.797702      3.646615      0.880056
  N       3.861437      2.078512      1.604422
  N       4.271967      4.344112      1.575066
  C       3.383601      3.321353      1.380099
  H       4.862007      1.930923      1.701279
  H       3.297645      1.265725      1.329682
  H       3.883806      5.274895      1.554632
  H       5.091028      4.204406      2.150667
  O      -1.768360      1.590008     -0.041807
  O       2.355016     -0.258682      0.791705
  N       0.279599      0.659470      0.374041
  N       0.604362     -1.628005      0.257624
  C      -1.594057     -0.786136     -0.191932
  C      -1.087626      0.576690      0.041047
  C      -0.725931     -1.817197     -0.072091
  C      -3.043403     -0.949656     -0.549366
  C       1.160482     -0.385098      0.495936
  H      -1.018371     -2.850631     -0.228654
  H       0.671534      1.604028      0.532878
  H       1.238541     -2.409481      0.346761
  H      -3.282299     -0.398800     -1.465760
  H      -3.685706     -0.539562      0.237685
  H      -3.296974     -2.003888     -0.696570
23
Coordinates from ORCA-job thiourea_thymine_opt_freq E -1002.018404805544
  S       1.807132      3.669183      0.875040
  N       3.844759      2.082981      1.604955
  N       4.278069      4.347523      1.590470
  C       3.384764      3.333154      1.382385
  H       4.835459      1.921710      1.705919
  H       3.278717      1.279364      1.330638
  H       3.898639      5.282699      1.568978
  H       5.096070      4.196123      2.164303
  O      -1.760494      1.589213     -0.057694
  O       2.363685     -0.267932      0.767849
  N       0.286159      0.656728      0.358839
  N       0.605322     -1.632646      0.251869
  C      -1.593632     -0.788660     -0.190372
  C      -1.082342      0.574533      0.029418
  C      -0.727260     -1.820981     -0.068053
  C      -3.045050     -0.951483     -0.539202
  C       1.166083     -0.389734      0.479096
  H      -1.022942     -2.854596     -0.216107
  H       0.675290      1.604427      0.512532
  H       1.239002     -2.414300      0.344352
  H      -3.287003     -0.407925     -1.459085
  H      -3.682529     -0.533555      0.247637
  H      -3.301897     -2.006223     -0.676367
23
Coordinates from ORCA-job thiourea_thymine_opt_freq E -1002.018462210689
  S       1.799993      3.673223      0.878542
  N       3.844320      2.079975      1.594016
  N       4.273042      4.342215      1.597539
  C       3.377887      3.329256      1.383809
  H       4.838823      1.926610      1.693595
  H       3.279944      1.273256      1.317969
  H       3.895945      5.278478      1.584114
  H       5.092572      4.188726      2.171486
  O      -1.758803      1.589813     -0.065646
  O       2.361830     -0.264402      0.766579
  N       0.289304      0.659765      0.349866
  N       0.605436     -1.629832      0.260336
  C      -1.591598     -0.787953     -0.190591
  C      -1.079548      0.576007      0.023089
  C      -0.726306     -1.819853     -0.063231
  C      -3.043609     -0.951162     -0.537459
  C       1.166946     -0.385054      0.480190
  H      -1.022603     -2.854175     -0.205479
  H       0.681613      1.603270      0.499510
  H       1.238423     -2.412135      0.350293
  H      -3.286536     -0.409984     -1.458474
  H      -3.680095     -0.530223      0.248557
  H      -3.300980     -2.006218     -0.671209
23
Coordinates from ORCA-job thiourea_thymine_opt_freq E -1002.018466041069
  S       1.800498      3.662608      0.874340
  N       3.850313      2.080352      1.593203
  N       4.268361      4.345183      1.595461
  C       3.379863      3.327770      1.380946
  H       4.845141      1.929304      1.697229
  H       3.286360      1.272489      1.315409
  H       3.887004      5.279222      1.579963
  H       5.089182      4.196312      2.166915
  O      -1.757527      1.590344     -0.058838
  O       2.360677     -0.267255      0.772622
  N       0.289273      0.657374      0.356831
  N       0.604259     -1.632086      0.259603
  C      -1.591815     -0.787030     -0.190418
  C      -1.079126      0.575841      0.028499
  C      -0.727419     -1.819995     -0.065070
  C      -3.043359     -0.948216     -0.540123
  C       1.165872     -0.388417      0.483643
  H      -1.024556     -2.853523     -0.211052
  H       0.682923      1.600425      0.509713
  H       1.236677     -2.414749      0.349821
  H      -3.284297     -0.404899     -1.460366
  H      -3.680857     -0.528739      0.245817
  H      -3.301450     -2.002716     -0.676747
23
Coordinates from ORCA-job thiourea_thymine_opt_freq E -1002.018463333958
  S       1.792279      3.657550      0.889643
  N       3.853036      2.077796      1.587526
  N       4.264212      4.344471      1.594262
  C       3.377002      3.325096      1.383097
  H       4.849518      1.927931      1.687176
  H       3.284902      1.272152      1.315458
  H       3.881538      5.277943      1.585424
  H       5.091667      4.195809      2.155078
  O      -1.757536      1.591593     -0.062018
  O       2.363361     -0.268573      0.775657
  N       0.289084      0.659701      0.356944
  N       0.604304     -1.632180      0.264289
  C      -1.590799     -0.785921     -0.190866
  C      -1.078707      0.577482      0.027332
  C      -0.727016     -1.819418     -0.062825
  C      -3.041750     -0.947068     -0.542750
  C       1.166390     -0.388331      0.486784
  H      -1.024848     -2.852851     -0.208062
  H       0.684471      1.604748      0.512241
  H       1.236354     -2.415235      0.353966
  H      -3.281134     -0.405053     -1.464226
  H      -3.680493     -0.526295      0.241519
  H      -3.299835     -2.001747     -0.678248
23
Coordinates from ORCA-job thiourea_thymine_opt_freq E -1002.018494267968
  S       1.792445      3.660327      0.895883
  N       3.853811      2.078708      1.578676
  N       4.262711      4.345577      1.605009
  C       3.377125      3.326942      1.385080
  H       4.849245      1.928218      1.676672
  H       3.287068      1.273362      1.303223
  H       3.879401      5.278954      1.602938
  H       5.092373      4.193213      2.162305
  O      -1.754360      1.591758     -0.073941
  O       2.363169     -0.267253      0.769324
  N       0.291292      0.659132      0.348460
  N       0.603113     -1.632578      0.267838
  C      -1.591047     -0.786507     -0.190435
  C      -1.076839      0.577219      0.020305
  C      -0.728602     -1.820305     -0.057228
  C      -3.042450     -0.947627     -0.540645
  C       1.166677     -0.388101      0.482292
  H      -1.027751     -2.854187     -0.196537
  H       0.687709      1.603056      0.500707
  H       1.234772     -2.415564      0.360987
  H      -3.281577     -0.410522     -1.465047
  H      -3.680175     -0.521533      0.241572
  H      -3.302109     -2.002689     -0.670037
23
Coordinates from ORCA-job thiourea_thymine_opt_freq E -1002.018504006793
  S       1.790038      3.659959      0.903598
  N       3.857603      2.079670      1.566818
  N       4.257640      4.347544      1.616361
  C       3.376553      3.327910      1.386696
  H       4.852296      1.930013      1.665238
  H       3.290691      1.274678      1.290545
  H       3.873151      5.280399      1.621557
  H       5.093177      4.193755      2.164745
  O      -1.750112      1.592149     -0.084388
  O       2.362799     -0.269114      0.766695
  N       0.294183      0.657938      0.341683
  N       0.601337     -1.634498      0.272420
  C      -1.590923     -0.786654     -0.190208
  C      -1.073992      0.577054      0.014143
  C      -0.730598     -1.821406     -0.052246
  C      -3.042693     -0.946525     -0.539549
  C       1.166950     -0.389883      0.480658
  H      -1.031912     -2.855289     -0.186654
  H       0.692907      1.600457      0.490867
  H       1.231793     -2.418101      0.368173
  H      -3.280755     -0.413908     -1.466787
  H      -3.679501     -0.514852      0.240321
  H      -3.304633     -2.001694     -0.663287
23
Coordinates from ORCA-job thiourea_thymine_opt_freq E -1002.018526945624
  S       1.786570      3.660135      0.912882
  N       3.861877      2.080319      1.552614
  N       4.253040      4.348931      1.627976
  C       3.376284      3.328716      1.388296
  H       4.855995      1.929871      1.654326
  H       3.292282      1.276781      1.278052
  H       3.867478      5.281158      1.641839
  H       5.095683      4.193362      2.165158
  O      -1.746921      1.592504     -0.095922
  O       2.362994     -0.270034      0.765229
  N       0.296242      0.657697      0.334873
  N       0.599972     -1.635803      0.277069
  C      -1.590856     -0.786819     -0.190076
  C      -1.071838      0.577176      0.007530
  C      -0.732177     -1.822141     -0.047240
  C      -3.042874     -0.946135     -0.538605
  C       1.167320     -0.391077      0.479924
  H      -1.035250     -2.856125     -0.176779
  H       0.696640      1.599815      0.480705
  H       1.229176     -2.419985      0.376057
  H      -3.279967     -0.418430     -1.468883
  H      -3.678955     -0.508798      0.238676
  H      -3.306716     -2.001517     -0.656303
23
Coordinates from ORCA-job thiourea_thymine_opt_freq E -1002.018537619042
  S       1.782468      3.660290      0.921275
  N       3.866042      2.080833      1.534986
  N       4.247944      4.349892      1.640003
  C       3.375654      3.329234      1.389044
  H       4.859204      1.927806      1.644115
  H       3.293030      1.278825      1.263373
  H       3.860764      5.281132      1.663214
  H       5.098108      4.192154      2.164199
  O      -1.743525      1.593258     -0.107076
  O       2.363694     -0.270341      0.764960
  N       0.298112      0.657609      0.329581
  N       0.599080     -1.636758      0.281828
  C      -1.590560     -0.786716     -0.189808
  C      -1.069752      0.577612      0.001721
  C      -0.733377     -1.822542     -0.041923
  C      -3.042629     -0.945588     -0.538215
  C       1.167935     -0.392144      0.480095
  H      -1.037771     -2.856691     -0.166996
  H       0.699654      1.599882      0.473255
  H       1.226767     -2.421616      0.385169
  H      -3.278338     -0.422476     -1.471446
  H      -3.678308     -0.502908      0.236363
  H      -3.308195     -2.001143     -0.650318
23
Coordinates from ORCA-job thiourea_thymine_opt_freq E -1002.018545500061
  S       1.779515      3.660215      0.926863
  N       3.869163      2.081459      1.518540
  N       4.243496      4.350377      1.650203
  C       3.374813      3.329455      1.389041
  H       4.860960      1.926018      1.636236
  H       3.295036      1.279349      1.248979
  H       3.854347      5.280454      1.680932
  H       5.099376      4.190730      2.163756
  O      -1.740284      1.594174     -0.115620
  O       2.363837     -0.270170      0.765312
  N       0.299753      0.657372      0.326119
  N       0.598535     -1.637172      0.285752
  C      -1.590193     -0.786434     -0.189526
  C      -1.067951      0.578086     -0.002423
  C      -0.734213     -1.822649     -0.037321
  C      -3.042208     -0.944947     -0.538247
  C       1.168355     -0.392691      0.480404
  H      -1.039374     -2.856996     -0.158819
  H       0.701546      1.599634      0.469369
  H       1.224856     -2.422521      0.393685
  H      -3.276555     -0.425207     -1.473723
  H      -3.677757     -0.498335      0.234187
  H      -3.309053     -2.000600     -0.646298
23
Coordinates from ORCA-job thiourea_thymine_opt_freq E -1002.018551658945
  S       1.780703      3.662478      0.922825
  N       3.874928      2.083238      1.504013
  N       4.241949      4.352399      1.655826
  C       3.377419      3.330855      1.386194
  H       4.863865      1.925338      1.641485
  H       3.296769      1.281719      1.241803
  H       3.851710      5.281883      1.687302
  H       5.103450      4.193892      2.160082
  O      -1.740992      1.593661     -0.113186
  O       2.363326     -0.274933      0.774346
  N       0.298456      0.656494      0.329780
  N       0.597724     -1.638678      0.285335
  C      -1.590886     -0.786897     -0.190002
  C      -1.068779      0.577464     -0.000688
  C      -0.735026     -1.823202     -0.038729
  C      -3.042622     -0.945023     -0.539981
  C       1.167548     -0.395168      0.485345
  H      -1.039833     -2.857406     -0.162166
  H       0.698476      1.600432      0.473146
  H       1.222076     -2.425074      0.396656
  H      -3.276099     -0.424148     -1.475025
  H      -3.678662     -0.499220      0.232502
  H      -3.309502     -2.000504     -0.649464
23
Coordinates from ORCA-job thiourea_thymine_opt_freq E -1002.018560556870
  S       1.781130      3.662827      0.918413
  N       3.876056      2.084021      1.491060
  N       4.239492      4.352285      1.659121
  C       3.376599      3.330674      1.382787
  H       4.861886      1.923931      1.644844
  H       3.300639      1.279127      1.231051
  H       3.847507      5.280890      1.692748
  H       5.103638      4.192887      2.157753
  O      -1.739651      1.594344     -0.110169
  O       2.360776     -0.273898      0.780141
  N       0.298973      0.655644      0.333182
  N       0.597988     -1.638240      0.286232
  C      -1.590384     -0.786437     -0.189933
  C      -1.068265      0.577609      0.001737
  C      -0.734668     -1.822900     -0.038288
  C      -3.041712     -0.944126     -0.541750
  C       1.166844     -0.394796      0.488443
  H      -1.038726     -2.857208     -0.162811
  H       0.697383      1.598578      0.480256
  H       1.221551     -2.424786      0.401241
  H      -3.274026     -0.421964     -1.476386
  H      -3.678568     -0.499405      0.230702
  H      -3.308460     -1.999455     -0.652974
23
Coordinates from ORCA-job thiourea_thymine_opt_freq E -1002.018568174533
  S       1.781602      3.663380      0.923093
  N       3.875639      2.083182      1.493419
  N       4.243238      4.351327      1.654816
  C       3.377499      3.330434      1.383573
  H       4.861981      1.924807      1.645208
  H       3.301047      1.277959      1.234041
  H       3.851265      5.279936      1.690811
  H       5.106115      4.190507      2.155713
  O      -1.743245      1.593631     -0.109367
  O       2.360026     -0.271272      0.781327
  N       0.296735      0.657547      0.333108
  N       0.598042     -1.636193      0.286763
  C      -1.590922     -0.786801     -0.190464
  C      -1.070559      0.577657      0.001871
  C      -0.734115     -1.822366     -0.038574
  C      -3.041947     -0.946130     -0.542915
  C       1.165764     -0.391957      0.488747
  H      -1.037162     -2.856960     -0.163364
  H       0.693802      1.601110      0.481141
  H       1.222884     -2.421807      0.401133
  H      -3.274748     -0.423659     -1.477268
  H      -3.679773     -0.502961      0.229636
  H      -3.307168     -2.001769     -0.655048
