15
Coordinates from ORCA-job thymine_opt_freq E -453.917525113806
  O          -1.47615827120825      1.83047659758587      0.00023212298878
  O           2.84569543897881      0.29390188619292     -0.00013042876763
  N           0.66404533388117      1.03485839274061      0.00034190622479
  N           1.12634547559222     -1.22925401994355     -0.00013076477880
  C          -1.17581630737132     -0.54380672791706     -0.00000686110742
  C          -0.73239400922492      0.85690722079437      0.00028896466394
  C          -0.22678428269505     -1.51039808693287     -0.00024369358902
  C          -2.65256620215655     -0.81997598713849     -0.00014019076324
  C           1.64665402645118      0.05811712975886      0.00029160076727
  H          -0.47581840094624     -2.56681046501848     -0.00054930967417
  H           0.99576929946759      1.99335989182949      0.00033372980560
  H           1.81283569981355     -1.97075600798790     -0.00047117384988
  H          -3.13254398685496     -0.37463677632581     -0.87845899695531
  H          -3.13262467588538     -0.37502633535646      0.87833089708924
  H          -2.85173913784183     -1.89575671228150     -0.00038780205415
