15
Coordinates from ORCA-job thymine_opt_freq E -453.914711734801
  O      -1.519300      1.806700     -0.000900
  O       2.839400      0.291300     -0.000700
  N       0.664300      1.062300      0.001100
  N       1.114800     -1.231600     -0.000200
  C      -1.161200     -0.543200      0.000200
  C      -0.712900      0.880200      0.000400
  C      -0.226000     -1.501300     -0.000100
  C      -2.630000     -0.818900     -0.000100
  C       1.631000      0.054500      0.000300
  H      -0.478700     -2.555300     -0.000400
  H       1.001400      2.020900      0.001100
  H       1.756400     -2.019100     -0.000900
  H      -3.100400     -0.386000     -0.888900
  H      -3.100600     -0.386200      0.888700
  H      -2.843300     -1.893100     -0.000300
15
Coordinates from ORCA-job thymine_opt_freq E -453.916919594626
  O      -1.497322      1.813284     -0.000015
  O       2.841406      0.302062      0.000017
  N       0.663830      1.044658      0.000692
  N       1.129661     -1.227622     -0.000327
  C      -1.170624     -0.546683     -0.000130
  C      -0.721086      0.864103     -0.000255
  C      -0.224568     -1.509292     -0.000302
  C      -2.646261     -0.815798     -0.000093
  C       1.642018      0.055947     -0.000147
  H      -0.473345     -2.566412     -0.000363
  H       1.000440      2.001317      0.001100
  H       1.789068     -1.991371     -0.000629
  H      -3.120792     -0.376437     -0.884008
  H      -3.120737     -0.376274      0.883776
  H      -2.856787     -1.890281     -0.000016
15
Coordinates from ORCA-job thymine_opt_freq E -453.917444996010
  O      -1.480525      1.823201     -0.000492
  O       2.843693      0.304725     -0.000695
  N       0.662057      1.034215      0.000798
  N       1.132356     -1.226739      0.000014
  C      -1.176039     -0.547500      0.000263
  C      -0.729573      0.854969      0.001031
  C      -0.225734     -1.512813     -0.000058
  C      -2.653708     -0.816408     -0.000171
  C       1.647536      0.057354      0.000392
  H      -0.471431     -2.570065     -0.000524
  H       0.998197      1.991046      0.000236
  H       1.809486     -1.976234     -0.000657
  H      -3.131306     -0.371137     -0.879537
  H      -3.131662     -0.371869      0.879368
  H      -2.858447     -1.891545     -0.000668
15
Coordinates from ORCA-job thymine_opt_freq E -453.917503586893
  O      -1.477248      1.827801      0.001191
  O       2.844895      0.301101      0.000726
  N       0.662163      1.033550      0.000128
  N       1.129679     -1.227809     -0.000419
  C      -1.176361     -0.546283     -0.000480
  C      -0.732060      0.855049     -0.001118
  C      -0.226458     -1.512232     -0.000516
  C      -2.653665     -0.818196     -0.000091
  C       1.647752      0.057726     -0.000362
  H      -0.472237     -2.569302     -0.000383
  H       0.997398      1.990758      0.000984
  H       1.811726     -1.973046     -0.000360
  H      -3.132781     -0.372455     -0.878556
  H      -3.132471     -0.371819      0.878221
  H      -2.855433     -1.893644      0.000334
15
Coordinates from ORCA-job thymine_opt_freq E -453.917525777890
  O      -1.475777      1.831230     -0.001427
  O       2.845648      0.295784     -0.001524
  N       0.663021      1.034225      0.000930
  N       1.126445     -1.229071      0.000351
  C      -1.176003     -0.544426      0.000798
  C      -0.733385      0.856419      0.002942
  C      -0.226944     -1.510820      0.000323
  C      -2.652793     -0.820079     -0.000290
  C       1.647069      0.058026      0.000595
  H      -0.473938     -2.567609     -0.000545
  H       0.996654      1.992077     -0.000581
  H       1.812384     -1.971114     -0.000615
  H      -3.132338     -0.372781     -0.877895
  H      -3.133182     -0.374866      0.877905
  H      -2.851960     -1.895796     -0.001666
15
Coordinates from ORCA-job thymine_opt_freq E -453.917522566769
  O      -1.476126      1.831234      0.001284
  O       2.845651      0.293902      0.000618
  N       0.663680      1.034856      0.000034
  N       1.125771     -1.229375     -0.000374
  C      -1.175727     -0.543751     -0.000471
  C      -0.733012      0.857111     -0.001174
  C      -0.226907     -1.510229     -0.000529
  C      -2.652405     -0.820385     -0.000086
  C       1.646601      0.058097     -0.000018
  H      -0.474983     -2.566841     -0.000487
  H       0.996336      1.993067      0.000858
  H       1.812286     -1.970999     -0.000371
  H      -3.132661     -0.374977     -0.878268
  H      -3.132357     -0.374358      0.877951
  H      -2.851248     -1.896153      0.000331
15
Coordinates from ORCA-job thymine_opt_freq E -453.917530656721
  O      -1.476267      1.830651      0.000561
  O       2.845627      0.294131      0.000224
  N       0.663838      1.034846      0.000200
  N       1.126218     -1.229258     -0.000234
  C      -1.175782     -0.543845     -0.000162
  C      -0.732628      0.856971      0.000023
  C      -0.226817     -1.510355     -0.000293
  C      -2.652528     -0.820100     -0.000152
  C       1.646647      0.058096     -0.000215
  H      -0.475302     -2.566890     -0.000399
  H       0.996141      1.993158      0.000538
  H       1.812499     -1.970985     -0.000338
  H      -3.132558     -0.374579     -0.878368
  H      -3.132517     -0.374784      0.878190
  H      -2.851670     -1.895858     -0.000275
15
Coordinates from ORCA-job thymine_opt_freq E -453.917525113806
  O      -1.476158      1.830477      0.000232
  O       2.845695      0.293902     -0.000130
  N       0.664045      1.034858      0.000342
  N       1.126345     -1.229254     -0.000131
  C      -1.175816     -0.543807     -0.000007
  C      -0.732394      0.856907      0.000289
  C      -0.226784     -1.510398     -0.000244
  C      -2.652566     -0.819976     -0.000140
  C       1.646654      0.058117      0.000292
  H      -0.475818     -2.566810     -0.000549
  H       0.995769      1.993360      0.000334
  H       1.812836     -1.970756     -0.000471
  H      -3.132544     -0.374637     -0.878459
  H      -3.132625     -0.375026      0.878331
  H      -2.851739     -1.895757     -0.000388
