23
Coordinates from ORCA-job urea_thymine_opt_freq E -679.100377066705
  O           2.60179945692581      4.28789143447280      2.78274580453225
  N           3.61983327185174      2.24788885882275      2.48734543950769
  N           2.47029802206926      3.24956847431088      0.72531936585557
  C           2.89029838400091      3.33224557025190      2.07392765280945
  H           3.49483164383425      1.35645297248254      2.01126720142892
  H           3.80628992428372      2.21964310068762      3.47923633314061
  H           2.11783686246913      4.14549181378771      0.40626185901472
  H           3.16221414880461      2.86095322367616      0.09163674967694
  O          -1.23883620183035      1.77738171180981     -0.38687151440558
  O           2.69512932105989     -0.16672677279535      0.95691991433724
  N           0.70293469080006      0.79251003737490      0.30506219389389
  N           0.94762760237937     -1.50688519514367      0.33498493796133
  C          -1.15993885231138     -0.61130838589653     -0.37967373550483
  C          -0.62155796142903      0.74193077292160     -0.17236565539672
  C          -0.35061487042216     -1.66408662335398     -0.11776792609557
  C          -2.57209376707854     -0.74355845986872     -0.87359043109847
  C           1.53175135013785     -0.27445984850719      0.56200319808256
  H          -0.67080847880976     -2.69276932252891     -0.24792463440438
  H           1.11222885841732      1.72487473606338      0.45834308961382
  H           1.53782965100052     -2.30679562512029      0.51690114490882
  H          -2.69549909086097     -0.23932199151796     -1.83821172355931
  H          -3.27270983636139     -0.26661894403129     -0.17957942194705
  H          -2.85284412893090     -1.79469953789821     -0.98856984235193
