23
Coordinates from ORCA-job urea_thymine_opt_freq E -678.999239401763
  O       1.664888      3.907639      1.501100
  N       2.385320      1.722497      1.501100
  N       3.916536      3.434416      1.501100
  C       2.581078      3.088020      1.500700
  H       3.165065      1.073542      1.500800
  H       1.452035      1.324666      1.501100
  H       4.208132      4.406017      1.501200
  H       4.648046      2.731605      1.501000
  O      -1.519300      1.806700     -0.000900
  O       2.839400      0.291300     -0.000700
  N       0.664300      1.062300      0.001100
  N       1.114800     -1.231600     -0.000200
  C      -1.161200     -0.543200      0.000200
  C      -0.712900      0.880200      0.000400
  C      -0.226000     -1.501300     -0.000100
  C      -2.630000     -0.818900     -0.000100
  C       1.631000      0.054500      0.000300
  H      -0.478700     -2.555300     -0.000400
  H       1.001400      2.020900      0.001100
  H       1.756400     -2.019100     -0.000900
  H      -3.100400     -0.386000     -0.888900
  H      -3.100600     -0.386200      0.888700
  H      -2.843300     -1.893100     -0.000300
23
Coordinates from ORCA-job urea_thymine_opt_freq E -679.023758841504
  O       1.717234      3.952470      1.568494
  N       2.430200      1.776485      1.511102
  N       3.969400      3.492060      1.545966
  C       2.636788      3.132579      1.548522
  H       3.190734      1.121439      1.468541
  H       1.498698      1.384689      1.482912
  H       4.238868      4.464078      1.564702
  H       4.707916      2.804506      1.523171
  O      -1.521174      1.784467     -0.032311
  O       2.823427      0.250122     -0.036139
  N       0.648199      1.016974     -0.027236
  N       1.095000     -1.263337     -0.009894
  C      -1.195705     -0.571072     -0.009259
  C      -0.739307      0.842193     -0.024777
  C      -0.257465     -1.536714     -0.002040
  C      -2.669704     -0.835615     -0.003191
  C       1.615055      0.017260     -0.025435
  H      -0.511387     -2.591652      0.008474
  H       1.001684      1.972839     -0.032398
  H       1.743674     -2.039638     -0.006908
  H      -3.142065     -0.406797     -0.893130
  H      -3.137853     -0.388761      0.880081
  H      -2.886216     -1.908971      0.008153
23
Coordinates from ORCA-job urea_thymine_opt_freq E -679.041148978216
  O       1.745165      3.976868      1.652909
  N       2.476239      1.817969      1.508735
  N       3.998288      3.556504      1.594472
  C       2.675122      3.167554      1.596600
  H       3.227717      1.157854      1.414327
  H       1.547919      1.425985      1.459608
  H       4.227285      4.535637      1.646295
  H       4.756613      2.895024      1.539162
  O      -1.501058      1.774582     -0.072061
  O       2.811309      0.192399     -0.081027
  N       0.646195      0.968561     -0.063243
  N       1.071922     -1.304843     -0.018740
  C      -1.221717     -0.591211     -0.015223
  C      -0.753135      0.809522     -0.053165
  C      -0.289196     -1.569910      0.001437
  C      -2.700995     -0.837621      0.001357
  C       1.604580     -0.031637     -0.057115
  H      -0.550680     -2.622787      0.027887
  H       1.020083      1.915898     -0.080635
  H       1.726480     -2.074756     -0.010892
  H      -3.175137     -0.413219     -0.889812
  H      -3.162393     -0.369858      0.877386
  H      -2.924603     -1.908912      0.029137
23
Coordinates from ORCA-job urea_thymine_opt_freq E -679.058371184991
  O       1.796313      4.022819      1.778755
  N       2.539857      1.881311      1.499591
  N       4.045424      3.637273      1.662373
  C       2.730892      3.225170      1.660900
  H       3.277555      1.215609      1.326983
  H       1.608774      1.498955      1.432986
  H       4.232373      4.621379      1.769101
  H       4.822725      3.003726      1.559032
  O      -1.491317      1.756635     -0.134677
  O       2.789825      0.111538     -0.141637
  N       0.635300      0.911354     -0.112504
  N       1.032281     -1.363196     -0.027244
  C      -1.252424     -0.619319     -0.024015
  C      -0.774399      0.770483     -0.094670
  C      -0.331353     -1.610773      0.008395
  C      -2.735460     -0.849720      0.005560
  C       1.581941     -0.096474     -0.098741
  H      -0.603743     -2.659506      0.058241
  H       1.026611      1.849898     -0.147739
  H       1.691383     -2.130106     -0.011984
  H      -3.211622     -0.435144     -0.889253
  H      -3.189058     -0.354050      0.870348
  H      -2.965878     -1.918257      0.057601
23
Coordinates from ORCA-job urea_thymine_opt_freq E -679.071727074992
  O       1.845500      4.052522      1.954242
  N       2.614812      1.950617      1.487429
  N       4.090926      3.728416      1.727885
  C       2.786508      3.286848      1.737366
  H       3.333392      1.296913      1.207896
  H       1.680745      1.577123      1.430239
  H       4.236383      4.708713      1.907278
  H       4.884566      3.132869      1.554343
  O      -1.481471      1.732604     -0.217828
  O       2.767827      0.011593     -0.202525
  N       0.627279      0.848669     -0.167079
  N       0.987477     -1.430956     -0.032123
  C      -1.281817     -0.647375     -0.034355
  C      -0.789043      0.730954     -0.145219
  C      -0.376663     -1.652627      0.018122
  C      -2.768766     -0.858958      0.008746
  C       1.556943     -0.173286     -0.141144
  H      -0.666175     -2.695156      0.096360
  H       1.031260      1.780099     -0.232456
  H       1.644721     -2.198960     -0.007110
  H      -3.244998     -0.458137     -0.892541
  H      -3.212549     -0.330288      0.859219
  H      -3.010856     -1.922598      0.090655
23
Coordinates from ORCA-job urea_thymine_opt_freq E -679.079236059012
  O       1.898903      4.068647      2.119821
  N       2.680668      2.015715      1.483331
  N       4.136500      3.805377      1.769791
  C       2.840270      3.340194      1.810261
  H       3.375367      1.382369      1.105538
  H       1.740119      1.653107      1.456439
  H       4.264490      4.776550      2.006181
  H       4.933817      3.239767      1.527178
  O      -1.483949      1.703131     -0.288926
  O       2.746445     -0.069343     -0.236842
  N       0.615518      0.798124     -0.204682
  N       0.949823     -1.484732     -0.032964
  C      -1.308386     -0.673884     -0.047323
  C      -0.801517      0.696150     -0.189883
  C      -0.414712     -1.687621      0.022620
  C      -2.797591     -0.871660      0.002710
  C       1.532283     -0.234690     -0.166394
  H      -0.718493     -2.724488      0.121893
  H       1.020320      1.726465     -0.295676
  H       1.602569     -2.256400      0.000996
  H      -3.271391     -0.484112     -0.905782
  H      -3.234942     -0.318506      0.840994
  H      -3.050112     -1.930559      0.108119
23
Coordinates from ORCA-job urea_thymine_opt_freq E -679.083552038058
  O       1.954582      4.064856      2.283101
  N       2.741143      2.071470      1.488298
  N       4.174016      3.879394      1.785107
  C       2.891322      3.383024      1.874980
  H       3.408509      1.469264      1.021397
  H       1.799829      1.710932      1.514701
  H       4.297937      4.838630      2.066744
  H       4.966938      3.342850      1.473765
  O      -1.486477      1.673480     -0.345217
  O       2.727357     -0.136707     -0.249873
  N       0.604753      0.753810     -0.225584
  N       0.917736     -1.529989     -0.030674
  C      -1.333674     -0.698446     -0.060694
  C      -0.810276      0.664470     -0.219956
  C      -0.449319     -1.719486      0.023388
  C      -2.824654     -0.881670     -0.013306
  C       1.510940     -0.287399     -0.177866
  H      -0.765560     -2.751575      0.134919
  H       1.006969      1.680691     -0.339178
  H       1.563168     -2.306927      0.010577
  H      -3.291419     -0.501641     -0.928629
  H      -3.259127     -0.313110      0.816143
  H      -3.088693     -1.936318      0.105256
23
Coordinates from ORCA-job urea_thymine_opt_freq E -679.085969033765
  O       2.018330      4.053436      2.434717
  N       2.795160      2.114790      1.510555
  N       4.202359      3.949141      1.774015
  C       2.942284      3.415605      1.937174
  H       3.435057      1.549464      0.967514
  H       1.860657      1.746912      1.602293
  H       4.332066      4.900109      2.080113
  H       4.983566      3.436798      1.398292
  O      -1.490725      1.648338     -0.378034
  O       2.710204     -0.188670     -0.240725
  N       0.593086      0.717442     -0.233156
  N       0.889365     -1.566963     -0.028833
  C      -1.357251     -0.721088     -0.077830
  C      -0.818831      0.636270     -0.246053
  C      -0.480444     -1.747868      0.016550
  C      -2.849317     -0.890788     -0.038026
  C       1.492166     -0.330027     -0.176513
  H      -0.805632     -2.776690      0.132051
  H       0.992085      1.643735     -0.358312
  H       1.526361     -2.350460      0.018909
  H      -3.307104     -0.515094     -0.959595
  H      -3.283517     -0.312725      0.784943
  H      -3.123925     -1.942066      0.087354
23
Coordinates from ORCA-job urea_thymine_opt_freq E -679.087340594431
  O       2.102031      4.043981      2.579840
  N       2.846541      2.151455      1.543825
  N       4.227110      4.015252      1.739816
  C       2.997827      3.446160      1.988934
  H       3.456010      1.624898      0.934363
  H       1.929669      1.766532      1.709249
  H       4.371470      4.957924      2.063190
  H       4.989842      3.520829      1.306577
  O      -1.501309      1.624920     -0.401576
  O       2.690784     -0.224889     -0.216239
  N       0.576247      0.688725     -0.224579
  N       0.862543     -1.595641     -0.021757
  C      -1.381976     -0.743361     -0.094005
  C      -0.833415      0.612653     -0.246611
  C      -0.509576     -1.773430      0.007918
  C      -2.874773     -0.904869     -0.075338
  C       1.472167     -0.362122     -0.162765
  H      -0.838828     -2.801687      0.116789
  H       0.973171      1.614963     -0.355431
  H       1.492442     -2.384310      0.030231
  H      -3.318363     -0.523177     -1.001321
  H      -3.316928     -0.329770      0.745393
  H      -3.156685     -1.955436      0.040897
23
Coordinates from ORCA-job urea_thymine_opt_freq E -679.088206619269
  O       2.194290      4.044336      2.708733
  N       2.892264      2.180368      1.592277
  N       4.241306      4.074916      1.692282
  C       3.052929      3.473306      2.040098
  H       3.470185      1.690900      0.925882
  H       2.000914      1.773435      1.827242
  H       4.403902      5.012375      2.021741
  H       4.983962      3.589974      1.215094
  O      -1.513417      1.608105     -0.400478
  O       2.672820     -0.252622     -0.176338
  N       0.559037      0.664089     -0.219742
  N       0.838134     -1.620290     -0.021697
  C      -1.404171     -0.763879     -0.118473
  C      -0.848634      0.589565     -0.271171
  C      -0.535333     -1.796318     -0.010497
  C      -2.897487     -0.918453     -0.111470
  C       1.453748     -0.388174     -0.146102
  H      -0.866241     -2.824596      0.092509
  H       0.956538      1.591570     -0.337687
  H       1.462115     -2.413140      0.037617
  H      -3.332144     -0.537394     -1.041860
  H      -3.344029     -0.340714      0.704983
  H      -3.184689     -1.967756      0.004457
23
Coordinates from ORCA-job urea_thymine_opt_freq E -679.088910404068
  O       2.315462      4.062800      2.828222
  N       2.941657      2.210745      1.649285
  N       4.258525      4.129612      1.626234
  C       3.120153      3.505659      2.084084
  H       3.479371      1.753366      0.929800
  H       2.084505      1.779368      1.955290
  H       4.449287      5.059787      1.961184
  H       4.979306      3.643383      1.117325
  O      -1.539535      1.588782     -0.399875
  O       2.647223     -0.264636     -0.126462
  N       0.530969      0.647123     -0.195007
  N       0.812806     -1.637176     -0.013923
  C      -1.430371     -0.786389     -0.139291
  C      -0.876307      0.571033     -0.255341
  C      -0.560392     -1.817546     -0.028334
  C      -2.923226     -0.944115     -0.163654
  C       1.428585     -0.402927     -0.116656
  H      -0.887538     -2.848762      0.055444
  H       0.927970      1.576590     -0.296134
  H       1.435443     -2.430893      0.047815
  H      -3.341539     -0.548318     -1.095381
  H      -3.386821     -0.381827      0.654032
  H      -3.209533     -1.996057     -0.071258
23
Coordinates from ORCA-job urea_thymine_opt_freq E -679.089517570494
  O       2.455493      4.104544      2.930888
  N       2.988389      2.247103      1.711241
  N       4.275825      4.177780      1.550209
  C       3.190745      3.546928      2.118153
  H       3.478303      1.811332      0.946067
  H       2.171805      1.792344      2.084808
  H       4.508497      5.092756      1.900550
  H       4.981768      3.675129      1.036071
  O      -1.577352      1.568794     -0.382952
  O       2.615930     -0.264330     -0.065632
  N       0.495002      0.633924     -0.170213
  N       0.788225     -1.649554     -0.009708
  C      -1.457773     -0.811040     -0.165334
  C      -0.911943      0.551189     -0.249459
  C      -0.583126     -1.838204     -0.052479
  C      -2.949283     -0.978059     -0.218587
  C       1.398504     -0.409851     -0.083565
  H      -0.903008     -2.873213      0.010667
  H       0.890690      1.566832     -0.239536
  H       1.414309     -2.440126      0.055677
  H      -3.354171     -0.570169     -1.151055
  H      -3.431173     -0.431296      0.599075
  H      -3.229657     -2.033212     -0.147485
23
Coordinates from ORCA-job urea_thymine_opt_freq E -679.090127179613
  O       2.613715      4.175926      3.007825
  N       3.035637      2.289282      1.783738
  N       4.290344      4.218354      1.453166
  C       3.271923      3.595064      2.147427
  H       3.466796      1.859940      0.979628
  H       2.262381      1.816577      2.223278
  H       4.577310      5.110283      1.824984
  H       4.996431      3.681679      0.973030
  O      -1.628895      1.546800     -0.347528
  O       2.576822     -0.251068      0.009102
  N       0.450473      0.626892     -0.135639
  N       0.764071     -1.657398     -0.009475
  C      -1.485892     -0.837604     -0.194365
  C      -0.956069      0.532018     -0.234524
  C      -0.603039     -1.858104     -0.085171
  C      -2.974484     -1.021030     -0.280473
  C       1.361896     -0.408850     -0.043533
  H      -0.912417     -2.897675     -0.050768
  H       0.838439      1.563944     -0.160129
  H       1.398855     -2.441000      0.056943
  H      -3.366481     -0.595170     -1.210461
  H      -3.478638     -0.498573      0.539726
  H      -3.243180     -2.080686     -0.239382
23
Coordinates from ORCA-job urea_thymine_opt_freq E -679.090459080078
  O       2.755205      4.255227      3.045316
  N       3.069560      2.335805      1.836536
  N       4.319194      4.241926      1.372206
  C       3.342446      3.644307      2.156218
  H       3.446480      1.891027      1.013012
  H       2.328278      1.862534      2.325749
  H       4.657844      5.105658      1.771481
  H       5.035745      3.664166      0.955650
  O      -1.689234      1.522179     -0.307361
  O       2.535992     -0.224124      0.076977
  N       0.401593      0.626039     -0.100057
  N       0.745842     -1.656251     -0.012252
  C      -1.511748     -0.863414     -0.218947
  C      -1.003322      0.514231     -0.217302
  C      -0.616171     -1.873743     -0.116947
  C      -2.995996     -1.068392     -0.333693
  C       1.324414     -0.397793     -0.006239
  H      -0.912273     -2.917767     -0.111161
  H       0.778079      1.568611     -0.082663
  H       1.393802     -2.429089      0.052390
  H      -3.379692     -0.625899     -1.259412
  H      -3.521651     -0.572967      0.489860
  H      -3.248386     -2.132670     -0.321961
23
Coordinates from ORCA-job urea_thymine_opt_freq E -679.090638383564
  O       2.775662      4.275716      3.038636
  N       3.072037      2.345196      1.844834
  N       4.340739      4.236749      1.362180
  C       3.357751      3.652215      2.155798
  H       3.438344      1.881239      1.026513
  H       2.327135      1.884633      2.341077
  H       4.677888      5.108875      1.747571
  H       5.059664      3.648522      0.961515
  O      -1.708282      1.515688     -0.291211
  O       2.526052     -0.210931      0.094741
  N       0.387568      0.629989     -0.085412
  N       0.744364     -1.651203     -0.015427
  C      -1.516795     -0.869040     -0.223076
  C      -1.015624      0.511579     -0.208380
  C      -0.615979     -1.875184     -0.126706
  C      -2.999218     -1.081744     -0.344649
  C       1.315197     -0.389614      0.004438
  H      -0.908117     -2.920303     -0.130920
  H       0.758398      1.574969     -0.060192
  H       1.397489     -2.420082      0.045627
  H      -3.382024     -0.633537     -1.267978
  H      -3.530512     -0.596674      0.481447
  H      -3.245737     -2.147456     -0.343026
23
Coordinates from ORCA-job urea_thymine_opt_freq E -679.091012803722
  O       2.845115      4.339966      3.017418
  N       3.077596      2.374473      1.872570
  N       4.398710      4.213646      1.325755
  C       3.401631      3.677709      2.148392
  H       3.406877      1.854951      1.071598
  H       2.329910      1.954338      2.401195
  H       4.743342      5.102174      1.665532
  H       5.113441      3.591940      0.969025
  O      -1.766677      1.494803     -0.238201
  O       2.494611     -0.165931      0.155815
  N       0.343935      0.643346     -0.033317
  N       0.742126     -1.632323     -0.024070
  C      -1.530414     -0.885656     -0.236058
  C      -1.053033      0.503439     -0.175961
  C      -0.612444     -1.877701     -0.158096
  C      -3.006540     -1.121364     -0.381712
  C       1.287790     -0.362066      0.041498
  H      -0.889703     -2.926136     -0.196132
  H       0.695973      1.594919      0.015775
  H       1.410136     -2.389282      0.025313
  H      -3.386072     -0.652987     -1.296300
  H      -3.556141     -0.671852      0.452456
  H      -3.234168     -2.190803     -0.415096
23
Coordinates from ORCA-job urea_thymine_opt_freq E -679.091273939220
  O       2.924903      4.402149      3.000518
  N       3.084523      2.399307      1.911500
  N       4.435077      4.186309      1.274636
  C       3.445867      3.700359      2.140965
  H       3.371586      1.835818      1.123734
  H       2.348873      2.015745      2.483642
  H       4.800108      5.083235      1.568771
  H       5.137266      3.534145      0.947721
  O      -1.821275      1.474324     -0.182176
  O       2.463049     -0.121698      0.226648
  N       0.301949      0.655536      0.025791
  N       0.741179     -1.612031     -0.029251
  C      -1.541249     -0.899739     -0.250690
  C      -1.088596      0.495434     -0.140160
  C      -0.606711     -1.877371     -0.190436
  C      -3.010422     -1.155793     -0.425119
  C       1.261977     -0.335445      0.085313
  H      -0.866482     -2.928262     -0.265413
  H       0.635903      1.611994      0.103322
  H       1.421873     -2.358333      0.008978
  H      -3.385132     -0.664404     -1.329516
  H      -3.579339     -0.744381      0.415688
  H      -3.218927     -2.227295     -0.497067
23
Coordinates from ORCA-job urea_thymine_opt_freq E -679.091787512208
  O       3.051834      4.495714      2.958889
  N       3.083135      2.430052      1.983887
  N       4.469570      4.116587      1.180896
  C       3.504850      3.725509      2.118688
  H       3.297039      1.797675      1.224639
  H       2.380731      2.114945      2.634785
  H       4.876812      5.020304      1.383381
  H       5.131921      3.414313      0.875764
  O      -1.905745      1.441695     -0.079665
  O       2.414263     -0.042341      0.355613
  N       0.236677      0.678390      0.137993
  N       0.749117     -1.567667     -0.033920
  C      -1.549050     -0.914453     -0.273498
  C      -1.141753      0.485651     -0.072557
  C      -0.585706     -1.865128     -0.244469
  C      -3.004740     -1.201935     -0.500231
  C       1.225563     -0.285595      0.167562
  H      -0.810922     -2.917106     -0.386013
  H       0.539063      1.639864      0.268017
  H       1.449970     -2.295830     -0.016553
  H      -3.372418     -0.668465     -1.383321
  H      -3.605726     -0.859750      0.349136
  H      -3.178484     -2.272825     -0.641622
23
Coordinates from ORCA-job urea_thymine_opt_freq E -679.092281825172
  O       3.127458      4.544719      2.922760
  N       3.074094      2.436649      2.042551
  N       4.453623      4.054862      1.105730
  C       3.527974      3.728245      2.097824
  H       3.240306      1.767775      1.302363
  H       2.407198      2.167297      2.748921
  H       4.894207      4.954243      1.241572
  H       5.073250      3.322109      0.785874
  O      -1.946276      1.426491     -0.006960
  O       2.391302      0.005106      0.448445
  N       0.205013      0.693424      0.221713
  N       0.762390     -1.533907     -0.030669
  C      -1.543217     -0.913721     -0.286807
  C      -1.165721      0.484096     -0.022529
  C      -0.563046     -1.847274     -0.277508
  C      -2.989303     -1.216255     -0.552502
  C       1.211639     -0.253190      0.229842
  H      -0.763483     -2.897038     -0.465221
  H       0.487815      1.654218      0.392112
  H       1.473812     -2.251894     -0.028175
  H      -3.350753     -0.652755     -1.419325
  H      -3.611595     -0.920370      0.298895
  H      -3.140688     -2.283229     -0.741505
23
Coordinates from ORCA-job urea_thymine_opt_freq E -679.092796910442
  O       3.194910      4.580512      2.884622
  N       3.060677      2.430792      2.114960
  N       4.389827      3.986508      1.017305
  C       3.531193      3.719504      2.073782
  H       3.182350      1.736983      1.388875
  H       2.441359      2.201779      2.876039
  H       4.867233      4.873079      1.090920
  H       4.951208      3.228327      0.655254
  O      -1.961044      1.422608      0.063391
  O       2.383860      0.033444      0.541945
  N       0.193214      0.704156      0.305051
  N       0.781641     -1.504778     -0.021810
  C      -1.526169     -0.901605     -0.298959
  C      -1.172276      0.488387      0.025636
  C      -0.535389     -1.823568     -0.306094
  C      -2.963887     -1.209844     -0.603894
  C       1.211613     -0.230007      0.294189
  H      -0.714101     -2.868675     -0.536866
  H       0.461156      1.659205      0.521468
  H       1.499022     -2.216637     -0.033380
  H      -3.316386     -0.617047     -1.454748
  H      -3.605733     -0.953026      0.245765
  H      -3.098276     -2.270495     -0.836050
23
Coordinates from ORCA-job urea_thymine_opt_freq E -679.093175476478
  O       3.277891      4.614917      2.851645
  N       3.052867      2.436885      2.185790
  N       4.324303      3.922508      0.932457
  C       3.540383      3.713938      2.056328
  H       3.118791      1.715953      1.475891
  H       2.482115      2.248990      2.994112
  H       4.831323      4.795458      0.946406
  H       4.834363      3.139659      0.547797
  O      -1.975383      1.414782      0.128979
  O       2.374113      0.053512      0.628007
  N       0.182155      0.708373      0.377081
  N       0.798307     -1.481396     -0.016994
  C      -1.510741     -0.890865     -0.311923
  C      -1.177980      0.489620      0.068077
  C      -0.510557     -1.802417     -0.334887
  C      -2.940176     -1.203188     -0.651422
  C       1.209022     -0.214183      0.350473
  H      -0.672070     -2.840891     -0.604902
  H       0.437414      1.656154      0.638590
  H       1.522930     -2.185545     -0.041100
  H      -3.285579     -0.584110     -1.486362
  H      -3.598448     -0.982212      0.195782
  H      -3.059043     -2.256340     -0.922426
23
Coordinates from ORCA-job urea_thymine_opt_freq E -679.093778605267
  O       3.381610      4.648448      2.787715
  N       3.038258      2.434748      2.304706
  N       4.160331      3.810809      0.804662
  C       3.522933      3.690073      2.029161
  H       3.022512      1.676936      1.626037
  H       2.547086      2.310857      3.174762
  H       4.696053      4.661547      0.711292
  H       4.567516      2.994908      0.369605
  O      -1.954964      1.421926      0.217731
  O       2.388709      0.048054      0.746396
  N       0.200143      0.710379      0.476345
  N       0.833393     -1.456383     -0.007864
  C      -1.470250     -0.858269     -0.327221
  C      -1.154681      0.502686      0.126421
  C      -0.466311     -1.764400     -0.371361
  C      -2.890230     -1.162004     -0.713360
  C       1.229187     -0.206724      0.429349
  H      -0.613575     -2.789926     -0.693681
  H       0.442014      1.641236      0.800038
  H       1.562314     -2.155332     -0.050892
  H      -3.220679     -0.507057     -1.526834
  H      -3.568298     -0.980501      0.127619
  H      -2.997071     -2.202410     -1.033227
23
Coordinates from ORCA-job urea_thymine_opt_freq E -679.083820592175
  O       3.862246      4.692329      2.410332
  N       3.032832      2.520930      2.632878
  N       3.603210      3.358019      0.475206
  C       3.531188      3.592304      1.897573
  H       2.714845      1.612312      2.115855
  H       2.890255      2.677243      3.658098
  H       4.199791      4.052718     -0.003016
  H       3.680941      2.404225      0.101875
  O      -1.999499      1.361901      0.546102
  O       2.360082      0.134896      1.151993
  N       0.179315      0.719692      0.806520
  N       0.962481     -1.304951     -0.002623
  C      -1.347039     -0.760269     -0.382481
  C      -1.141218      0.514742      0.336534
  C      -0.291617     -1.601520     -0.514838
  C      -2.718493     -1.061659     -0.923374
  C       1.243222     -0.133527      0.683019
  H      -0.361694     -2.561435     -1.027643
  H       0.352758      1.585781      1.331923
  H       1.737517     -1.946936     -0.110074
  H      -3.030337     -0.286848     -1.636782
  H      -3.461132     -1.062844     -0.111952
  H      -2.743653     -2.037502     -1.427724
23
Coordinates from ORCA-job urea_thymine_opt_freq E -679.093246273824
  O       3.770027      4.680201      2.518070
  N       3.071348      2.477675      2.593670
  N       3.629023      3.467487      0.530380
  C       3.521778      3.606565      1.942041
  H       2.795543      1.621803      2.087717
  H       2.897588      2.542792      3.586500
  H       4.187791      4.211012      0.109740
  H       3.789621      2.546351      0.125176
  O      -1.957155      1.407093      0.419759
  O       2.389454      0.072337      1.057685
  N       0.205803      0.732182      0.712021
  N       0.934758     -1.349582      0.018442
  C      -1.364056     -0.775824     -0.375251
  C      -1.120463      0.529390      0.261925
  C      -0.330516     -1.644772     -0.465289
  C      -2.746911     -1.070277     -0.886221
  C       1.258771     -0.154805      0.634607
  H      -0.426887     -2.627743     -0.919484
  H       0.388761      1.624644      1.161469
  H       1.689177     -2.018412     -0.060882
  H      -3.045432     -0.332500     -1.640617
  H      -3.480985     -1.005686     -0.073207
  H      -2.801036     -2.070331     -1.330850
23
Coordinates from ORCA-job urea_thymine_opt_freq E -679.094539418805
  O       3.816569      4.661454      2.458649
  N       3.072347      2.511144      2.589525
  N       3.643665      3.425410      0.549638
  C       3.543016      3.599869      1.922052
  H       2.792225      1.659709      2.116531
  H       2.939789      2.613016      3.576909
  H       4.203884      4.130233      0.105117
  H       3.787371      2.491851      0.197746
  O      -2.004991      1.367305      0.455820
  O       2.365678      0.129142      1.073328
  N       0.169363      0.726588      0.734054
  N       0.939787     -1.318799      0.001563
  C      -1.369791     -0.780373     -0.380840
  C      -1.150671      0.511650      0.281579
  C      -0.319281     -1.627032     -0.486863
  C      -2.746759     -1.083609     -0.896663
  C       1.239660     -0.132991      0.636367
  H      -0.397320     -2.598609     -0.958589
  H       0.349161      1.615124      1.200581
  H       1.704306     -1.973543     -0.088195
  H      -3.058663     -0.336162     -1.632519
  H      -3.480141     -1.051286     -0.085806
  H      -2.783205     -2.070490     -1.362584
23
Coordinates from ORCA-job urea_thymine_opt_freq E -679.095086914529
  O       3.783196      4.678208      2.470765
  N       3.086447      2.498344      2.604883
  N       3.599250      3.442411      0.547219
  C       3.519224      3.608211      1.928826
  H       2.818515      1.645074      2.127202
  H       2.960559      2.586170      3.599143
  H       4.139736      4.165349      0.092976
  H       3.741585      2.511554      0.176875
  O      -1.962724      1.395693      0.427191
  O       2.386633      0.079934      1.063994
  N       0.200596      0.722955      0.719479
  N       0.936934     -1.346318      0.012327
  C      -1.362207     -0.775041     -0.380927
  C      -1.122871      0.522619      0.265922
  C      -0.326013     -1.640042     -0.474536
  C      -2.743319     -1.063636     -0.896047
  C       1.257468     -0.156684      0.632893
  H      -0.418871     -2.618055     -0.934670
  H       0.386426      1.613339      1.170708
  H       1.691018     -2.014664     -0.068331
  H      -3.042119     -0.320281     -1.642856
  H      -3.478452     -1.008059     -0.086127
  H      -2.795010     -2.057477     -1.349506
23
Coordinates from ORCA-job urea_thymine_opt_freq E -679.095174682624
  O       3.802317      4.693474      2.468875
  N       3.105102      2.511624      2.613479
  N       3.612062      3.447013      0.548028
  C       3.538482      3.619818      1.930050
  H       2.839653      1.647020      2.139492
  H       2.999151      2.601739      3.614014
  H       4.145869      4.172485      0.087376
  H       3.772983      2.513285      0.190173
  O      -1.984265      1.383691      0.428580
  O       2.367431      0.091571      1.072691
  N       0.181461      0.718258      0.722675
  N       0.929406     -1.345397      0.009924
  C      -1.372211     -0.782564     -0.385790
  C      -1.139972      0.514668      0.266585
  C      -0.331500     -1.642969     -0.480425
  C      -2.750860     -1.074962     -0.905325
  C       1.241411     -0.156246      0.635333
  H      -0.420078     -2.619756     -0.945056
  H       0.369818      1.610082      1.175529
  H       1.686837     -2.010214     -0.068849
  H      -3.052012     -0.328579     -1.648469
  H      -3.488329     -1.027716     -0.096550
  H      -2.796757     -2.066724     -1.364941
23
Coordinates from ORCA-job urea_thymine_opt_freq E -679.095376702694
  O       3.785943      4.709767      2.468610
  N       3.124350      2.516861      2.627432
  N       3.607079      3.446575      0.554439
  C       3.538691      3.629184      1.933804
  H       2.864870      1.645860      2.169922
  H       3.042238      2.604149      3.629378
  H       4.106436      4.184433      0.074559
  H       3.781169      2.510915      0.206607
  O      -1.979723      1.387761      0.412806
  O       2.369486      0.079434      1.061550
  N       0.183197      0.716207      0.715579
  N       0.924119     -1.353564      0.008865
  C      -1.375242     -0.785221     -0.388348
  C      -1.137678      0.514741      0.258276
  C      -0.337479     -1.649318     -0.479342
  C      -2.754644     -1.073688     -0.907679
  C       1.241943     -0.162207      0.629067
  H      -0.431569     -2.627550     -0.940859
  H       0.373275      1.613149      1.154945
  H       1.679395     -2.021478     -0.064537
  H      -3.053089     -0.327453     -1.652336
  H      -3.492857     -1.022572     -0.099389
  H      -2.803914     -2.066384     -1.365949
23
Coordinates from ORCA-job urea_thymine_opt_freq E -679.095583624955
  O       3.719411      4.717197      2.418921
  N       3.150551      2.509787      2.664681
  N       3.509159      3.395970      0.553489
  C       3.491207      3.615854      1.923258
  H       2.927610      1.624879      2.223140
  H       3.121411      2.615209      3.669116
  H       3.940820      4.137650      0.021841
  H       3.658691      2.454725      0.215227
  O      -1.932351      1.419260      0.394128
  O       2.399438      0.048196      1.066539
  N       0.217915      0.717599      0.718326
  N       0.934515     -1.362424      0.017885
  C      -1.354884     -0.765710     -0.390824
  C      -1.102953      0.532970      0.250715
  C      -0.328271     -1.643179     -0.474369
  C      -2.735256     -1.037277     -0.916521
  C       1.266900     -0.173368      0.636044
  H      -0.433839     -2.620835     -0.933659
  H       0.416047      1.614952      1.147224
  H       1.682555     -2.038935     -0.048609
  H      -3.020421     -0.289166     -1.664216
  H      -3.477081     -0.973633     -0.112818
  H      -2.795174     -2.030119     -1.372118
23
Coordinates from ORCA-job urea_thymine_opt_freq E -679.095883561083
  O       3.621907      4.728517      2.339988
  N       3.172293      2.515413      2.709831
  N       3.433116      3.302392      0.550886
  C       3.437754      3.595639      1.905119
  H       3.005239      1.588842      2.329254
  H       3.201113      2.658199      3.706534
  H       3.783740      4.040271     -0.038333
  H       3.602670      2.351229      0.258375
  O      -1.909917      1.438843      0.393496
  O       2.423911      0.052195      1.054966
  N       0.237321      0.730834      0.722549
  N       0.949855     -1.345386      0.008339
  C      -1.338650     -0.745111     -0.394076
  C      -1.083180      0.550535      0.250253
  C      -0.313192     -1.623545     -0.482285
  C      -2.719564     -1.011718     -0.920402
  C       1.286654     -0.158553      0.631566
  H      -0.424377     -2.597717     -0.946417
  H       0.435894      1.630278      1.146028
  H       1.699673     -2.019886     -0.056729
  H      -3.004403     -0.258232     -1.662425
  H      -3.461066     -0.952592     -0.116530
  H      -2.780792     -2.000847     -1.382586
23
Coordinates from ORCA-job urea_thymine_opt_freq E -679.096259177649
  O       3.564238      4.706957      2.216011
  N       3.185505      2.518137      2.759742
  N       3.271617      3.164542      0.541962
  C       3.374417      3.545146      1.872566
  H       3.021419      1.561205      2.458785
  H       3.284004      2.717126      3.740125
  H       3.569834      3.867334     -0.114367
  H       3.418650      2.197394      0.293843
  O      -1.869056      1.468012      0.414693
  O       2.463667      0.067079      1.059431
  N       0.276753      0.753795      0.735450
  N       0.986200     -1.313385     -0.000871
  C      -1.301235     -0.707586     -0.397425
  C      -1.044651      0.579787      0.260214
  C      -0.276344     -1.586309     -0.494664
  C      -2.682377     -0.968137     -0.926378
  C       1.324880     -0.132640      0.635249
  H      -0.388826     -2.555080     -0.968721
  H       0.473757      1.647957      1.174604
  H       1.737541     -1.985683     -0.071935
  H      -2.966445     -0.206970     -1.660536
  H      -3.423425     -0.916949     -0.121934
  H      -2.744124     -1.952130     -1.398446
23
Coordinates from ORCA-job urea_thymine_opt_freq E -679.095725863609
  O       3.413893      4.664866      2.031266
  N       3.226891      2.524406      2.823824
  N       3.019264      2.950370      0.558445
  C       3.256029      3.465102      1.828150
  H       3.151595      1.528146      2.604177
  H       3.433986      2.824013      3.772316
  H       3.225622      3.595507     -0.189534
  H       3.170799      1.965369      0.383555
  O      -1.808066      1.519914      0.431847
  O       2.511452      0.101420      1.078010
  N       0.333715      0.789913      0.744032
  N       1.034618     -1.270991     -0.010488
  C      -1.248872     -0.650442     -0.405953
  C      -0.988679      0.628896      0.265594
  C      -0.227135     -1.533774     -0.510319
  C      -2.630399     -0.901350     -0.938843
  C       1.373805     -0.096760      0.638924
  H      -0.341794     -2.497946     -0.993652
  H       0.541981      1.676638      1.203177
  H       1.784651     -1.944845     -0.086551
  H      -2.910611     -0.132212     -1.666314
  H      -3.371611     -0.855709     -0.133988
  H      -2.695133     -1.880929     -1.420272
23
Coordinates from ORCA-job urea_thymine_opt_freq E -679.096550580026
  O       3.539650      4.701436      2.172235
  N       3.218714      2.517234      2.788967
  N       3.145463      3.126629      0.548484
  C       3.337152      3.528084      1.867968
  H       3.098437      1.556038      2.506978
  H       3.374196      2.744533      3.758330
  H       3.440556      3.816622     -0.129068
  H       3.308840      2.156818      0.304863
  O      -1.839495      1.490337      0.402145
  O       2.467485      0.066613      1.083636
  N       0.299531      0.758069      0.724753
  N       0.994782     -1.318874      0.005553
  C      -1.285878     -0.693433     -0.406756
  C      -1.022025      0.594693      0.248434
  C      -0.267693     -1.582760     -0.495373
  C      -2.667574     -0.945727     -0.938873
  C       1.336040     -0.138016      0.638765
  H      -0.383061     -2.554483     -0.964477
  H       0.510729      1.649629      1.172787
  H       1.739005     -1.999937     -0.061270
  H      -2.942772     -0.186327     -1.678753
  H      -3.410295     -0.884992     -0.135922
  H      -2.735789     -1.932584     -1.406004
23
Coordinates from ORCA-job urea_thymine_opt_freq E -679.096634219628
  O       3.543146      4.694838      2.172872
  N       3.215923      2.514666      2.793183
  N       3.139397      3.118248      0.554302
  C       3.336035      3.522868      1.869024
  H       3.079419      1.547341      2.523522
  H       3.376372      2.749432      3.758565
  H       3.424879      3.802824     -0.129831
  H       3.289131      2.146239      0.316399
  O      -1.835282      1.495138      0.392402
  O       2.477365      0.066684      1.068205
  N       0.304903      0.766361      0.718733
  N       0.999621     -1.313945      0.001240
  C      -1.282440     -0.691670     -0.404036
  C      -1.016830      0.599360      0.245228
  C      -0.264562     -1.579482     -0.494023
  C      -2.665440     -0.945670     -0.931655
  C       1.343348     -0.132728      0.631800
  H      -0.381119     -2.552087     -0.960550
  H       0.513361      1.662127      1.145505
  H       1.742561     -1.995771     -0.067787
  H      -2.942896     -0.188621     -1.672967
  H      -3.406032     -0.882807     -0.127044
  H      -2.734862     -1.933742     -1.395686
23
Coordinates from ORCA-job urea_thymine_opt_freq E -679.096724893963
  O       3.522461      4.688767      2.164164
  N       3.229229      2.509125      2.801846
  N       3.092117      3.101624      0.561854
  C       3.318468      3.513578      1.870297
  H       3.110627      1.539659      2.536168
  H       3.409777      2.752180      3.762469
  H       3.365566      3.784791     -0.129330
  H       3.255882      2.130789      0.325909
  O      -1.821330      1.508119      0.376522
  O       2.483988      0.067080      1.067278
  N       0.316320      0.773663      0.707813
  N       1.003234     -1.314562      0.005112
  C      -1.276140     -0.685537     -0.405954
  C      -1.005800      0.608708      0.235359
  C      -0.262003     -1.577967     -0.489596
  C      -2.659972     -0.937553     -0.932500
  C       1.350501     -0.131414      0.629158
  H      -0.381426     -2.553296     -0.949790
  H       0.529760      1.671908      1.127851
  H       1.742517     -2.000735     -0.059827
  H      -2.934110     -0.184392     -1.678997
  H      -3.400483     -0.866459     -0.128471
  H      -2.733182     -1.928474     -1.389934
23
Coordinates from ORCA-job urea_thymine_opt_freq E -679.096969044982
  O       3.409006      4.657304      2.144535
  N       3.297613      2.478796      2.834219
  N       2.861224      3.028722      0.616516
  C       3.228616      3.469504      1.886579
  H       3.248245      1.503498      2.583527
  H       3.569358      2.759350      3.767652
  H       3.055239      3.713075     -0.102160
  H       3.084288      2.069634      0.373459
  O      -1.732628      1.579940      0.276805
  O       2.529688      0.056952      1.041574
  N       0.386785      0.806721      0.638194
  N       1.019326     -1.326425      0.026638
  C      -1.243807     -0.656599     -0.413865
  C      -0.939127      0.656056      0.173811
  C      -0.253946     -1.577533     -0.459216
  C      -2.634559     -0.894316     -0.929568
  C       1.395196     -0.130212      0.604663
  H      -0.395352     -2.568819     -0.877632
  H       0.629811      1.719095      1.013612
  H       1.736678     -2.037143     -0.011351
  H      -2.889640     -0.166808     -1.707618
  H      -3.371706     -0.769377     -0.128939
  H      -2.734307     -1.901813     -1.344034
23
Coordinates from ORCA-job urea_thymine_opt_freq E -679.097217572699
  O       3.325714      4.652439      2.193550
  N       3.340804      2.458920      2.840262
  N       2.780510      3.030248      0.653907
  C       3.187053      3.463171      1.916716
  H       3.350297      1.488199      2.562681
  H       3.645145      2.740683      3.764685
  H       2.917368      3.740631     -0.054205
  H       3.066467      2.095203      0.380380
  O      -1.683835      1.615602      0.192561
  O       2.547297      0.038794      1.017650
  N       0.420544      0.815302      0.583615
  N       1.012380     -1.349777      0.046244
  C      -1.237845     -0.652677     -0.418124
  C      -0.907387      0.674017      0.123978
  C      -0.266134     -1.593288     -0.431233
  C      -2.633159     -0.881090     -0.925729
  C       1.410442     -0.142296      0.584273
  H      -0.425520     -2.595935     -0.815061
  H       0.686148      1.738318      0.921252
  H       1.714322     -2.076659      0.033597
  H      -2.874617     -0.175868     -1.728341
  H      -3.367402     -0.714055     -0.130006
  H      -2.752592     -1.900278     -1.305253
23
Coordinates from ORCA-job urea_thymine_opt_freq E -679.097824857547
  O       3.129319      4.614010      2.399783
  N       3.397263      2.384475      2.825128
  N       2.626454      3.091060      0.738614
  C       3.081181      3.447821      2.018188
  H       3.490200      1.450201      2.462036
  H       3.727849      2.619415      3.740068
  H       2.651615      3.890051      0.110727
  H       3.067288      2.258330      0.349962
  O      -1.532390      1.694005     -0.062038
  O       2.614936     -0.014282      0.907062
  N       0.530561      0.826687      0.402830
  N       0.994227     -1.417429      0.097668
  C      -1.220674     -0.649438     -0.417171
  C      -0.807227      0.709609     -0.028126
  C      -0.303887     -1.639509     -0.336498
  C      -2.634907     -0.852124     -0.881051
  C       1.465278     -0.182356      0.498448
  H      -0.521459     -2.668750     -0.604494
  H       0.862674      1.772174      0.625305
  H       1.650444     -2.184078      0.159604
  H      -2.850167     -0.227282     -1.754778
  H      -3.344483     -0.554176     -0.101164
  H      -2.818094     -1.898811     -1.142703
23
Coordinates from ORCA-job urea_thymine_opt_freq E -679.097727041215
  O       3.164532      4.633562      2.468626
  N       3.346722      2.380348      2.803324
  N       2.817751      3.205182      0.688893
  C       3.131675      3.489735      2.027377
  H       3.379654      1.444034      2.426363
  H       3.625620      2.551366      3.743331
  H       2.864490      4.031059      0.102683
  H       3.267428      2.379395      0.302596
  O      -1.584981      1.656803     -0.040595
  O       2.592082     -0.015616      0.893402
  N       0.485638      0.809723      0.424672
  N       0.975863     -1.426326      0.092470
  C      -1.248020     -0.680017     -0.410496
  C      -0.849302      0.679848     -0.011703
  C      -0.319120     -1.660392     -0.339119
  C      -2.659575     -0.894173     -0.875975
  C       1.436105     -0.187754      0.498767
  H      -0.529696     -2.688039     -0.617151
  H       0.799364      1.756921      0.664898
  H       1.645849     -2.181051      0.150697
  H      -2.882250     -0.263071     -1.743223
  H      -3.373153     -0.612108     -0.094087
  H      -2.830675     -1.939826     -1.148350
23
Coordinates from ORCA-job urea_thymine_opt_freq E -679.098451432833
  O       2.986767      4.575830      2.485447
  N       3.379333      2.346804      2.784376
  N       2.667430      3.137731      0.710471
  C       3.031866      3.437703      2.033579
  H       3.426596      1.415620      2.400607
  H       3.728426      2.527714      3.723485
  H       2.585801      3.964784      0.137977
  H       3.148359      2.354944      0.285492
  O      -1.473854      1.713736     -0.127758
  O       2.651207     -0.056156      0.858411
  N       0.566683      0.821156      0.380162
  N       0.991699     -1.435232      0.127979
  C      -1.211358     -0.644063     -0.402515
  C      -0.771281      0.715415     -0.057207
  C      -0.310810     -1.648522     -0.293313
  C      -2.628931     -0.832871     -0.861357
  C       1.490104     -0.196787      0.486111
  H      -0.554404     -2.678057     -0.533766
  H       0.906647      1.761914      0.592020
  H       1.644010     -2.201014      0.215460
  H      -2.832896     -0.228922     -1.752049
  H      -3.334336     -0.499997     -0.092449
  H      -2.831058     -1.882127     -1.093763
23
Coordinates from ORCA-job urea_thymine_opt_freq E -679.098869607844
  O       2.880182      4.527576      2.492220
  N       3.351283      2.305674      2.773433
  N       2.563781      3.086028      0.720098
  C       2.953841      3.390435      2.040532
  H       3.406517      1.376144      2.380581
  H       3.677959      2.481281      3.709093
  H       2.502402      3.932589      0.166603
  H       3.100966      2.349241      0.272629
  O      -1.401683      1.753681     -0.184048
  O       2.702061     -0.047287      0.810731
  N       0.631272      0.840089      0.321377
  N       1.012537     -1.432737      0.136638
  C      -1.181023     -0.617293     -0.389837
  C      -0.714427      0.745633     -0.092085
  C      -0.297818     -1.634279     -0.261500
  C      -2.608124     -0.797656     -0.822146
  C       1.533642     -0.191314      0.450770
  H      -0.559923     -2.667625     -0.465002
  H       0.992920      1.777924      0.512828
  H       1.651752     -2.209402      0.234521
  H      -2.814574     -0.221849     -1.731012
  H      -3.295799     -0.426063     -0.054448
  H      -2.831744     -1.851185     -1.014578
23
Coordinates from ORCA-job urea_thymine_opt_freq E -679.099159239305
  O       2.941937      4.541111      2.527646
  N       3.320290      2.293110      2.755870
  N       2.654933      3.165121      0.699619
  C       2.995944      3.414959      2.045807
  H       3.324684      1.369375      2.339916
  H       3.606256      2.420463      3.704144
  H       2.653382      4.032634      0.173346
  H       3.197126      2.432677      0.248784
  O      -1.438749      1.731282     -0.174392
  O       2.681734     -0.032842      0.818558
  N       0.601649      0.833862      0.330044
  N       1.002977     -1.436023      0.138347
  C      -1.196232     -0.637525     -0.387073
  C      -0.742142      0.728990     -0.084582
  C      -0.304361     -1.647229     -0.261788
  C      -2.621173     -0.829554     -0.820905
  C       1.511906     -0.190491      0.456349
  H      -0.557984     -2.681972     -0.469094
  H       0.953825      1.773773      0.532253
  H       1.650016     -2.207212      0.232153
  H      -2.831875     -0.253772     -1.728830
  H      -3.312718     -0.466445     -0.052589
  H      -2.835424     -1.884692     -1.016181
23
Coordinates from ORCA-job urea_thymine_opt_freq E -679.099437342251
  O       2.832266      4.485544      2.596803
  N       3.309928      2.249837      2.722284
  N       2.636111      3.187910      0.700432
  C       2.941324      3.387481      2.063715
  H       3.322222      1.342256      2.267547
  H       3.591713      2.346217      3.680958
  H       2.561765      4.072190      0.210840
  H       3.210633      2.502132      0.219434
  O      -1.378909      1.751420     -0.249045
  O       2.714015     -0.049606      0.786879
  N       0.644709      0.835849      0.287931
  N       1.006194     -1.445549      0.168525
  C      -1.181267     -0.626760     -0.376330
  C      -0.700573      0.740574     -0.123673
  C      -0.306671     -1.647662     -0.219263
  C      -2.610973     -0.807031     -0.799175
  C       1.538123     -0.198994      0.440229
  H      -0.580754     -2.683585     -0.390672
  H       1.017122      1.778076      0.460220
  H       1.642064     -2.222385      0.285179
  H      -2.814436     -0.259709     -1.726035
  H      -3.293352     -0.404601     -0.042594
  H      -2.845253     -1.864000     -0.956789
23
Coordinates from ORCA-job urea_thymine_opt_freq E -679.099601759871
  O       2.757444      4.429293      2.637287
  N       3.298238      2.204148      2.684478
  N       2.595295      3.188646      0.697656
  C       2.897183      3.352875      2.069038
  H       3.287508      1.309364      2.205186
  H       3.577648      2.264488      3.651450
  H       2.486850      4.089776      0.247605
  H       3.223134      2.569478      0.194089
  O      -1.334653      1.769142     -0.306884
  O       2.738371     -0.049962      0.770958
  N       0.679552      0.846062      0.253177
  N       1.014265     -1.442229      0.200035
  C      -1.164337     -0.613168     -0.366246
  C      -0.667079      0.755071     -0.153731
  C      -0.301733     -1.639592     -0.180804
  C      -2.596792     -0.788612     -0.781620
  C       1.560135     -0.195140      0.433765
  H      -0.589724     -2.676133     -0.322347
  H       1.064288      1.787726      0.407176
  H       1.642810     -2.221756      0.335141
  H      -2.795303     -0.267239     -1.724304
  H      -3.273054     -0.355811     -0.036554
  H      -2.844045     -1.846825     -0.907147
23
Coordinates from ORCA-job urea_thymine_opt_freq E -679.099653009146
  O       2.730217      4.408109      2.650794
  N       3.289807      2.184851      2.663414
  N       2.591725      3.197903      0.689947
  C       2.882867      3.341806      2.066162
  H       3.276792      1.298582      2.165226
  H       3.541367      2.225550      3.637010
  H       2.472089      4.104809      0.253663
  H       3.226639      2.593953      0.176687
  O      -1.319143      1.775469     -0.313760
  O       2.747404     -0.051490      0.775083
  N       0.691690      0.847631      0.250835
  N       1.017460     -1.441941      0.213716
  C      -1.157156     -0.608170     -0.360859
  C      -0.655452      0.759631     -0.155460
  C      -0.298729     -1.636626     -0.168174
  C      -2.589928     -0.781272     -0.776327
  C       1.567875     -0.195259      0.438482
  H      -0.590177     -2.673152     -0.303246
  H       1.078826      1.788359      0.405393
  H       1.643644     -2.223165      0.351027
  H      -2.785763     -0.265766     -1.722848
  H      -3.265084     -0.340692     -0.034728
  H      -2.840972     -1.839516     -0.894637
23
Coordinates from ORCA-job urea_thymine_opt_freq E -679.099721441358
  O       2.728029      4.400159      2.665775
  N       3.305642      2.180157      2.651135
  N       2.584104      3.206108      0.693240
  C       2.884321      3.340841      2.069260
  H       3.293266      1.297461      2.146437
  H       3.545004      2.209376      3.627132
  H       2.449275      4.117068      0.268652
  H       3.233429      2.624931      0.170978
  O      -1.314960      1.775447     -0.325469
  O       2.745144     -0.055950      0.782492
  N       0.693177      0.845816      0.245736
  N       1.012803     -1.444520      0.225999
  C      -1.157667     -0.609040     -0.361618
  C      -0.653600      0.758933     -0.161401
  C      -0.302437     -1.638235     -0.160077
  C      -2.589453     -0.781286     -0.780833
  C       1.566215     -0.197717      0.443721
  H      -0.595876     -2.674932     -0.289861
  H       1.082276      1.786880      0.397248
  H       1.636819     -2.226864      0.367632
  H      -2.781030     -0.270513     -1.730833
  H      -3.265946     -0.334851     -0.043880
  H      -2.842533     -1.839665     -0.894065
23
Coordinates from ORCA-job urea_thymine_opt_freq E -679.099813518043
  O       2.713235      4.385419      2.689879
  N       3.340000      2.178866      2.626616
  N       2.568678      3.222009      0.697088
  C       2.882985      3.340548      2.072549
  H       3.324272      1.301583      2.113100
  H       3.553114      2.188882      3.609755
  H       2.403075      4.137905      0.293799
  H       3.237218      2.679527      0.157623
  O      -1.300829      1.776183     -0.339367
  O       2.744073     -0.075771      0.796782
  N       0.699811      0.837467      0.242007
  N       1.003337     -1.454257      0.247072
  C      -1.157424     -0.609899     -0.362787
  C      -0.646637      0.756224     -0.168072
  C      -0.309958     -1.642674     -0.147476
  C      -2.587540     -0.776800     -0.790015
  C       1.565483     -0.208720      0.454765
  H      -0.609166     -2.678551     -0.270638
  H       1.091643      1.777515      0.393283
  H       1.622833     -2.239215      0.394226
  H      -2.769953     -0.272024     -1.745064
  H      -3.265948     -0.320143     -0.061067
  H      -2.846301     -1.834471     -0.896656
23
Coordinates from ORCA-job urea_thymine_opt_freq E -679.099939611718
  O       2.667573      4.353939      2.724374
  N       3.389190      2.179846      2.592355
  N       2.546849      3.238260      0.701279
  C       2.872184      3.334337      2.077231
  H       3.364332      1.307413      2.071054
  H       3.561924      2.167300      3.585343
  H       2.330652      4.156440      0.327278
  H       3.242139      2.753460      0.140709
  O      -1.272872      1.779478     -0.363241
  O       2.747775     -0.104685      0.809859
  N       0.715418      0.825687      0.234343
  N       0.991830     -1.468755      0.273468
  C      -1.154543     -0.608479     -0.362615
  C      -0.630677      0.753973     -0.179328
  C      -0.319638     -1.647640     -0.128993
  C      -2.583521     -0.765330     -0.797451
  C       1.568579     -0.226033      0.465458
  H      -0.629475     -2.681615     -0.241259
  H       1.113474      1.764218      0.380874
  H       1.603748     -2.258266      0.428196
  H      -2.754203     -0.270483     -1.759868
  H      -3.261728     -0.292097     -0.078961
  H      -2.853012     -1.821368     -0.892705
23
Coordinates from ORCA-job urea_thymine_opt_freq E -679.100077633785
  O       2.600013      4.308766      2.759714
  N       3.462960      2.193573      2.550730
  N       2.524120      3.251597      0.702979
  C       2.859758      3.324947      2.079099
  H       3.415183      1.322334      2.030096
  H       3.578530      2.158274      3.555436
  H       2.242916      4.165009      0.361817
  H       3.245927      2.836772      0.120159
  O      -1.239693      1.783013     -0.383364
  O       2.749585     -0.142102      0.831669
  N       0.732382      0.809741      0.234704
  N       0.977246     -1.487527      0.301452
  C      -1.151577     -0.606177     -0.362676
  C      -0.612223      0.750549     -0.186920
  C      -0.331587     -1.653584     -0.111709
  C      -2.578649     -0.749309     -0.808392
  C       1.570408     -0.249560      0.482430
  H      -0.654046     -2.684435     -0.216551
  H       1.137006      1.745694      0.377839
  H       1.580291     -2.282580      0.462318
  H      -2.734717     -0.262567     -1.777384
  H      -3.257010     -0.260133     -0.100895
  H      -2.860823     -1.802694     -0.895152
23
Coordinates from ORCA-job urea_thymine_opt_freq E -679.100193512360
  O       2.565608      4.297612      2.761404
  N       3.491061      2.209649      2.549041
  N       2.518459      3.247096      0.702765
  C       2.853150      3.323442      2.078299
  H       3.437209      1.333710      2.039121
  H       3.602221      2.179227      3.553043
  H       2.220847      4.155043      0.361567
  H       3.242091      2.838846      0.117804
  O      -1.231123      1.783779     -0.384022
  O       2.748348     -0.154955      0.837982
  N       0.735557      0.804022      0.240855
  N       0.973827     -1.494837      0.299940
  C      -1.151855     -0.605149     -0.363445
  C      -0.607659      0.749133     -0.185619
  C      -0.335313     -1.655826     -0.114008
  C      -2.578932     -0.742362     -0.810885
  C       1.570085     -0.259347      0.486088
  H      -0.661139     -2.685308     -0.221677
  H       1.143096      1.738631      0.380659
  H       1.573893     -2.292026      0.460869
  H      -2.732226     -0.253532     -1.779218
  H      -3.256524     -0.252656     -0.103104
  H      -2.864680     -1.794587     -0.900057
23
Coordinates from ORCA-job urea_thymine_opt_freq E -679.100313051215
  O       2.524204      4.277581      2.765025
  N       3.522246      2.222173      2.539630
  N       2.519763      3.248264      0.699084
  C       2.847294      3.319101      2.074583
  H       3.444586      1.338693      2.042011
  H       3.632483      2.190745      3.543811
  H       2.209894      4.152307      0.359792
  H       3.243150      2.843831      0.111965
  O      -1.226293      1.783858     -0.386679
  O       2.742322     -0.159578      0.853778
  N       0.733631      0.800976      0.254830
  N       0.972131     -1.498861      0.300197
  C      -1.152439     -0.604417     -0.363302
  C      -0.605510      0.748455     -0.182552
  C      -0.337628     -1.657046     -0.115625
  C      -2.578576     -0.737518     -0.814784
  C       1.566618     -0.265736      0.496686
  H      -0.664878     -2.685638     -0.228242
  H       1.145338      1.734436      0.390690
  H       1.569567     -2.297238      0.463801
  H      -2.728455     -0.245923     -1.782218
  H      -3.257516     -0.249761     -0.106952
  H      -2.865930     -1.789102     -0.908129
23
Coordinates from ORCA-job urea_thymine_opt_freq E -679.100340124108
  O       2.529705      4.282780      2.755949
  N       3.539152      2.230367      2.541069
  N       2.516241      3.234582      0.701026
  C       2.852455      3.319558      2.071594
  H       3.457495      1.341554      2.053608
  H       3.659773      2.208254      3.542936
  H       2.205871      4.134464      0.351300
  H       3.230193      2.814929      0.113059
  O      -1.236451      1.784116     -0.377942
  O       2.733608     -0.150722      0.868827
  N       0.723685      0.804315      0.268118
  N       0.972189     -1.494637      0.297127
  C      -1.154469     -0.603983     -0.365850
  C      -0.612531      0.750133     -0.176056
  C      -0.336725     -1.655015     -0.122637
  C      -2.578808     -0.739153     -0.822183
  C       1.560324     -0.261212      0.505688
  H      -0.659379     -2.684199     -0.242540
  H       1.134868      1.737787      0.406657
  H       1.570004     -2.292850      0.460597
  H      -2.727696     -0.241505     -1.786632
  H      -3.261437     -0.258830     -0.112827
  H      -2.862067     -1.791130     -0.923488
23
Coordinates from ORCA-job urea_thymine_opt_freq E -679.100346830146
  O       2.547138      4.277713      2.770874
  N       3.570212      2.233987      2.524932
  N       2.509844      3.241672      0.709996
  C       2.865463      3.321002      2.075602
  H       3.466402      1.344246      2.040893
  H       3.695046      2.204841      3.526700
  H       2.192126      4.142537      0.369434
  H       3.218335      2.829610      0.110390
  O      -1.241727      1.781117     -0.390206
  O       2.721053     -0.144722      0.889327
  N       0.713949      0.803972      0.273377
  N       0.965902     -1.494470      0.307749
  C      -1.157930     -0.607196     -0.369911
  C      -0.618210      0.748446     -0.180362
  C      -0.341056     -1.656919     -0.119141
  C      -2.579190     -0.744644     -0.835040
  C       1.550489     -0.260150      0.518332
  H      -0.661657     -2.686765     -0.238458
  H       1.127915      1.737010      0.411610
  H       1.561714     -2.292428      0.479651
  H      -2.722389     -0.248464     -1.801089
  H      -3.266717     -0.263746     -0.130811
  H      -2.860713     -1.797047     -0.936449
23
Coordinates from ORCA-job urea_thymine_opt_freq E -679.100362359133
  O       2.579653      4.297011      2.760773
  N       3.572345      2.236493      2.529836
  N       2.514778      3.238597      0.711487
  C       2.880373      3.328948      2.073863
  H       3.465380      1.345910      2.048538
  H       3.712867      2.210778      3.529677
  H       2.207360      4.139912      0.363158
  H       3.213401      2.809686      0.112403
  O      -1.258981      1.778061     -0.377674
  O       2.710798     -0.135827      0.900335
  N       0.700350      0.806770      0.283993
  N       0.964702     -1.490408      0.304657
  C      -1.161863     -0.610064     -0.373013
  C      -0.630450      0.747517     -0.173264
  C      -0.340332     -1.656934     -0.126419
  C      -2.581015     -0.752505     -0.843248
  C       1.542170     -0.254227      0.524738
  H      -0.654816     -2.687778     -0.252900
  H       1.109603      1.739813      0.431016
  H       1.563276     -2.286394      0.476105
  H      -2.724231     -0.249860     -1.805956
  H      -3.273202     -0.280216     -0.137731
  H      -2.856166     -1.805682     -0.952974
23
Coordinates from ORCA-job urea_thymine_opt_freq E -679.100376909508
  O       2.581315      4.293612      2.765876
  N       3.576455      2.235620      2.525816
  N       2.507051      3.239116      0.714455
  C       2.879838      3.327343      2.075737
  H       3.469461      1.346038      2.042964
  H       3.718704      2.208286      3.525245
  H       2.193724      4.140460      0.371084
  H       3.205714      2.816817      0.110528
  O      -1.254396      1.778807     -0.383904
  O       2.711846     -0.138573      0.901180
  N       0.703317      0.806207      0.280614
  N       0.963207     -1.491602      0.309041
  C      -1.160874     -0.609484     -0.373491
  C      -0.627685      0.747711     -0.176906
  C      -0.341392     -1.657067     -0.122922
  C      -2.579824     -0.751110     -0.844786
  C       1.542984     -0.255466      0.525205
  H      -0.657347     -2.687844     -0.246593
  H       1.113185      1.739184      0.427225
  H       1.560477     -2.287977      0.483248
  H      -2.721286     -0.250813     -1.809006
  H      -3.271954     -0.275505     -0.141407
  H      -2.856518     -1.804156     -0.951802
23
Coordinates from ORCA-job urea_thymine_opt_freq E -679.100381680990
  O       2.584102      4.289726      2.772695
  N       3.586592      2.237094      2.518904
  N       2.499715      3.242115      0.718032
  C       2.881796      3.326960      2.077527
  H       3.476379      1.348065      2.035657
  H       3.733442      2.207520      3.517775
  H       2.177881      4.143052      0.381324
  H       3.197426      2.827844      0.107356
  O      -1.250624      1.778541     -0.389893
  O       2.709891     -0.142820      0.907162
  N       0.704384      0.804385      0.280305
  N       0.959873     -1.494037      0.314983
  C      -1.160786     -0.609815     -0.374765
  C      -0.626079      0.746762     -0.179789
  C      -0.343661     -1.658242     -0.119705
  C      -2.578813     -0.750314     -0.849383
  C       1.541490     -0.258108      0.529072
  H      -0.660908     -2.688836     -0.241812
  H       1.114175      1.737264      0.427853
  H       1.555622     -2.290747      0.492842
  H      -2.717071     -0.251561     -1.814882
  H      -3.272014     -0.272111     -0.148807
  H      -2.856811     -1.803136     -0.955048
23
Coordinates from ORCA-job urea_thymine_opt_freq E -679.100371653304
  O       2.590237      4.285521      2.781916
  N       3.600123      2.238987      2.508723
  N       2.489291      3.246744      0.723516
  C       2.885306      3.327047      2.079802
  H       3.484541      1.350396      2.025567
  H       3.759199      2.207128      3.505540
  H       2.156734      4.147210      0.395956
  H       3.184736      2.842876      0.103294
  O      -1.246029      1.777765     -0.398091
  O       2.705868     -0.148361      0.917961
  N       0.704932      0.801797      0.281195
  N       0.955064     -1.497303      0.323391
  C      -1.160881     -0.610597     -0.376891
  C      -0.624339      0.745157     -0.183404
  C      -0.346873     -1.660030     -0.115734
  C      -2.577359     -0.749626     -0.856734
  C       1.538579     -0.261773      0.535958
  H      -0.665609     -2.690363     -0.236320
  H       1.114011      1.734747      0.430254
  H       1.548660     -2.294416      0.506545
  H      -2.710907     -0.252605     -1.823794
  H      -3.272455     -0.268539     -0.160013
  H      -2.856829     -1.802159     -0.961233
23
Coordinates from ORCA-job urea_thymine_opt_freq E -679.100373084077
  O       2.595598      4.282669      2.787270
  N       3.614640      2.242630      2.497785
  N       2.480201      3.249353      0.727068
  C       2.889239      3.327796      2.079517
  H       3.493864      1.353483      2.016686
  H       3.785874      2.210437      3.492742
  H       2.136594      4.148099      0.406341
  H       3.172732      2.853976      0.098220
  O      -1.243145      1.777175     -0.399587
  O       2.700224     -0.154315      0.933637
  N       0.703824      0.798804      0.287438
  N       0.950369     -1.500571      0.331068
  C      -1.161110     -0.611236     -0.379025
  C      -0.623743      0.743568     -0.182740
  C      -0.349598     -1.661698     -0.114084
  C      -2.575505     -0.748424     -0.865532
  C       1.534639     -0.265788      0.546316
  H      -0.669036     -2.691618     -0.236272
  H       1.110980      1.731868      0.440041
  H       1.542287     -2.298241      0.517191
  H      -2.703960     -0.250660     -1.832891
  H      -3.273375     -0.267113     -0.171752
  H      -2.855593     -1.800592     -0.972038
23
Coordinates from ORCA-job urea_thymine_opt_freq E -679.100381308871
  O       2.600482      4.283030      2.789745
  N       3.619760      2.244087      2.491952
  N       2.474830      3.251609      0.729183
  C       2.891184      3.329186      2.079185
  H       3.496171      1.354424      2.012275
  H       3.802375      2.212803      3.484486
  H       2.127115      4.149866      0.411573
  H       3.165565      2.860075      0.096026
  O      -1.241265      1.776640     -0.399773
  O       2.696910     -0.158284      0.943685
  N       0.703211      0.796625      0.291608
  N       0.948057     -1.502762      0.334842
  C      -1.161168     -0.611845     -0.380236
  C      -0.623108      0.742445     -0.181805
  C      -0.350994     -1.662926     -0.113789
  C      -2.574415     -0.747656     -0.870294
  C       1.532517     -0.268685      0.552755
  H      -0.670896     -2.692525     -0.237317
  H       1.109506      1.729893      0.445138
  H       1.538930     -2.300994      0.521867
  H      -2.700153     -0.249129     -1.837594
  H      -3.273718     -0.266704     -0.177729
  H      -2.854898     -1.799573     -0.978386
23
Coordinates from ORCA-job urea_thymine_opt_freq E -679.100380129210
  O       2.600647      4.284230      2.787213
  N       3.621499      2.245899      2.489424
  N       2.473625      3.250665      0.727745
  C       2.891391      3.330205      2.076828
  H       3.497141      1.355339      2.011633
  H       3.806341      2.216185      3.481635
  H       2.123850      4.147802      0.409339
  H       3.164239      2.859825      0.094098
  O      -1.241195      1.776867     -0.393991
  O       2.695217     -0.160959      0.950756
  N       0.702366      0.795218      0.297382
  N       0.947612     -1.503955      0.335363
  C      -1.160966     -0.611728     -0.380383
  C      -0.623151      0.742214     -0.177772
  C      -0.350933     -1.663278     -0.115573
  C      -2.573548     -0.746385     -0.872484
  C       1.531557     -0.270534      0.557540
  H      -0.670669     -2.692557     -0.242040
  H       1.108279      1.728396      0.452142
  H       1.538407     -2.302748      0.520292
  H      -2.698166     -0.245516     -1.838701
  H      -3.273765     -0.267514     -0.179416
  H      -2.853777     -1.798068     -0.983630
23
Coordinates from ORCA-job urea_thymine_opt_freq E -679.100381319530
  O       2.600690      4.285738      2.785356
  N       3.620264      2.246550      2.488982
  N       2.473095      3.250354      0.726604
  C       2.890822      3.331099      2.075611
  H       3.495933      1.355559      2.011938
  H       3.805715      2.217659      3.481004
  H       2.123159      4.147150      0.407374
  H       3.164290      2.859734      0.093455
  O      -1.240645      1.777035     -0.390753
  O       2.695140     -0.162884      0.953251
  N       0.702446      0.794217      0.300174
  N       0.947813     -1.504890      0.334883
  C      -1.160661     -0.611635     -0.380136
  C      -0.622701      0.742121     -0.175512
  C      -0.350714     -1.663554     -0.116698
  C      -2.573135     -0.745441     -0.872672
  C       1.531665     -0.271899      0.559221
  H      -0.670568     -2.692611     -0.244638
  H       1.109317      1.727189      0.454340
  H       1.538505     -2.304130      0.518187
  H      -2.697535     -0.243262     -1.838231
  H      -3.273427     -0.267549     -0.179004
  H      -2.853469     -1.796947     -0.985335
23
Coordinates from ORCA-job urea_thymine_opt_freq E -679.100384917931
  O       2.601312      4.287268      2.783494
  N       3.619801      2.247469      2.487932
  N       2.471524      3.249902      0.725587
  C       2.890429      3.331986      2.074360
  H       3.495081      1.356123      2.011624
  H       3.805749      2.219080      3.479887
  H       2.120240      4.146157      0.406223
  H       3.163272      2.860423      0.092294
  O      -1.239594      1.777270     -0.387673
  O       2.695068     -0.165456      0.956014
  N       0.702697      0.793009      0.303512
  N       0.947751     -1.506199      0.334845
  C      -1.160210     -0.611450     -0.379858
  C      -0.622008      0.742000     -0.173185
  C      -0.350608     -1.663914     -0.117592
  C      -2.572479     -0.744213     -0.873252
  C       1.531716     -0.273634      0.561227
  H      -0.670676     -2.692710     -0.247104
  H       1.111082      1.725600      0.457124
  H       1.538172     -2.305926      0.516870
  H      -2.696297     -0.240596     -1.838140
  H      -3.272970     -0.267106     -0.179236
  H      -2.853053     -1.795481     -0.987553
23
Coordinates from ORCA-job urea_thymine_opt_freq E -679.100377066705
  O       2.601799      4.287891      2.782746
  N       3.619833      2.247889      2.487345
  N       2.470298      3.249568      0.725319
  C       2.890298      3.332246      2.073928
  H       3.494832      1.356453      2.011267
  H       3.806290      2.219643      3.479236
  H       2.117837      4.145492      0.406262
  H       3.162214      2.860953      0.091637
  O      -1.238836      1.777382     -0.386872
  O       2.695129     -0.166727      0.956920
  N       0.702935      0.792510      0.305062
  N       0.947628     -1.506885      0.334985
  C      -1.159939     -0.611308     -0.379674
  C      -0.621558      0.741931     -0.172366
  C      -0.350615     -1.664087     -0.117768
  C      -2.572094     -0.743558     -0.873590
  C       1.531751     -0.274460      0.562003
  H      -0.670808     -2.692769     -0.247925
  H       1.112229      1.724875      0.458343
  H       1.537830     -2.306796      0.516901
  H      -2.695499     -0.239322     -1.838212
  H      -3.272710     -0.266619     -0.179579
  H      -2.852844     -1.794700     -0.988570
