12
Coordinates from ORCA-job biuret_opt_freq E -393.790379847354
  N           0.76804764281117     -0.05274653438307      0.14856750287298
  C           0.30639358654535     -0.03993452768497     -1.14010995015239
  O          -0.89387886824595     -0.03692911582184     -1.38371922302331
  N           1.20945368761971     -0.03012786001772     -2.21473472234321
  C           2.59171391908680     -0.02818177694129     -2.45949243157769
  O           2.98086673871624     -0.01821358027633     -3.62070074857727
  N           3.47707419231585     -0.03717048122185     -1.41534480748640
  H           0.05483497531933     -0.05924911135118      0.86152420535545
  H           1.72549250079864     -0.05646551882197      0.44572186691749
  H           0.70253796024815     -0.02191259340928     -3.09269653892268
  H           3.25550518522493     -0.04516059613590     -0.43768085983444
  H           4.45114747955977     -0.03503830393460     -1.67652129322854
