12
Coordinates from ORCA-job biuret_opt_freq E -393.786614865476
  N       0.772730     -0.051989      0.120926
  C       0.334914     -0.040147     -1.147855
  O      -0.874157     -0.038083     -1.369002
  N       1.225359     -0.030446     -2.187245
  C       2.570759     -0.028100     -2.438664
  O       2.983767     -0.017296     -3.596278
  N       3.450695     -0.037559     -1.425130
  H       0.054925     -0.058651      0.834778
  H       1.723144     -0.054836      0.425994
  H       0.719519     -0.022270     -3.063346
  H       3.239696     -0.046664     -0.449550
  H       4.427838     -0.035089     -1.689815
12
Coordinates from ORCA-job biuret_opt_freq E -393.789988736304
  N       0.757295     -0.052278      0.148018
  C       0.314130     -0.040171     -1.142312
  O      -0.892024     -0.037893     -1.384824
  N       1.216164     -0.030274     -2.203139
  C       2.585944     -0.027955     -2.453888
  O       2.978972     -0.017180     -3.619650
  N       3.481933     -0.037524     -1.424934
  H       0.038960     -0.058897      0.855012
  H       1.711337     -0.055202      0.459658
  H       0.708355     -0.022066     -3.082646
  H       3.274704     -0.046620     -0.442974
  H       4.453417     -0.035070     -1.693507
12
Coordinates from ORCA-job biuret_opt_freq E -393.790344836649
  N       0.771009     -0.052327      0.146376
  C       0.308628     -0.040146     -1.142666
  O      -0.894329     -0.037787     -1.383550
  N       1.208949     -0.030152     -2.215637
  C       2.588396     -0.027957     -2.458868
  O       2.981245     -0.017295     -3.621033
  N       3.473669     -0.037576     -1.413902
  H       0.060003     -0.059004      0.861307
  H       1.729577     -0.055187      0.443955
  H       0.701807     -0.021933     -3.093967
  H       3.251868     -0.046514     -0.435080
  H       4.448366     -0.035251     -1.672124
12
Coordinates from ORCA-job biuret_opt_freq E -393.790371167154
  N       0.767052     -0.052495      0.149336
  C       0.306555     -0.040078     -1.140372
  O      -0.893825     -0.037494     -1.384447
  N       1.209339     -0.030136     -2.214940
  C       2.591410     -0.028025     -2.459491
  O       2.980212     -0.017625     -3.621020
  N       3.478233     -0.037417     -1.415833
  H       0.053529     -0.059111      0.862053
  H       1.723772     -0.055646      0.447868
  H       0.702452     -0.021926     -3.092845
  H       3.258201     -0.046024     -0.438118
  H       4.452258     -0.035152     -1.677379
12
Coordinates from ORCA-job biuret_opt_freq E -393.790379847354
  N       0.768048     -0.052747      0.148568
  C       0.306394     -0.039935     -1.140110
  O      -0.893879     -0.036929     -1.383719
  N       1.209454     -0.030128     -2.214735
  C       2.591714     -0.028182     -2.459492
  O       2.980867     -0.018214     -3.620701
  N       3.477074     -0.037170     -1.415345
  H       0.054835     -0.059249      0.861524
  H       1.725493     -0.056466      0.445722
  H       0.702538     -0.021913     -3.092697
  H       3.255505     -0.045161     -0.437681
  H       4.451147     -0.035038     -1.676521
