14
Coordinates from ORCA-job dimethylurea_opt_freq E -303.720464978675
  C       1.070218      0.023668      0.077736
  N       0.611484      0.481627     -1.222338
  C      -0.223938     -0.406347     -2.011072
  C       0.912775      1.707729     -1.768470
  N       1.691440      2.525566     -1.024325
  O       0.520649      2.086272     -2.867929
  H       0.704953     -0.982313      0.299291
  H       0.708507      0.712982      0.846594
  H       2.164287      0.017295      0.087859
  H      -1.181047      0.086559     -2.208982
  H       0.271632     -0.607646     -2.966098
  H      -0.406160     -1.351703     -1.493899
  H       1.914362      3.426578     -1.422748
  H       2.052271      2.290987     -0.116915
14
Coordinates from ORCA-job dimethylurea_opt_freq E -303.723473559177
  C       1.083238      0.041775      0.085660
  N       0.608148      0.476222     -1.226806
  C      -0.236339     -0.407490     -2.035058
  C       0.909961      1.702613     -1.769233
  N       1.701648      2.531947     -1.008694
  O       0.501620      2.058586     -2.878439
  H       0.714511     -0.958935      0.302828
  H       0.724494      0.719217      0.874135
  H       2.182273      0.016279      0.113398
  H      -1.201208      0.069777     -2.240473
  H       0.245800     -0.622830     -2.995356
  H      -0.410416     -1.345661     -1.507827
  H       1.922499      3.429753     -1.406031
  H       2.065204      2.300000     -0.099398
14
Coordinates from ORCA-job dimethylurea_opt_freq E -303.723767532266
  C       1.085453      0.048957      0.083738
  N       0.606524      0.473625     -1.227973
  C      -0.237824     -0.405435     -2.040589
  C       0.909200      1.701314     -1.768338
  N       1.704977      2.534283     -1.004525
  O       0.496558      2.050503     -2.878278
  H       0.711485     -0.952885      0.294122
  H       0.726980      0.715380      0.881493
  H       2.183778      0.011469      0.121573
  H      -1.205266      0.063722     -2.248115
  H       0.238507     -0.626818     -3.001429
  H      -0.403529     -1.339824     -1.501691
  H       1.924078      3.431994     -1.404707
  H       2.070512      2.304969     -0.096577
14
Coordinates from ORCA-job dimethylurea_opt_freq E -303.723802979230
  C       1.085322      0.051197      0.081952
  N       0.605735      0.472872     -1.228123
  C      -0.237653     -0.404646     -2.041094
  C       0.909203      1.701576     -1.768409
  N       1.705346      2.534114     -1.004236
  O       0.496563      2.051293     -2.877406
  H       0.710687     -0.951484      0.291182
  H       0.726089      0.713002      0.882984
  H       2.183231      0.009985      0.123450
  H      -1.206142      0.062066     -2.248939
  H       0.237414     -0.627504     -3.002153
  H      -0.399956     -1.337707     -1.498214
  H       1.923611      3.431351     -1.405770
  H       2.071985      2.305139     -0.096522
14
Coordinates from ORCA-job dimethylurea_opt_freq E -303.723801052277
  C       1.084917      0.051794      0.081233
  N       0.605180      0.472770     -1.227829
  C      -0.237554     -0.404389     -2.040946
  C       0.909108      1.702035     -1.768324
  N       1.705250      2.533792     -1.004459
  O       0.497337      2.052477     -2.876994
  H       0.711365     -0.951463      0.291033
  H       0.724824      0.711506      0.883663
  H       2.182776      0.010044      0.124115
  H      -1.206490      0.061598     -2.248615
  H       0.237395     -0.626911     -3.002204
  H      -0.398768     -1.337493     -1.497737
  H       1.923475      3.430603     -1.407163
  H       2.072618      2.304891     -0.097067
14
Coordinates from ORCA-job dimethylurea_opt_freq E -303.723809004479
  C       1.084731      0.051876      0.081043
  N       0.605052      0.472780     -1.227672
  C      -0.237607     -0.404313     -2.040850
  C       0.909471      1.702038     -1.768440
  N       1.705073      2.533693     -1.004481
  O       0.497768      2.052786     -2.876966
  H       0.712106     -0.951621      0.291598
  H       0.724210      0.710958      0.883895
  H       2.182635      0.010359      0.124348
  H      -1.206624      0.061678     -2.248269
  H       0.237351     -0.626351     -3.002244
  H      -0.398805     -1.337733     -1.498218
  H       1.923242      3.430249     -1.407809
  H       2.072831      2.304854     -0.097230
