14
Coordinates from ORCA-job dimethylurea_opt_freq E -303.723809004479
  C           1.08473120877070      0.05187593066437      0.08104293610782
  N           0.60505229280801      0.47277988137657     -1.22767209280419
  C          -0.23760708148290     -0.40431302675854     -2.04085040089325
  C           0.90947113942395      1.70203805768827     -1.76844048323898
  N           1.70507287984482      2.53369331552728     -1.00448103171089
  O           0.49776776400035      2.05278582957691     -2.87696637902957
  H           0.71210559162989     -0.95162059587833      0.29159828349704
  H           0.72421006285349      0.71095793713921      0.88389539954119
  H           2.18263494411399      0.01035932638948      0.12434755979928
  H          -1.20662357977485      0.06167805521918     -2.24826854414836
  H           0.23735074678848     -0.62635133399366     -3.00224371921866
  H          -0.39880546670029     -1.33773267279781     -1.49821766041012
  H           1.92324179354536      3.43024897710674     -1.40780943678806
  H           2.07283070417900      2.30485431874035     -0.09723043070323
