6
Coordinates from ORCA-job formamide_opt_freq E -169.818886746205
  N       0.963894     -0.124334     -0.104601
  C       0.235483     -1.073342     -0.748824
  O      -0.985112     -1.088133     -0.758865
  H       0.465665      0.604132      0.389910
  H       1.973631     -0.120195     -0.101791
  H       0.859535     -1.824764     -1.258918
6
Coordinates from ORCA-job formamide_opt_freq E -169.819020824863
  N       0.964427     -0.120869     -0.102240
  C       0.232188     -1.071384     -0.747518
  O      -0.988443     -1.097235     -0.764975
  H       0.472514      0.610069      0.393869
  H       1.972862     -0.122249     -0.103112
  H       0.859547     -1.824968     -1.259113
6
Coordinates from ORCA-job formamide_opt_freq E -169.819059048998
  N       0.963149     -0.118210     -0.100404
  C       0.229760     -1.069296     -0.746013
  O      -0.989571     -1.105900     -0.770838
  H       0.478696      0.616154      0.397911
  H       1.971357     -0.126708     -0.106091
  H       0.859704     -1.822676     -1.257654
6
Coordinates from ORCA-job formamide_opt_freq E -169.819049544418
  N       0.961778     -0.117506     -0.099961
  C       0.229422     -1.068555     -0.745705
  O      -0.989474     -1.108302     -0.772377
  H       0.480780      0.618339      0.399416
  H       1.970017     -0.129342     -0.107827
  H       0.860573     -1.821270     -1.256634
6
Coordinates from ORCA-job formamide_opt_freq E -169.819069811380
  N       0.960513     -0.117261     -0.099680
  C       0.229470     -1.068647     -0.745213
  O      -0.989392     -1.109081     -0.773140
  H       0.481971      0.619746      0.400271
  H       1.968851     -0.131250     -0.109243
  H       0.861682     -1.820143     -1.256084
6
Coordinates from ORCA-job formamide_opt_freq E -169.819069900315
  N       0.960138     -0.117122     -0.099828
  C       0.229519     -1.068205     -0.746109
  O      -0.989451     -1.109256     -0.772771
  H       0.482217      0.619905      0.400611
  H       1.968514     -0.131804     -0.109384
  H       0.862160     -1.820153     -1.255609
