6
Coordinates from ORCA-job formamide_opt_freq E -169.819069900315
  N           0.96013801739534     -0.11712183322406     -0.09982760804526
  C           0.22951865062641     -1.06820545556891     -0.74610892111569
  O          -0.98945118317365     -1.10925587618038     -0.77277080255579
  H           0.48221662904998      0.61990457377713      0.40061132174624
  H           1.96851398584360     -0.13180438612500     -0.10938435368474
  H           0.86215990025832     -1.82015302267878     -1.25560863634475
