11
Coordinates from ORCA-job methylurea_opt_freq E -264.447404021975
  C           1.00100383978820      0.02057018346870      0.15083607504424
  N           0.47907551361702      0.71382084048062      1.31676268229590
  C          -0.31049282291164      1.83627801963582      1.20695064416990
  N          -0.72864057814101      2.37598132176713      2.40662145151664
  O          -0.63029004265794      2.33496191346748      0.12881905494503
  H           0.64627788963116      0.55213867797279     -0.73339780376141
  H           0.64206859638387     -1.01479678082532      0.10971645764029
  H           2.09761445901431      0.01828364374757      0.14639637681017
  H           0.70408370797250      0.35226319611566      2.23118883978717
  H          -1.30674026978553      3.19887566495399      2.35772231078612
  H          -0.48958629291094      2.00041531921556      3.30976191076595
