11
Coordinates from ORCA-job methylurea_opt_freq E -264.444222805785
  C       0.986751      0.040704      0.149648
  N       0.462323      0.736661      1.297219
  C      -0.317787      1.845258      1.186629
  N      -0.702644      2.341604      2.385431
  O      -0.661587      2.374073      0.140253
  H       0.680735      0.511637     -0.787577
  H       0.622976     -0.989395      0.180198
  H       2.077246      0.038097      0.221651
  H       0.682215      0.388364      2.216120
  H      -1.285555      3.167048      2.375140
  H      -0.440299      1.934741      3.266666
11
Coordinates from ORCA-job methylurea_opt_freq E -264.447154140137
  C       0.999071      0.023104      0.142960
  N       0.474214      0.721186      1.305796
  C      -0.315269      1.842993      1.203423
  N      -0.725701      2.372901      2.408323
  O      -0.644289      2.353622      0.133900
  H       0.666946      0.525947     -0.764105
  H       0.639867     -1.013678      0.131882
  H       2.096023      0.018575      0.169915
  H       0.698849      0.362025      2.220191
  H      -1.305411      3.194997      2.373854
  H      -0.479925      1.987119      3.305240
11
Coordinates from ORCA-job methylurea_opt_freq E -264.447383801145
  C       1.000870      0.020528      0.146897
  N       0.477815      0.716208      1.312303
  C      -0.312132      1.838561      1.206673
  N      -0.729026      2.377236      2.409219
  O      -0.633447      2.340094      0.129881
  H       0.653249      0.542433     -0.744699
  H       0.642794     -1.015822      0.116212
  H       2.097797      0.017365      0.152503
  H       0.703200      0.353880      2.226451
  H      -1.307891      3.199643      2.364953
  H      -0.488854      1.998666      3.310983
11
Coordinates from ORCA-job methylurea_opt_freq E -264.447400114610
  C       1.001055      0.020322      0.149859
  N       0.479094      0.714521      1.315650
  C      -0.310499      1.836796      1.207075
  N      -0.728953      2.376908      2.407587
  O      -0.630012      2.335429      0.128663
  H       0.647068      0.550322     -0.735348
  H       0.642641     -1.015341      0.111074
  H       2.097720      0.017881      0.146875
  H       0.704227      0.351913      2.229695
  H      -1.307573      3.199413      2.359642
  H      -0.490395      2.000628      3.310605
11
Coordinates from ORCA-job methylurea_opt_freq E -264.447398429856
  C       1.001040      0.020503      0.150668
  N       0.478996      0.713972      1.316517
  C      -0.310730      1.836182      1.206954
  N      -0.728653      2.376286      2.406816
  O      -0.629946      2.335033      0.128691
  H       0.646111      0.551832     -0.733594
  H       0.642505     -1.015014      0.110091
  H       2.097655      0.018428      0.146340
  H       0.704037      0.351927      2.230778
  H      -1.306760      3.199175      2.358178
  H      -0.489883      2.000468      3.309939
11
Coordinates from ORCA-job methylurea_opt_freq E -264.447404021975
  C       1.001004      0.020570      0.150836
  N       0.479076      0.713821      1.316763
  C      -0.310493      1.836278      1.206951
  N      -0.728641      2.375981      2.406621
  O      -0.630290      2.334962      0.128819
  H       0.646278      0.552139     -0.733398
  H       0.642069     -1.014797      0.109716
  H       2.097614      0.018284      0.146396
  H       0.704084      0.352263      2.231189
  H      -1.306740      3.198876      2.357722
  H      -0.489586      2.000415      3.309762
