18
Coordinates from ORCA-job phenylurea_opt_freq E -456.072196511306
  N       0.676605     -0.268403      0.046274
  C       0.192962     -0.589217     -1.169914
  O      -1.018085     -0.598014     -1.368868
  N       1.068881     -0.830398     -2.174944
  C       2.453902     -1.079171     -2.189192
  C       3.090735     -1.044686     -3.436854
  C       4.462337     -1.287355     -3.547219
  C       5.209507     -1.583726     -2.411150
  C       4.582062     -1.647790     -1.169550
  C       3.208985     -1.402634     -1.059570
  H      -0.046939      0.025341      0.690177
  H       1.494992      0.324203      0.043687
  H       0.596132     -0.864425     -3.070076
  H       2.529957     -0.814006     -4.339361
  H       4.944572     -1.247297     -4.520516
  H       6.275676     -1.778334     -2.494235
  H       5.157647     -1.905421     -0.283807
  H       2.753135     -1.523085     -0.082577
18
Coordinates from ORCA-job phenylurea_opt_freq E -456.075834034379
  N       0.672052     -0.248668      0.069449
  C       0.169858     -0.556674     -1.177383
  O      -1.044686     -0.630244     -1.386029
  N       1.065640     -0.832164     -2.187485
  C       2.455180     -1.082122     -2.199249
  C       3.100613     -1.038495     -3.447500
  C       4.469310     -1.289789     -3.553636
  C       5.219328     -1.588945     -2.413767
  C       4.582666     -1.650380     -1.172985
  C       3.209164     -1.405240     -1.061408
  H      -0.048892      0.050138      0.711905
  H       1.518527      0.308658      0.100276
  H       0.594110     -0.901614     -3.079629
  H       2.537346     -0.801529     -4.347388
  H       4.949948     -1.248308     -4.526815
  H       6.285689     -1.781655     -2.493499
  H       5.152440     -1.903971     -0.283785
  H       2.744772     -1.513417     -0.088766
18
Coordinates from ORCA-job phenylurea_opt_freq E -456.076503604579
  N       0.673148     -0.200920      0.065469
  C       0.156686     -0.576990     -1.167953
  O      -1.054557     -0.642154     -1.383908
  N       1.060372     -0.873247     -2.178925
  C       2.453923     -1.102855     -2.194184
  C       3.103318     -1.021640     -3.440742
  C       4.472041     -1.263136     -3.548991
  C       5.226574     -1.581816     -2.414273
  C       4.584403     -1.673285     -1.176988
  C       3.209041     -1.443757     -1.058930
  H      -0.044116      0.156946      0.682252
  H       1.539724      0.323913      0.078077
  H       0.585131     -0.976485     -3.065553
  H       2.534296     -0.765163     -4.331566
  H       4.950857     -1.195245     -4.521601
  H       6.294208     -1.763198     -2.495845
  H       5.151950     -1.940619     -0.290277
  H       2.736063     -1.574766     -0.093755
18
Coordinates from ORCA-job phenylurea_opt_freq E -456.076860707652
  N       0.697498     -0.176555      0.048575
  C       0.155006     -0.576263     -1.167149
  O      -1.053956     -0.652022     -1.363827
  N       1.051498     -0.902733     -2.179933
  C       2.445633     -1.117292     -2.197477
  C       3.102425     -1.008887     -3.438602
  C       4.472329     -1.240638     -3.540292
  C       5.223810     -1.571405     -2.405706
  C       4.572409     -1.683123     -1.174922
  C       3.195071     -1.467999     -1.060725
  H      -0.004039      0.223875      0.657810
  H       1.585661      0.308081      0.046670
  H       0.566733     -1.045168     -3.056193
  H       2.532198     -0.738082     -4.324162
  H       4.955153     -1.153368     -4.509698
  H       6.292771     -1.744068     -2.482732
  H       5.134331     -1.957709     -0.286232
  H       2.708534     -1.611063     -0.103100
18
Coordinates from ORCA-job phenylurea_opt_freq E -456.077093786676
  N       0.716025     -0.126055      0.021599
  C       0.156171     -0.577404     -1.163948
  O      -1.052416     -0.667003     -1.336158
  N       1.041840     -0.946883     -2.172642
  C       2.438497     -1.139136     -2.194118
  C       3.099685     -0.991834     -3.428546
  C       4.472551     -1.205916     -3.527495
  C       5.222100     -1.556328     -2.397897
  C       4.565415     -1.707038     -1.174806
  C       3.185320     -1.512838     -1.062758
  H       0.029378      0.320471      0.615412
  H       1.620397      0.325722     -0.005255
  H       0.546625     -1.137415     -3.034032
  H       2.526774     -0.701583     -4.305923
  H       4.958919     -1.087584     -4.492108
  H       6.293090     -1.715790     -2.473603
  H       5.124567     -1.999453     -0.289595
  H       2.688126     -1.688352     -0.115820
18
Coordinates from ORCA-job phenylurea_opt_freq E -456.077257060056
  N       0.740813     -0.088099     -0.007659
  C       0.161387     -0.578078     -1.163033
  O      -1.051110     -0.661767     -1.311180
  N       1.028731     -0.992358     -2.168268
  C       2.428635     -1.162443     -2.194543
  C       3.094842     -0.977399     -3.420298
  C       4.471384     -1.173945     -3.514194
  C       5.216282     -1.539213     -2.387168
  C       4.555184     -1.724792     -1.171477
  C       3.171879     -1.552790     -1.067053
  H       0.075976      0.399948      0.577387
  H       1.663517      0.323191     -0.056207
  H       0.522270     -1.223273     -3.013103
  H       2.521691     -0.671943     -4.292158
  H       4.963574     -1.027869     -4.472109
  H       6.289830     -1.683543     -2.459099
  H       5.112416     -2.028559     -0.288831
  H       2.665765     -1.751487     -0.128703
18
Coordinates from ORCA-job phenylurea_opt_freq E -456.077367128826
  N       0.757123     -0.050320     -0.033218
  C       0.166455     -0.575301     -1.164523
  O      -1.050651     -0.651679     -1.297551
  N       1.017622     -1.034620     -2.161494
  C       2.421775     -1.184035     -2.192639
  C       3.089457     -0.966258     -3.411184
  C       4.469453     -1.145666     -3.502965
  C       5.211751     -1.524519     -2.379519
  C       4.550071     -1.742691     -1.169061
  C       3.164208     -1.589583     -1.070293
  H       0.108561      0.465464      0.545243
  H       1.692070      0.329736     -0.095051
  H       0.503268     -1.296397     -2.992227
  H       2.516094     -0.649373     -4.278733
  H       4.965609     -0.975195     -4.454641
  H       6.287410     -1.654977     -2.449850
  H       5.108267     -2.057540     -0.291208
  H       2.654520     -1.811465     -0.138781
18
Coordinates from ORCA-job phenylurea_opt_freq E -456.077413650909
  N       0.765513     -0.035679     -0.044290
  C       0.168876     -0.572011     -1.167356
  O      -1.050911     -0.637315     -1.297857
  N       1.011338     -1.056696     -2.158310
  C       2.418133     -1.195920     -2.192280
  C       3.085789     -0.963433     -3.407448
  C       4.467592     -1.133717     -3.498307
  C       5.208977     -1.516761     -2.375864
  C       4.547688     -1.748903     -1.167072
  C       3.160520     -1.605522     -1.071590
  H       0.125121      0.488595      0.534942
  H       1.706791      0.328052     -0.107949
  H       0.494133     -1.326676     -2.984398
  H       2.513309     -0.643417     -4.274412
  H       4.965817     -0.952901     -4.446835
  H       6.285754     -1.639480     -2.445165
  H       5.107545     -2.066457     -0.291536
  H       2.651079     -1.836177     -0.141969
18
Coordinates from ORCA-job phenylurea_opt_freq E -456.077432743504
  N       0.767987     -0.030053     -0.048392
  C       0.169036     -0.568999     -1.169755
  O      -1.051382     -0.626214     -1.302411
  N       1.008743     -1.068075     -2.155777
  C       2.416828     -1.201726     -2.191311
  C       3.083547     -0.963781     -3.405588
  C       4.466127     -1.129393     -3.496726
  C       5.208164     -1.513061     -2.374855
  C       4.547581     -1.750777     -1.166337
  C       3.159868     -1.612042     -1.071385
  H       0.130080      0.495497      0.532183
  H       1.712125      0.326143     -0.109495
  H       0.491688     -1.336094     -2.982481
  H       2.511584     -0.643598     -4.272823
  H       4.964727     -0.944661     -4.444229
  H       6.285397     -1.632017     -2.444154
  H       5.109108     -2.068824     -0.292155
  H       2.651853     -1.846742     -0.142004
18
Coordinates from ORCA-job phenylurea_opt_freq E -456.077451968101
  N       0.769356     -0.027752     -0.051185
  C       0.168416     -0.565607     -1.172464
  O      -1.051831     -0.612182     -1.309365
  N       1.006847     -1.078924     -2.152679
  C       2.415685     -1.207124     -2.189866
  C       3.081062     -0.965733     -3.403952
  C       4.464243     -1.126892     -3.495681
  C       5.207773     -1.509562     -2.374349
  C       4.548066     -1.750773     -1.165800
  C       3.159935     -1.616496     -1.070456
  H       0.133132      0.498716      0.530279
  H       1.716630      0.320297     -0.107425
  H       0.491267     -1.338772     -2.982854
  H       2.509311     -0.646492     -4.271669
  H       4.962538     -0.939655     -4.442832
  H       6.285354     -1.625084     -2.443918
  H       5.111523     -2.068136     -0.292624
  H       2.653757     -1.854246     -0.140854
18
Coordinates from ORCA-job phenylurea_opt_freq E -456.077451909023
  N       0.769723     -0.027632     -0.052966
  C       0.167635     -0.562709     -1.174676
  O      -1.051980     -0.598825     -1.316047
  N       1.005713     -1.088256     -2.149463
  C       2.414696     -1.211631     -2.188224
  C       3.078813     -0.968250     -3.402538
  C       4.462410     -1.125494     -3.494873
  C       5.207758     -1.506391     -2.374101
  C       4.548914     -1.749830     -1.165541
  C       3.160498     -1.619567     -1.069316
  H       0.134943      0.501645      0.527516
  H       1.720277      0.311716     -0.103989
  H       0.492138     -1.337233     -2.984231
  H       2.506565     -0.650360     -4.270423
  H       4.959832     -0.936642     -4.442191
  H       6.285584     -1.619002     -2.444088
  H       5.113910     -2.066104     -0.292907
  H       2.655634     -1.859852     -0.139638
18
Coordinates from ORCA-job phenylurea_opt_freq E -456.077466102322
  N       0.769107     -0.029639     -0.052865
  C       0.167167     -0.561288     -1.175633
  O      -1.051916     -0.590763     -1.320176
  N       1.005469     -1.092824     -2.147634
  C       2.414173     -1.213717     -2.187291
  C       3.077687     -0.970412     -3.402073
  C       4.461429     -1.125598     -3.494682
  C       5.208011     -1.504632     -2.374118
  C       4.549715     -1.748280     -1.165456
  C       3.161203     -1.620064     -1.068533
  H       0.135356      0.503013      0.525691
  H       1.721956      0.303611     -0.100368
  H       0.493424     -1.332585     -2.986094
  H       2.504545     -0.653997     -4.269927
  H       4.957913     -0.936623     -4.442509
  H       6.285933     -1.615818     -2.444415
  H       5.115249     -2.063403     -0.292683
  H       2.656643     -1.861397     -0.138930
18
Coordinates from ORCA-job phenylurea_opt_freq E -456.077440179921
  N       0.768486     -0.031233     -0.052299
  C       0.167140     -0.560793     -1.175855
  O      -1.051760     -0.586866     -1.322211
  N       1.005444     -1.094931     -2.146768
  C       2.413887     -1.214709     -2.186904
  C       3.077241     -0.971663     -3.401974
  C       4.461032     -1.125757     -3.494616
  C       5.208210     -1.503592     -2.374084
  C       4.550243     -1.747294     -1.165380
  C       3.161680     -1.620191     -1.068233
  H       0.135776      0.504943      0.524150
  H       1.722853      0.297946     -0.098205
  H       0.494016     -1.329402     -2.987134
  H       2.503198     -0.656212     -4.269605
  H       4.956848     -0.936803     -4.442813
  H       6.286195     -1.613963     -2.444536
  H       5.115735     -2.061738     -0.292314
  H       2.656841     -1.862161     -0.138913
18
Coordinates from ORCA-job phenylurea_opt_freq E -456.077465133254
  N       0.768099     -0.032822     -0.051487
  C       0.167276     -0.560309     -1.176113
  O      -1.051581     -0.583396     -1.324202
  N       1.005308     -1.096241     -2.146396
  C       2.413641     -1.215542     -2.186815
  C       3.076903     -0.972816     -3.402090
  C       4.460762     -1.125987     -3.494675
  C       5.208265     -1.502681     -2.374001
  C       4.550572     -1.746391     -1.165187
  C       3.161932     -1.620187     -1.068094
  H       0.136448      0.506151      0.523522
  H       1.723676      0.293130     -0.096232
  H       0.494111     -1.327090     -2.987916
  H       2.502224     -0.658263     -4.269648
  H       4.956178     -0.937128     -4.443101
  H       6.286330     -1.612249     -2.444490
  H       5.116009     -2.060117     -0.291835
  H       2.656912     -1.862478     -0.138935
18
Coordinates from ORCA-job phenylurea_opt_freq E -456.077460251129
  N       0.767900     -0.032727     -0.051182
  C       0.167354     -0.560552     -1.175919
  O      -1.051595     -0.584786     -1.323782
  N       1.005452     -1.095436     -2.146624
  C       2.413814     -1.215036     -2.186913
  C       3.077148     -0.972467     -3.402185
  C       4.460960     -1.126042     -3.494771
  C       5.208292     -1.503016     -2.374072
  C       4.550586     -1.746584     -1.165216
  C       3.161972     -1.619914     -1.068188
  H       0.136129      0.506194      0.523728
  H       1.723146      0.294156     -0.096536
  H       0.493966     -1.327475     -2.987625
  H       2.502461     -0.657807     -4.269698
  H       4.956437     -0.937338     -4.443186
  H       6.286331     -1.612893     -2.444590
  H       5.115866     -2.060548     -0.291864
  H       2.656844     -1.862147     -0.139072
