18
Coordinates from ORCA-job phenylurea_opt_freq E -456.077460251129
  N           0.76789961731610     -0.03272658177363     -0.05118173275649
  C           0.16735369978536     -0.56055231549166     -1.17591883667142
  O          -1.05159455012314     -0.58478623650262     -1.32378220506930
  N           1.00545175450497     -1.09543583825590     -2.14662398687904
  C           2.41381366856689     -1.21503594285967     -2.18691298813217
  C           3.07714797797050     -0.97246671888379     -3.40218487577974
  C           4.46095993521595     -1.12604232819349     -3.49477104779619
  C           5.20829155966512     -1.50301590908236     -2.37407190716651
  C           4.55058617175809     -1.74658427329211     -1.16521610722029
  C           3.16197173388402     -1.61991366238745     -1.06818822944074
  H           0.13612894784252      0.50619421738592      0.52372847250226
  H           1.72314619505328      0.29415580141537     -0.09653612764587
  H           0.49396625775681     -1.32747450630893     -2.98762467345161
  H           2.50246124971211     -0.65780744344193     -4.26969827319864
  H           4.95643707959742     -0.93733792370323     -4.44318649539896
  H           6.28633113326145     -1.61289339969611     -2.44458959563574
  H           5.11586649488610     -2.06054835084631     -0.29186437426892
  H           2.65684407334642     -1.86214658808208     -0.13907201599062
