10
Coordinates from ORCA-job semicarbazide_opt_freq E -280.461660208239
  N           1.03569670061196      0.41780320667294      0.14126320632172
  N           0.70948188870455     -0.20002596615944      1.36077644521616
  C          -0.38368171321099      0.23274932498752      2.10648302499371
  O          -0.80711422231506     -0.44230384514757      3.04231430367582
  N          -0.88363514878945      1.45223148915056      1.74619751673175
  H           2.02749251426280      0.63543967739625      0.11278468520255
  H           0.78960867099736     -0.16596540770319     -0.65557214355567
  H           0.95692447585424     -1.16932741277414      1.52361361494234
  H          -0.56518527599181      1.89706141254220      0.89836577342987
  H          -1.71898889012360      1.76310852103487      2.21399757304174
