10
Coordinates from ORCA-job semicarbazide_opt_freq E -280.447751518309
  N       0.897232      0.301904     -0.002633
  N       0.464330     -0.363902      1.166715
  C      -0.348597      0.238148      2.099438
  O      -0.725872     -0.320711      3.119725
  N      -0.688410      1.517578      1.796774
  H       1.470885      1.095878      0.300792
  H       1.540092     -0.313458     -0.507039
  H       0.705783     -1.335303      1.350924
  H      -0.726456      1.695239      0.801476
  H      -1.428388      1.905398      2.364052
10
Coordinates from ORCA-job semicarbazide_opt_freq E -280.451498079973
  N       0.915784      0.326955      0.014475
  N       0.479129     -0.357314      1.186188
  C      -0.363458      0.227386      2.099898
  O      -0.702526     -0.343827      3.135568
  N      -0.717495      1.524653      1.784827
  H       1.575520      1.052154      0.312495
  H       1.463389     -0.322003     -0.544023
  H       0.724286     -1.320783      1.355067
  H      -0.754059      1.731027      0.791143
  H      -1.459972      1.902523      2.354585
10
Coordinates from ORCA-job semicarbazide_opt_freq E -280.453645215850
  N       0.934045      0.353120      0.036460
  N       0.505028     -0.340585      1.210793
  C      -0.358545      0.232609      2.110010
  O      -0.703921     -0.360132      3.133699
  N      -0.741032      1.530361      1.780883
  H       1.681351      0.996329      0.311200
  H       1.360200     -0.325834     -0.585899
  H       0.752032     -1.304972      1.363923
  H      -0.759025      1.761303      0.793149
  H      -1.509535      1.878572      2.336005
10
Coordinates from ORCA-job semicarbazide_opt_freq E -280.455572689985
  N       0.953173      0.372581      0.057745
  N       0.530378     -0.323920      1.232052
  C      -0.365472      0.234302      2.110297
  O      -0.713004     -0.367502      3.126911
  N      -0.759790      1.530330      1.780326
  H       1.768710      0.939167      0.300186
  H       1.259997     -0.318200     -0.619641
  H       0.789145     -1.286924      1.380871
  H      -0.752121      1.788286      0.800835
  H      -1.550416      1.852652      2.320641
10
Coordinates from ORCA-job semicarbazide_opt_freq E -280.458365321232
  N       0.986513      0.394828      0.090154
  N       0.571629     -0.296648      1.262637
  C      -0.368780      0.241892      2.112972
  O      -0.737269     -0.374204      3.110619
  N      -0.785257      1.525682      1.782505
  H       1.886527      0.840451      0.268529
  H       1.103532     -0.281043     -0.658400
  H       0.844737     -1.257137      1.412684
  H      -0.729037      1.820484      0.816826
  H      -1.611996      1.806466      2.291698
10
Coordinates from ORCA-job semicarbazide_opt_freq E -280.460780224299
  N       1.024956      0.413926      0.126464
  N       0.623258     -0.258796      1.296690
  C      -0.377102      0.247604      2.109059
  O      -0.773335     -0.386693      3.081507
  N      -0.816859      1.512053      1.785168
  H       2.000811      0.688756      0.203603
  H       0.913230     -0.198261     -0.676827
  H       0.928429     -1.208084      1.469897
  H      -0.678201      1.862472      0.848510
  H      -1.684589      1.747794      2.246153
10
Coordinates from ORCA-job semicarbazide_opt_freq E -280.461246202370
  N       1.037716      0.416774      0.137792
  N       0.648914     -0.240132      1.316935
  C      -0.378626      0.245305      2.110188
  O      -0.798076     -0.406426      3.062452
  N      -0.829735      1.501548      1.785569
  H       2.031949      0.629388      0.159333
  H       0.828649     -0.153261     -0.679348
  H       0.968640     -1.180372      1.512767
  H      -0.634267      1.878594      0.869261
  H      -1.714566      1.729353      2.215275
10
Coordinates from ORCA-job semicarbazide_opt_freq E -280.461415997014
  N       1.033499      0.413310      0.134017
  N       0.653071     -0.234911      1.319555
  C      -0.381380      0.240585      2.108629
  O      -0.804720     -0.417861      3.055768
  N      -0.833781      1.496942      1.787272
  H       2.025210      0.636360      0.149341
  H       0.824343     -0.159029     -0.681700
  H       0.974914     -1.172051      1.527384
  H      -0.613349      1.879712      0.878778
  H      -1.717209      1.737713      2.211182
10
Coordinates from ORCA-job semicarbazide_opt_freq E -280.461520128020
  N       1.029130      0.409975      0.130214
  N       0.656099     -0.230741      1.319867
  C      -0.382324      0.237058      2.108429
  O      -0.803596     -0.427774      3.052961
  N      -0.840789      1.490942      1.786701
  H       2.016448      0.651040      0.145027
  H       0.828971     -0.167964     -0.682894
  H       0.970291     -1.169114      1.534966
  H      -0.595918      1.875638      0.884964
  H      -1.717712      1.751711      2.209990
10
Coordinates from ORCA-job semicarbazide_opt_freq E -280.461545673928
  N       1.029850      0.410302      0.131128
  N       0.658040     -0.229714      1.320614
  C      -0.382479      0.236600      2.108809
  O      -0.799096     -0.428641      3.055008
  N      -0.845073      1.487291      1.783647
  H       2.016581      0.653478      0.145338
  H       0.828782     -0.166625     -0.682281
  H       0.964925     -1.171110      1.533700
  H      -0.593138      1.873038      0.884338
  H      -1.717795      1.756152      2.209923
10
Coordinates from ORCA-job semicarbazide_opt_freq E -280.461558900130
  N       1.031706      0.412012      0.134138
  N       0.663091     -0.227761      1.324200
  C      -0.382017      0.236709      2.110427
  O      -0.793045     -0.428978      3.058405
  N      -0.851888      1.480625      1.776762
  H       2.018528      0.654339      0.144963
  H       0.824851     -0.161991     -0.679762
  H       0.956879     -1.175132      1.529603
  H      -0.589713      1.870523      0.882372
  H      -1.717793      1.760427      2.209115
10
Coordinates from ORCA-job semicarbazide_opt_freq E -280.461583673348
  N       1.032961      0.413580      0.136865
  N       0.669784     -0.224779      1.329633
  C      -0.382361      0.236353      2.111013
  O      -0.791402     -0.429741      3.059328
  N      -0.857809      1.474358      1.770002
  H       2.020385      0.653094      0.142169
  H       0.818967     -0.158988     -0.676273
  H       0.953359     -1.177134      1.526455
  H      -0.585863      1.871551      0.882089
  H      -1.717422      1.762477      2.208942
10
Coordinates from ORCA-job semicarbazide_opt_freq E -280.461624979955
  N       1.034359      0.415811      0.140652
  N       0.684176     -0.217336      1.341478
  C      -0.382969      0.235424      2.111021
  O      -0.794022     -0.432896      3.056770
  N      -0.867847      1.464069      1.758804
  H       2.023116      0.648965      0.133547
  H       0.807114     -0.157323     -0.668735
  H       0.951479     -1.177553      1.522559
  H      -0.577976      1.877418      0.884622
  H      -1.716833      1.764191      2.209507
10
Coordinates from ORCA-job semicarbazide_opt_freq E -280.461647598517
  N       1.035407      0.417663      0.143530
  N       0.702145     -0.206608      1.355993
  C      -0.383815      0.233807      2.109208
  O      -0.800885     -0.438222      3.049794
  N      -0.878968      1.453704      1.747442
  H       2.025753      0.642236      0.120829
  H       0.793390     -0.159364     -0.659145
  H       0.952573     -1.174560      1.520365
  H      -0.568470      1.887365      0.890894
  H      -1.716531      1.764749      2.211313
10
Coordinates from ORCA-job semicarbazide_opt_freq E -280.461669150300
  N       1.035752      0.418072      0.143203
  N       0.709639     -0.201179      1.361677
  C      -0.383923      0.232923      2.107669
  O      -0.805594     -0.441377      3.044752
  N      -0.883531      1.450745      1.744245
  H       2.026985      0.637904      0.114243
  H       0.788687     -0.162809     -0.655346
  H       0.954846     -1.171526      1.521189
  H      -0.564981      1.893627      0.895435
  H      -1.717280      1.764392      2.213156
10
Coordinates from ORCA-job semicarbazide_opt_freq E -280.461667337849
  N       1.035686      0.417829      0.141728
  N       0.709825     -0.200123      1.361320
  C      -0.383871      0.232639      2.106721
  O      -0.807229     -0.442236      3.042698
  N      -0.883785      1.451741      1.745571
  H       2.027319      0.636018      0.112833
  H       0.789236     -0.165297     -0.655438
  H       0.956824     -1.169743      1.523059
  H      -0.564997      1.896277      0.897675
  H      -1.718409      1.763665      2.214057
10
Coordinates from ORCA-job semicarbazide_opt_freq E -280.461660208239
  N       1.035697      0.417803      0.141263
  N       0.709482     -0.200026      1.360776
  C      -0.383682      0.232749      2.106483
  O      -0.807114     -0.442304      3.042314
  N      -0.883635      1.452231      1.746198
  H       2.027493      0.635440      0.112785
  H       0.789609     -0.165965     -0.655572
  H       0.956924     -1.169327      1.523614
  H      -0.565185      1.897061      0.898366
  H      -1.718989      1.763109      2.213998
