8
Coordinates from ORCA-job thiourea_opt_freq E -548.083495549567
  N       0.844715     -0.080872     -0.020666
  C       0.223254     -0.693733      1.003916
  N      -1.121412     -0.663579      0.953503
  S       1.049119     -1.428025      2.231504
  H       0.347524      0.369417     -0.773459
  H       1.857041     -0.068224     -0.041811
  H      -1.648913     -1.107294      1.695306
  H      -1.632483     -0.217404      0.207587
8
Coordinates from ORCA-job thiourea_opt_freq E -548.084600318446
  N       0.854047     -0.075710     -0.029328
  C       0.224192     -0.694617      1.005259
  N      -1.134783     -0.665158      0.956093
  S       1.058427     -1.436284      2.245512
  H       0.361066      0.376831     -0.785728
  H       1.860443     -0.066901     -0.044147
  H      -1.652873     -1.108177      1.696662
  H      -1.651674     -0.219698      0.211557
8
Coordinates from ORCA-job thiourea_opt_freq E -548.084691070819
  N       0.854424     -0.074007     -0.032158
  C       0.223413     -0.693860      1.004114
  N      -1.137818     -0.664474      0.954943
  S       1.061222     -1.438771      2.249769
  H       0.363507      0.378942     -0.789207
  H       1.861643     -0.068356     -0.041895
  H      -1.651102     -1.109486      1.698661
  H      -1.656445     -0.219702      0.211654
8
Coordinates from ORCA-job thiourea_opt_freq E -548.084697622548
  N       0.853952     -0.073382     -0.033215
  C       0.222253     -0.692848      1.002358
  N      -1.138636     -0.663962      0.954042
  S       1.061530     -1.439042      2.250301
  H       0.364759      0.380017     -0.790981
  H       1.861261     -0.070435     -0.038445
  H      -1.647384     -1.110372      1.700098
  H      -1.658891     -0.219691      0.211722
8
Coordinates from ORCA-job thiourea_opt_freq E -548.084703423994
  N       0.853774     -0.073070     -0.033718
  C       0.221175     -0.691858      1.000762
  N      -1.139055     -0.663739      0.953637
  S       1.060890     -1.438489      2.249387
  H       0.366040      0.380700     -0.792154
  H       1.861205     -0.072150     -0.035608
  H      -1.644457     -1.111222      1.701465
  H      -1.660727     -0.219886      0.212110
8
Coordinates from ORCA-job thiourea_opt_freq E -548.084703801675
  N       0.853865     -0.073011     -0.033815
  C       0.220826     -0.691573      1.000225
  N      -1.139198     -0.663768      0.953638
  S       1.060437     -1.438088      2.248724
  H       0.366612      0.380886     -0.792501
  H       1.861293     -0.072639     -0.034738
  H      -1.643628     -1.111504      1.701967
  H      -1.661362     -0.220017      0.212380
