8
Coordinates from ORCA-job thiourea_opt_freq E -548.084703801675
  N           0.85386477582166     -0.07301068880140     -0.03381519162044
  C           0.22082586702874     -0.69157296904721      1.00022507897907
  N          -1.13919758265446     -0.66376828099004      0.95363848153541
  S           1.06043710642173     -1.43808844458819      2.24872422471525
  H           0.36661231772759      0.38088589603472     -0.79250135125114
  H           1.86129277249525     -0.07263852015642     -0.03473821029226
  H          -1.64362777291400     -1.11150361163401      1.70196653354521
  H          -1.66136248392652     -0.22001738081745      0.21238043438890
