%chk=urea_thymine_cp.chk
%mem=8GB
%nprocshared=8
#p B3LYP/6-31+G(d,p) Counterpoise=2

Urea-thymine BSSE correction on optimized complex geometry

0 1 0 1 0 1
O(Fragment=1)     1.664888     3.907639     1.501100
N(Fragment=1)     2.385320     1.722497     1.501100
N(Fragment=1)     3.916536     3.434416     1.501100
C(Fragment=1)     2.581078     3.088020     1.500700
H(Fragment=1)     3.165065     1.073542     1.500800
H(Fragment=1)     1.452035     1.324666     1.501100
H(Fragment=1)     4.208132     4.406017     1.501200
H(Fragment=1)     4.648046     2.731605     1.501000
O(Fragment=2)    -1.519300     1.806700    -0.000900
O(Fragment=2)     2.839400     0.291300    -0.000700
N(Fragment=2)     0.664300     1.062300     0.001100
N(Fragment=2)     1.114800    -1.231600    -0.000200
C(Fragment=2)    -1.161200    -0.543200     0.000200
C(Fragment=2)    -0.712900     0.880200     0.000400
C(Fragment=2)    -0.226000    -1.501300    -0.000100
C(Fragment=2)    -2.630000    -0.818900    -0.000100
C(Fragment=2)     1.631000     0.054500     0.000300
H(Fragment=2)    -0.478700    -2.555300    -0.000400
H(Fragment=2)     1.001400     2.020900     0.001100
H(Fragment=2)     1.756400    -2.019100    -0.000900
H(Fragment=2)    -3.100400    -0.386000    -0.888900
H(Fragment=2)    -3.100600    -0.386200     0.888700
H(Fragment=2)    -2.843300    -1.893100    -0.000300
