%chk=urea_cytosine_cp.chk
%mem=8GB
%nprocshared=8
#p B3LYP/6-31+G(d,p) Counterpoise=2

Urea-cytosine BSSE correction on optimized complex geometry

0 1 0 1 0 1
O(Fragment=1)    -2.475240     3.933079     1.501588
N(Fragment=1)    -0.919863     2.237594     1.501588
N(Fragment=1)    -0.228213     4.427779     1.501588
C(Fragment=1)    -1.303033     3.562794     1.501188
H(Fragment=1)     0.057782     1.966755     1.501288
H(Fragment=1)    -1.606944     1.491130     1.501588
H(Fragment=1)    -0.362016     5.433330     1.501688
H(Fragment=1)     0.727616     4.088010     1.501488
O(Fragment=2)     2.213400     1.118800     0.000100
N(Fragment=2)    -0.059500     0.981600     0.000100
N(Fragment=2)    -2.442200     0.921400     0.000100
N(Fragment=2)     1.293500    -0.974400     0.000000
C(Fragment=2)    -1.240600     0.267600    -0.000100
C(Fragment=2)    -1.164300    -1.072600    -0.000200
C(Fragment=2)     1.208800     0.405600    -0.000300
C(Fragment=2)     0.190800    -1.647800     0.000300
H(Fragment=2)    -0.133100     1.994600     0.000300
H(Fragment=2)    -2.022300    -1.731700    -0.000300
H(Fragment=2)     0.235100    -2.748700     0.000500
H(Fragment=2)    -3.308900     0.398400     0.000300
H(Fragment=2)    -2.453300     1.933200     0.000600
