%chk=urea_guanine_cp.chk
%mem=8GB
%nprocshared=8
#p B3LYP/6-31+G(d,p) Counterpoise=2

Urea-guanine BSSE correction on optimized complex geometry

0 1 0 1 0 1
O(Fragment=1)     3.755083    -3.941792     1.500797
N(Fragment=1)     5.987497    -3.384841     1.500797
N(Fragment=1)     4.393436    -1.731280     1.500797
C(Fragment=1)     4.640178    -3.088689     1.500397
H(Fragment=1)     6.692309    -2.655194     1.500497
H(Fragment=1)     6.315258    -4.344977     1.500797
H(Fragment=1)     3.446046    -1.368669     1.500897
H(Fragment=1)     5.148393    -1.053718     1.500697
O(Fragment=2)     0.192100     2.665900    -0.000400
N(Fragment=2)    -2.071500     0.658800     0.000600
N(Fragment=2)     1.574000     0.803100     0.000100
N(Fragment=2)     0.756600    -1.453600    -0.000300
N(Fragment=2)    -1.719400    -1.543200    -0.000600
N(Fragment=2)     3.054900    -1.010000     0.000500
C(Fragment=2)    -0.718000     0.488500    -0.000100
C(Fragment=2)    -0.524500    -0.873100    -0.000400
C(Fragment=2)     0.338300     1.448600    -0.000100
C(Fragment=2)     1.748300    -0.592400     0.000000
C(Fragment=2)    -2.630800    -0.592600     0.000500
H(Fragment=2)    -2.570600     1.538600     0.001200
H(Fragment=2)     2.407800     1.383500     0.000300
H(Fragment=2)    -3.701500    -0.739200     0.001000
H(Fragment=2)     3.290500    -1.996500     0.000600
H(Fragment=2)     3.822300    -0.347100     0.000800
