%chk=urea_adenine_cp.chk
%mem=8GB
%nprocshared=8
#p B3LYP/6-31+G(d,p) Counterpoise=2

Urea-adenine BSSE correction on optimized complex geometry

0 1 0 1 0 1
O(Fragment=1)     4.826421    -2.204726     1.500893
N(Fragment=1)     5.433974     0.014452     1.500893
N(Fragment=1)     3.211653    -0.565706     1.500893
C(Fragment=1)     4.516007    -1.015263     1.500493
H(Fragment=1)     5.142922     0.986271     1.500593
H(Fragment=1)     6.431618    -0.169929     1.500893
H(Fragment=1)     2.431576    -1.214178     1.500993
H(Fragment=1)     2.990569     0.424330     1.500793
N(Fragment=2)    -1.199000    -1.399700     0.000000
N(Fragment=2)    -2.075200     0.649900     0.000000
N(Fragment=2)     0.033700     1.859400    -0.000100
N(Fragment=2)     1.999800     0.415000     0.000000
N(Fragment=2)     1.824100    -1.976000     0.000000
C(Fragment=2)    -0.135900    -0.542100     0.000100
C(Fragment=2)    -0.705600     0.724100     0.000100
C(Fragment=2)     1.235900    -0.700400     0.000000
C(Fragment=2)    -2.338600    -0.639400     0.000000
C(Fragment=2)     1.360700     1.609200     0.000000
H(Fragment=2)    -1.156600    -2.410300    -0.000200
H(Fragment=2)    -3.322500    -1.086400    -0.000100
H(Fragment=2)     2.003400     2.483100    -0.000100
H(Fragment=2)     2.832200    -2.052800     0.000300
H(Fragment=2)     1.250300    -2.808200     0.000400
