%chk=urea_uracil_cp.chk
%mem=8GB
%nprocshared=8
#p B3LYP/6-31+G(d,p) Counterpoise=2

Urea-uracil BSSE correction on optimized complex geometry

0 1 0 1 0 1
O(Fragment=1)     0.077964     4.035305     1.500097
N(Fragment=1)     1.444605     2.184315     1.500097
N(Fragment=1)     2.364804     4.288722     1.500097
C(Fragment=1)     1.204249     3.542699     1.499697
H(Fragment=1)     2.387983     1.811244     1.499797
H(Fragment=1)     0.682178     1.514991     1.500097
H(Fragment=1)     2.338481     5.302794     1.500197
H(Fragment=1)     3.279172     3.849425     1.499997
O(Fragment=2)     2.326400     0.965100     0.000100
O(Fragment=2)    -2.297200     1.023200     0.000500
N(Fragment=2)     0.018000     1.019900    -0.000200
N(Fragment=2)     1.163700    -1.022100     0.000100
C(Fragment=2)     1.252400     0.362900     0.000000
C(Fragment=2)    -1.231500     0.414100    -0.000400
C(Fragment=2)    -0.026800    -1.695500     0.000200
C(Fragment=2)    -1.204900    -1.067600    -0.000200
H(Fragment=2)     0.038200     2.035700    -0.000100
H(Fragment=2)     2.018700    -1.570200     0.000400
H(Fragment=2)    -2.144300    -1.606300    -0.000200
H(Fragment=2)     0.046900    -2.776100     0.000400
