24
Coordinates from ORCA-job biuret_uracil_opt_freq E -808.450095246627
  N           4.00077554514783      4.36269589100466      2.53009157739830
  C           3.08546843888903      3.99693499234063      3.49937360248218
  O           2.94016075436247      4.60408949726345      4.54834469285358
  N           2.28703407047486      2.88056637561000      3.21127417347016
  C           2.04383762272220      2.14404036557784      2.04773059334314
  O           1.43353684411010      1.07391163855744      2.16941505648996
  N           2.43310059102102      2.64595520085727      0.84865154245338
  H           4.63558189696323      5.08597791397293      2.84236312793469
  H           4.42890222640055      3.63757382205259      1.96738615011160
  H           1.76775439031519      2.54196039579889      4.01135629815546
  H           2.62768646343641      3.63344488701866      0.75668818114042
  H           2.04339640057736      2.15714863579579      0.03559035382096
  O           0.97049196518234      1.18890316579210     -1.27688754222471
  O          -1.72241699798858     -2.10817529897513     -2.96828528912854
  N          -0.40359060144847     -0.46239452290043     -2.08397725491064
  N           0.10385514566028     -0.36203648242939      0.17693351021921
  C           0.27545834256166      0.18767983578104     -1.07486462266842
  C          -1.20780458026702     -1.62232588393055     -1.96912218631355
  C          -0.67401582538692     -1.47201330781312      0.39729670919201
  C          -1.32737253920442     -2.11221604383918     -0.60364801662175
  H          -0.27105044033285     -0.09405123680551     -3.01705348404129
  H           0.59936401608915      0.11763517070567      0.94640719466262
  H          -1.93632210082980     -2.98800856719549     -0.42524764913028
  H          -0.72521762845574     -1.79822844424028      1.43082228131147
