24
Coordinates from ORCA-job biuret_uracil_opt_freq E -808.089690676035
  N       2.323253      4.330054      1.499999
  C       1.247118      3.527831      1.499997
  O       0.123326      4.025683      1.499991
  N       1.397925      2.167473      1.500001
  C       2.368351      1.202284      1.500007
  O       2.058002      0.012979      1.500008
  N       3.666201      1.544648      1.500011
  H       2.131865      5.324158      1.499996
  H       3.280509      4.047174      1.500004
  H       0.486634      1.728105      1.499998
  H       4.041032      2.469777      1.500011
  H       4.324798      0.775802      1.500016
  O       2.326400      0.965100      0.000100
  O      -2.297200      1.023200      0.000500
  N       0.018000      1.019900     -0.000200
  N       1.163700     -1.022100      0.000100
  C       1.252400      0.362900      0.000000
  C      -1.231500      0.414100     -0.000400
  C      -0.026800     -1.695500      0.000200
  C      -1.204900     -1.067600     -0.000200
  H       0.038200      2.035700     -0.000100
  H       2.018700     -1.570200      0.000400
  H      -2.144300     -1.606300     -0.000200
  H       0.046900     -2.776100      0.000400
24
Coordinates from ORCA-job biuret_uracil_opt_freq E -808.164617399858
  N       2.311496      4.387091      1.505423
  C       1.243846      3.556323      1.506499
  O       0.103358      4.022134      1.498280
  N       1.415060      2.193724      1.511810
  C       2.406488      1.218376      1.512122
  O       2.081970      0.002352      1.541714
  N       3.726853      1.572862      1.534619
  H       2.099313      5.375247      1.499441
  H       3.276349      4.123556      1.509913
  H       0.512355      1.730257      1.507838
  H       4.099209      2.500246      1.534465
  H       4.386669      0.808586      1.553430
  O       2.343302      0.938991     -0.049477
  O      -2.285501      1.042689      0.021389
  N       0.024412      0.981845     -0.009537
  N       1.131101     -1.075546     -0.036797
  C       1.249419      0.317536     -0.022906
  C      -1.243560      0.396378      0.006025
  C      -0.069308     -1.730493     -0.026297
  C      -1.243160     -1.078362     -0.002679
  H       0.065865      1.996577     -0.012727
  H       1.976901     -1.630663     -0.052461
  H      -2.192382     -1.597713      0.006630
  H      -0.011440     -2.812921     -0.036077
24
Coordinates from ORCA-job biuret_uracil_opt_freq E -808.217077292283
  N       2.315457      4.416580      1.512010
  C       1.243817      3.578294      1.517808
  O       0.095997      4.026989      1.506978
  N       1.419746      2.212707      1.525606
  C       2.426662      1.233373      1.520138
  O       2.096841      0.004957      1.583733
  N       3.751173      1.598938      1.559264
  H       2.100650      5.402808      1.502347
  H       3.282440      4.152639      1.516205
  H       0.522153      1.734747      1.522211
  H       4.115968      2.531370      1.557569
  H       4.414103      0.839957      1.593513
  O       2.342641      0.915367     -0.109450
  O      -2.272328      1.058857      0.034486
  N       0.029141      0.950083     -0.025889
  N       1.111785     -1.107924     -0.068093
  C       1.242321      0.281244     -0.050524
  C      -1.254561      0.378909      0.008569
  C      -0.093284     -1.754414     -0.042612
  C      -1.266647     -1.087913      0.000183
  H       0.089251      1.964021     -0.037679
  H       1.958151     -1.658731     -0.093348
  H      -2.220935     -1.596107      0.022104
  H      -0.041926     -2.837684     -0.054489
24
Coordinates from ORCA-job biuret_uracil_opt_freq E -808.274574691714
  N       2.330329      4.441741      1.517224
  C       1.250188      3.604875      1.535584
  O       0.100766      4.045424      1.523684
  N       1.422803      2.232845      1.551691
  C       2.443548      1.253098      1.537952
  O       2.115237      0.028949      1.652372
  N       3.762537      1.627083      1.590785
  H       2.119639      5.427908      1.499735
  H       3.295695      4.169626      1.518988
  H       0.528538      1.747974      1.553294
  H       4.118556      2.563722      1.580925
  H       4.427812      0.872356      1.643063
  O       2.322108      0.877477     -0.196833
  O      -2.261591      1.070350      0.049818
  N       0.028656      0.914733     -0.052392
  N       1.094503     -1.137396     -0.111967
  C       1.227701      0.240895     -0.093539
  C      -1.270521      0.356134      0.009860
  C      -0.112933     -1.779441     -0.063135
  C      -1.285969     -1.102781      0.004486
  H       0.109892      1.926998     -0.075541
  H       1.947774     -1.675608     -0.146417
  H      -2.242485     -1.604908      0.045462
  H      -0.064170     -2.862986     -0.074461
24
Coordinates from ORCA-job biuret_uracil_opt_freq E -808.331658078057
  N       2.366867      4.462619      1.516841
  C       1.271560      3.640105      1.557550
  O       0.127784      4.088543      1.542730
  N       1.428602      2.257984      1.598701
  C       2.455193      1.278852      1.583163
  O       2.132511      0.083553      1.754756
  N       3.763426      1.656674      1.636272
  H       2.169442      5.450524      1.481265
  H       3.327035      4.172677      1.517724
  H       0.532733      1.779637      1.609497
  H       4.113747      2.595434      1.602714
  H       4.428847      0.903691      1.702488
  O       2.275497      0.825700     -0.303077
  O      -2.271496      1.056967      0.069179
  N       0.008203      0.879805     -0.088273
  N       1.079415     -1.161162     -0.174148
  C       1.201840      0.204873     -0.158848
  C      -1.299208      0.321600      0.007366
  C      -0.125846     -1.808571     -0.093986
  C      -1.300329     -1.132532      0.002008
  H       0.100658      1.890566     -0.115479
  H       1.946702     -1.676365     -0.212192
  H      -2.252760     -1.640335      0.066730
  H      -0.071808     -2.891771     -0.102341
24
Coordinates from ORCA-job biuret_uracil_opt_freq E -808.367520397694
  N       2.405310      4.484191      1.510592
  C       1.300743      3.674152      1.572148
  O       0.164004      4.135133      1.546227
  N       1.443735      2.284775      1.654055
  C       2.466291      1.303394      1.654066
  O       2.139762      0.138369      1.852256
  N       3.772096      1.679639      1.690146
  H       2.216007      5.472337      1.448280
  H       3.361354      4.183834      1.518296
  H       0.542618      1.819708      1.672591
  H       4.124339      2.614946      1.619709
  H       4.435405      0.924391      1.754615
  O       2.233197      0.784028     -0.389615
  O      -2.299665      1.020266      0.090936
  N      -0.025622      0.855447     -0.119403
  N       1.063659     -1.181237     -0.238616
  C       1.176762      0.185592     -0.230488
  C      -1.330066      0.285148      0.001908
  C      -0.137288     -1.837595     -0.128398
  C      -1.311980     -1.168694     -0.010093
  H       0.058629      1.866747     -0.136487
  H       1.942872     -1.677058     -0.273254
  H      -2.257065     -1.688151      0.074815
  H      -0.076483     -2.920294     -0.133646
24
Coordinates from ORCA-job biuret_uracil_opt_freq E -808.384911993161
  N       2.422857      4.501293      1.507813
  C       1.319449      3.692892      1.576055
  O       0.184861      4.156519      1.528274
  N       1.462263      2.303852      1.694426
  C       2.481472      1.323437      1.718734
  O       2.147482      0.164465      1.913413
  N       3.789975      1.699238      1.736035
  H       2.231468      5.487285      1.420084
  H       3.379320      4.203621      1.531833
  H       0.558128      1.844493      1.715206
  H       4.143985      2.630717      1.634045
  H       4.453149      0.942441      1.789470
  O       2.216431      0.760788     -0.448625
  O      -2.318601      0.991977      0.110893
  N      -0.047408      0.840389     -0.140279
  N       1.046186     -1.200238     -0.287058
  C       1.160061      0.174796     -0.286160
  C      -1.345301      0.264250     -0.001050
  C      -0.152376     -1.858140     -0.152985
  C      -1.323484     -1.191204     -0.018349
  H       0.026751      1.853202     -0.146757
  H       1.928514     -1.691360     -0.320392
  H      -2.265022     -1.714815      0.082083
  H      -0.091546     -2.940831     -0.156072
24
Coordinates from ORCA-job biuret_uracil_opt_freq E -808.393648120727
  N       2.432960      4.513583      1.511941
  C       1.332039      3.704308      1.575619
  O       0.197866      4.166882      1.503760
  N       1.477050      2.318433      1.718996
  C       2.492586      1.340690      1.763449
  O       2.153664      0.178314      1.949571
  N       3.803101      1.713273      1.766101
  H       2.239279      5.497387      1.405252
  H       3.390491      4.221189      1.556577
  H       0.571772      1.861493      1.739290
  H       4.159065      2.641250      1.640303
  H       4.465469      0.954721      1.808459
  O       2.207396      0.748645     -0.488082
  O      -2.329997      0.970405      0.123822
  N      -0.060447      0.828975     -0.154288
  N       1.032502     -1.213553     -0.318448
  C       1.146984      0.167026     -0.322027
  C      -1.351225      0.251119     -0.002947
  C      -0.163630     -1.871856     -0.167528
  C      -1.332302     -1.205916     -0.021508
  H       0.005338      1.842738     -0.155163
  H       1.914222     -1.705653     -0.353242
  H      -2.272391     -1.729680      0.090068
  H      -0.103177     -2.954704     -0.169336
24
Coordinates from ORCA-job biuret_uracil_opt_freq E -808.403037590183
  N       2.450132      4.534838      1.534485
  C       1.351974      3.722271      1.571406
  O       0.219322      4.178988      1.448633
  N       1.497338      2.341563      1.751216
  C       2.507300      1.368308      1.825007
  O       2.164266      0.203242      1.999985
  N       3.819872      1.732390      1.801786
  H       2.255852      5.515001      1.398557
  H       3.407020      4.252380      1.632159
  H       0.590137      1.888550      1.771690
  H       4.178159      2.652453      1.629612
  H       4.478442      0.969527      1.824240
  O       2.187881      0.729051     -0.548534
  O      -2.344594      0.939791      0.135089
  N      -0.078968      0.809689     -0.179447
  N       1.013086     -1.232286     -0.361376
  C       1.125891      0.152230     -0.373265
  C      -1.359418      0.230210     -0.007850
  C      -0.178167     -1.892689     -0.181669
  C      -1.345064     -1.228549     -0.019771
  H      -0.026125      1.824593     -0.181852
  H       1.893457     -1.726052     -0.401341
  H      -2.283164     -1.750764      0.110925
  H      -0.116014     -2.975667     -0.179051
24
Coordinates from ORCA-job biuret_uracil_opt_freq E -808.411791685831
  N       2.483979      4.573049      1.619755
  C       1.391625      3.755853      1.551641
  O       0.274124      4.202834      1.311596
  N       1.524655      2.380992      1.774050
  C       2.524983      1.410752      1.886738
  O       2.178844      0.246305      2.059783
  N       3.839213      1.762560      1.818636
  H       2.302213      5.549755      1.445862
  H       3.418924      4.305179      1.865361
  H       0.613782      1.937438      1.787787
  H       4.192261      2.662639      1.551103
  H       4.488332      0.991076      1.812500
  O       2.154075      0.696508     -0.630603
  O      -2.370769      0.892881      0.132344
  N      -0.111043      0.776288     -0.222875
  N       0.985723     -1.262481     -0.407064
  C       1.093164      0.124110     -0.438980
  C      -1.379030      0.192177     -0.020272
  C      -0.196422     -1.927690     -0.183006
  C      -1.363259     -1.267887     -0.006116
  H      -0.078289      1.792156     -0.242978
  H       1.865714     -1.756359     -0.454297
  H      -2.296936     -1.788866      0.155086
  H      -0.127250     -3.010203     -0.165410
24
Coordinates from ORCA-job biuret_uracil_opt_freq E -808.419461348172
  N       2.525494      4.609355      1.778626
  C       1.455453      3.802105      1.516269
  O       0.392977      4.247704      1.095730
  N       1.552054      2.431764      1.767291
  C       2.543647      1.464878      1.918677
  O       2.198875      0.303134      2.105558
  N       3.855280      1.816871      1.794479
  H       2.386111      5.587939      1.577319
  H       3.361932      4.344508      2.269669
  H       0.635684      2.002133      1.752656
  H       4.173119      2.680909      1.389532
  H       4.495533      1.038326      1.759639
  O       2.114615      0.645390     -0.725360
  O      -2.397040      0.845171      0.117669
  N      -0.145132      0.730364     -0.279866
  N       0.954662     -1.308021     -0.438571
  C       1.056886      0.077904     -0.507464
  C      -1.403401      0.146000     -0.036053
  C      -0.217841     -1.972967     -0.162657
  C      -1.383634     -1.313747      0.022482
  H      -0.127260      1.746309     -0.330201
  H       1.834133     -1.802552     -0.490156
  H      -2.312230     -1.830269      0.221972
  H      -0.141304     -3.054141     -0.116601
24
Coordinates from ORCA-job biuret_uracil_opt_freq E -808.423950307758
  N       2.581516      4.588004      1.881589
  C       1.506763      3.834916      1.499369
  O       0.512614      4.310819      0.963309
  N       1.547851      2.466914      1.764034
  C       2.540897      1.507739      1.932377
  O       2.211380      0.344837      2.131728
  N       3.842835      1.892678      1.773277
  H       2.511564      5.574260      1.679986
  H       3.291495      4.285765      2.531849
  H       0.627220      2.050260      1.721294
  H       4.095064      2.729844      1.267932
  H       4.491109      1.121717      1.711094
  O       2.085889      0.617018     -0.785046
  O      -2.414982      0.810765      0.103914
  N      -0.168521      0.697359     -0.319831
  N       0.940064     -1.337589     -0.452444
  C       1.033753      0.046067     -0.548455
  C      -1.421490      0.110878     -0.046803
  C      -0.224317     -2.003550     -0.143728
  C      -1.391345     -1.346895      0.044532
  H      -0.158009      1.712121     -0.396208
  H       1.821046     -1.829289     -0.506877
  H      -2.314492     -1.862696      0.269847
  H      -0.139290     -3.082874     -0.076101
24
Coordinates from ORCA-job biuret_uracil_opt_freq E -808.426427683567
  N       2.651501      4.536218      1.942464
  C       1.544943      3.860174      1.499008
  O       0.616883      4.384418      0.896514
  N       1.522727      2.490797      1.779516
  C       2.533258      1.543654      1.944502
  O       2.233782      0.377119      2.157828
  N       3.821482      1.983894      1.762792
  H       2.643354      5.531405      1.771716
  H       3.206663      4.192930      2.714623
  H       0.600381      2.080602      1.715140
  H       3.975994      2.777239      1.152854
  H       4.480123      1.224241      1.661030
  O       2.067750      0.590900     -0.842733
  O      -2.420029      0.795452      0.081109
  N      -0.179642      0.670357     -0.365972
  N       0.933588     -1.363208     -0.460952
  C       1.021916      0.016207     -0.586934
  C      -1.431275      0.088269     -0.060344
  C      -0.225192     -2.023967     -0.120242
  C      -1.391271     -1.365380      0.068853
  H      -0.168913      1.680524     -0.484525
  H       1.815032     -1.854044     -0.519575
  H      -2.309472     -1.877915      0.321263
  H      -0.134969     -3.100818     -0.027295
24
Coordinates from ORCA-job biuret_uracil_opt_freq E -808.427369872724
  N       2.641984      4.547759      1.923605
  C       1.531237      3.855195      1.509732
  O       0.588715      4.372610      0.925609
  N       1.524670      2.480389      1.794049
  C       2.545736      1.533423      1.941554
  O       2.250897      0.366978      2.159328
  N       3.838126      1.973266      1.768098
  H       2.594750      5.546411      1.778976
  H       3.189530      4.215330      2.705145
  H       0.605325      2.060556      1.736395
  H       3.987364      2.754937      1.142528
  H       4.489442      1.207307      1.658747
  O       2.077908      0.579348     -0.858120
  O      -2.408038      0.816963      0.071949
  N      -0.169869      0.674418     -0.382012
  N       0.932619     -1.365639     -0.461348
  C       1.029053      0.012528     -0.596937
  C      -1.424456      0.102527     -0.066314
  C      -0.229123     -2.016260     -0.112232
  C      -1.390245     -1.349597      0.076310
  H      -0.153341      1.681622     -0.519701
  H       1.810871     -1.862108     -0.521921
  H      -2.309462     -1.856132      0.337360
  H      -0.145081     -3.092764     -0.010161
24
Coordinates from ORCA-job biuret_uracil_opt_freq E -808.428342572987
  N       2.648267      4.539305      1.840413
  C       1.501370      3.837396      1.540123
  O       0.523750      4.348174      1.013536
  N       1.517681      2.460072      1.839403
  C       2.552401      1.514775      1.946247
  O       2.271281      0.345888      2.169752
  N       3.848230      1.966581      1.798945
  H       2.545207      5.539955      1.740995
  H       3.212484      4.222055      2.617488
  H       0.602590      2.025459      1.796277
  H       3.991776      2.741114      1.161718
  H       4.495146      1.197670      1.677548
  O       2.091972      0.578952     -0.876806
  O      -2.398953      0.842031      0.049650
  N      -0.161068      0.687779     -0.405724
  N       0.937034     -1.356520     -0.460212
  C       1.039129      0.020905     -0.607403
  C      -1.417948      0.123467     -0.080251
  C      -0.226962     -1.998524     -0.105096
  C      -1.385105     -1.326493      0.078687
  H      -0.141379      1.690760     -0.567647
  H       1.812811     -1.857026     -0.522893
  H      -2.303668     -1.830478      0.347311
  H      -0.147431     -3.074230      0.008577
24
Coordinates from ORCA-job biuret_uracil_opt_freq E -808.428651013477
  N       2.653983      4.539880      1.813614
  C       1.500197      3.830249      1.544957
  O       0.502237      4.338937      1.056767
  N       1.523525      2.457512      1.856286
  C       2.556165      1.510178      1.947372
  O       2.277890      0.341231      2.177253
  N       3.853279      1.963164      1.806899
  H       2.525594      5.540230      1.735278
  H       3.221984      4.232063      2.593495
  H       0.609161      2.021459      1.817671
  H       4.000477      2.732645      1.163553
  H       4.498056      1.191936      1.687697
  O       2.091442      0.579283     -0.890345
  O      -2.402688      0.843348      0.031601
  N      -0.163725      0.690398     -0.419970
  N       0.937173     -1.352593     -0.457549
  C       1.038022      0.024706     -0.613818
  C      -1.419826      0.126286     -0.092297
  C      -0.226164     -1.993922     -0.100082
  C      -1.385738     -1.322429      0.077114
  H      -0.146705      1.692418     -0.587269
  H       1.813427     -1.852473     -0.516937
  H      -2.303430     -1.826669      0.347951
  H      -0.145722     -3.068770      0.021398
24
Coordinates from ORCA-job biuret_uracil_opt_freq E -808.428955974240
  N       2.666495      4.533327      1.781622
  C       1.500113      3.820301      1.562213
  O       0.487432      4.320769      1.097246
  N       1.529762      2.456107      1.887210
  C       2.556939      1.505843      1.958974
  O       2.281298      0.336338      2.192621
  N       3.854073      1.960195      1.820366
  H       2.527835      5.532334      1.694111
  H       3.249161      4.248383      2.560812
  H       0.615069      2.022499      1.849493
  H       4.007797      2.727453      1.175411
  H       4.499694      1.188710      1.706784
  O       2.080393      0.593469     -0.904829
  O      -2.417403      0.832523      0.008079
  N      -0.175713      0.693843     -0.433896
  N       0.937955     -1.341283     -0.456614
  C       1.030003      0.036470     -0.620653
  C      -1.428197      0.122515     -0.107453
  C      -0.221434     -1.989432     -0.099383
  C      -1.386893     -1.325095      0.069526
  H      -0.167455      1.696372     -0.598605
  H       1.817858     -1.835219     -0.510236
  H      -2.301973     -1.834292      0.339376
  H      -0.134197     -3.063060      0.028464
24
Coordinates from ORCA-job biuret_uracil_opt_freq E -808.429200318986
  N       2.679746      4.527565      1.773176
  C       1.508473      3.814317      1.572660
  O       0.489934      4.310510      1.114958
  N       1.537470      2.458443      1.914823
  C       2.559605      1.504773      1.974771
  O       2.284022      0.335381      2.211677
  N       3.855244      1.959016      1.825693
  H       2.543618      5.524436      1.660075
  H       3.265073      4.264354      2.558216
  H       0.620422      2.030621      1.875707
  H       4.009612      2.722240      1.176037
  H       4.502224      1.188104      1.717487
  O       2.062858      0.609921     -0.922416
  O      -2.435858      0.816019     -0.016155
  N      -0.192133      0.693538     -0.449698
  N       0.937630     -1.331426     -0.456754
  C       1.017878      0.046084     -0.630595
  C      -1.440414      0.113145     -0.124201
  C      -0.216340     -1.988043     -0.097554
  C      -1.388881     -1.332718      0.062945
  H      -0.193647      1.697073     -0.609568
  H       1.822455     -1.817248     -0.502351
  H      -2.300719     -1.847169      0.333355
  H      -0.119659     -3.059867      0.038352
24
Coordinates from ORCA-job biuret_uracil_opt_freq E -808.429453135812
  N       2.690815      4.520635      1.764518
  C       1.517150      3.806992      1.585075
  O       0.496236      4.296430      1.123826
  N       1.545598      2.458755      1.950611
  C       2.564640      1.500586      1.999004
  O       2.286856      0.331975      2.238331
  N       3.858151      1.951600      1.831811
  H       2.562779      5.513032      1.611436
  H       3.283014      4.282428      2.551761
  H       0.625400      2.037403      1.912704
  H       4.010986      2.714375      1.181573
  H       4.506238      1.181469      1.726175
  O       2.039830      0.636162     -0.941666
  O      -2.460162      0.795621     -0.045073
  N      -0.213897      0.695331     -0.467935
  N       0.938705     -1.315712     -0.457056
  C       1.002681      0.060960     -0.642489
  C      -1.456546      0.102533     -0.142096
  C      -0.208033     -1.983575     -0.095372
  C      -1.389531     -1.341074      0.055505
  H      -0.227200      1.699626     -0.622991
  H       1.830098     -1.790295     -0.492887
  H      -2.296822     -1.863282      0.326187
  H      -0.098371     -3.052908      0.049688
24
Coordinates from ORCA-job biuret_uracil_opt_freq E -808.429721799210
  N       2.701269      4.512792      1.759019
  C       1.528510      3.798933      1.593780
  O       0.509402      4.281058      1.119833
  N       1.554013      2.457757      1.990475
  C       2.571303      1.493578      2.028901
  O       2.288655      0.327172      2.272842
  N       3.862121      1.937407      1.836483
  H       2.583352      5.498912      1.565389
  H       3.296166      4.296131      2.549404
  H       0.630362      2.042811      1.958085
  H       4.008844      2.701999      1.187596
  H       4.508798      1.166904      1.727247
  O       2.011996      0.670775     -0.965471
  O      -2.489412      0.771638     -0.076718
  N      -0.241362      0.698799     -0.493784
  N       0.941902     -1.293821     -0.456820
  C       0.984782      0.080822     -0.658949
  C      -1.476808      0.090719     -0.165541
  C      -0.195344     -1.974583     -0.088987
  C      -1.387201     -1.348773      0.050768
  H      -0.267779      1.702906     -0.648180
  H       1.841225     -1.754095     -0.481081
  H      -2.287450     -1.880819      0.326020
  H      -0.068730     -3.039954      0.070327
24
Coordinates from ORCA-job biuret_uracil_opt_freq E -808.429959554139
  N       2.708743      4.505082      1.751924
  C       1.538646      3.789360      1.597764
  O       0.522141      4.262956      1.109909
  N       1.562006      2.454581      2.027155
  C       2.577839      1.484008      2.057450
  O       2.288800      0.321054      2.309742
  N       3.866386      1.916698      1.838452
  H       2.598045      5.486011      1.531034
  H       3.307499      4.300080      2.541780
  H       0.636070      2.043313      2.007393
  H       4.006314      2.687149      1.195653
  H       4.508673      1.144204      1.719871
  O       1.984283      0.709544     -0.988077
  O      -2.520617      0.746608     -0.113707
  N      -0.269915      0.704854     -0.521732
  N       0.947655     -1.266759     -0.452363
  C       0.967324      0.104712     -0.675146
  C      -1.496225      0.081865     -0.184373
  C      -0.179583     -1.960489     -0.077556
  C      -1.381938     -1.353250      0.049070
  H      -0.308995      1.707197     -0.684052
  H       1.854873     -1.711827     -0.465322
  H      -2.274213     -1.896796      0.328238
  H      -0.035197     -3.021086      0.097533
24
Coordinates from ORCA-job biuret_uracil_opt_freq E -808.430127038517
  N       2.715343      4.494066      1.744601
  C       1.546009      3.777892      1.598025
  O       0.533257      4.244007      1.096582
  N       1.566823      2.449268      2.056238
  C       2.579854      1.472641      2.080154
  O       2.284946      0.313646      2.344114
  N       3.867134      1.893030      1.838451
  H       2.609347      5.472871      1.512835
  H       3.314115      4.291502      2.534898
  H       0.640126      2.038971      2.052519
  H       4.001184      2.670304      1.203007
  H       4.502683      1.117246      1.707444
  O       1.959967      0.749122     -1.010776
  O      -2.547126      0.724962     -0.141356
  N      -0.296708      0.712165     -0.555784
  N       0.955945     -1.236544     -0.447240
  C       0.952222      0.130784     -0.693558
  C      -1.513786      0.074747     -0.211310
  C      -0.160577     -1.941629     -0.061118
  C      -1.372576     -1.352819      0.053213
  H      -0.347191      1.711633     -0.731169
  H       1.870501     -1.666467     -0.449289
  H      -2.254755     -1.906507      0.344672
  H       0.001880     -2.995824      0.135486
24
Coordinates from ORCA-job biuret_uracil_opt_freq E -808.430230040328
  N       2.721745      4.483631      1.737538
  C       1.550795      3.767729      1.597465
  O       0.539118      4.229467      1.091293
  N       1.571143      2.444544      2.074761
  C       2.580274      1.463776      2.093622
  O       2.282637      0.308215      2.371019
  N       3.866960      1.874142      1.834440
  H       2.617077      5.462934      1.507170
  H       3.319113      4.279228      2.528699
  H       0.645059      2.033321      2.088255
  H       3.997351      2.655608      1.203436
  H       4.496022      1.095063      1.693362
  O       1.941222      0.780764     -1.026792
  O      -2.569649      0.705042     -0.174566
  N      -0.317352      0.718487     -0.581644
  N       0.963470     -1.210176     -0.437514
  C       0.940528      0.152910     -0.705665
  C      -1.525018      0.071468     -0.224262
  C      -0.144697     -1.924610     -0.044011
  C      -1.364880     -1.351245      0.057070
  H      -0.377567      1.714144     -0.774342
  H       1.883584     -1.627890     -0.430754
  H      -2.239742     -1.914038      0.353194
  H       0.031422     -2.973447      0.168862
24
Coordinates from ORCA-job biuret_uracil_opt_freq E -808.430292012295
  N       2.725334      4.473420      1.731095
  C       1.550625      3.759484      1.598479
  O       0.537660      4.220695      1.095368
  N       1.572128      2.439439      2.082065
  C       2.577516      1.456800      2.098316
  O       2.279815      0.303260      2.386060
  N       3.864307      1.861459      1.829948
  H       2.621674      5.453763      1.504231
  H       3.323094      4.267436      2.521930
  H       0.647022      2.026914      2.108325
  H       3.995030      2.644330      1.200632
  H       4.489828      1.080352      1.685035
  O       1.931625      0.802278     -1.034581
  O      -2.581272      0.694141     -0.193573
  N      -0.328812      0.723503     -0.599767
  N       0.969629     -1.191250     -0.429698
  C       0.934662      0.168842     -0.712526
  C      -1.530678      0.069906     -0.238083
  C      -0.132965     -1.911546     -0.030984
  C      -1.358607     -1.348048      0.060600
  H      -0.395785      1.716546     -0.803395
  H       1.893256     -1.600828     -0.415903
  H      -2.228400     -1.915671      0.362207
  H       0.051929     -2.956157      0.194860
24
Coordinates from ORCA-job biuret_uracil_opt_freq E -808.430357222374
  N       2.728309      4.459327      1.723443
  C       1.547798      3.749577      1.601510
  O       0.531622      4.213486      1.108243
  N       1.571729      2.431453      2.084921
  C       2.573725      1.448360      2.099854
  O       2.278439      0.296842      2.400359
  N       3.859916      1.849079      1.820997
  H       2.626290      5.440696      1.499919
  H       3.327097      4.253071      2.513783
  H       0.647868      2.017689      2.127058
  H       3.990450      2.630088      1.189197
  H       4.483022      1.066368      1.674931
  O       1.924260      0.825590     -1.037364
  O      -2.591698      0.683927     -0.218065
  N      -0.338298      0.729933     -0.616687
  N       0.977112     -1.170041     -0.417571
  C       0.930552      0.186621     -0.715869
  C      -1.534632      0.069534     -0.252913
  C      -0.120257     -1.896489     -0.015517
  C      -1.351903     -1.343294      0.063422
  H      -0.412871      1.720079     -0.831517
  H       1.904330     -1.570858     -0.394055
  H      -2.217390     -1.915520      0.368395
  H       0.073145     -2.936452      0.224166
24
Coordinates from ORCA-job biuret_uracil_opt_freq E -808.430428791957
  N       2.728138      4.441593      1.712029
  C       1.541509      3.736624      1.607120
  O       0.519272      4.205226      1.131456
  N       1.570047      2.418689      2.085506
  C       2.570666      1.436655      2.100328
  O       2.279853      0.287359      2.415512
  N       3.854665      1.835161      1.807632
  H       2.626973      5.423323      1.489284
  H       3.333106      4.237044      2.498351
  H       0.647514      2.004426      2.147196
  H       3.982753      2.611443      1.169442
  H       4.476931      1.051575      1.662952
  O       1.919584      0.852633     -1.032998
  O      -2.600989      0.675338     -0.249631
  N      -0.345474      0.739120     -0.631676
  N       0.986367     -1.145282     -0.400277
  C       0.928835      0.207488     -0.714235
  C      -1.537405      0.071028     -0.270229
  C      -0.106558     -1.878204      0.002054
  C      -1.344605     -1.336154      0.064382
  H      -0.428201      1.726373     -0.856594
  H       1.917308     -1.536276     -0.363018
  H      -2.206784     -1.913022      0.369717
  H       0.095108     -2.913092      0.256335
24
Coordinates from ORCA-job biuret_uracil_opt_freq E -808.430547142045
  N       2.723292      4.410263      1.689459
  C       1.528582      3.712370      1.618745
  O       0.494503      4.189479      1.178296
  N       1.566252      2.392441      2.085287
  C       2.568537      1.414223      2.100921
  O       2.287599      0.268848      2.440907
  N       3.846211      1.812101      1.781215
  H       2.620134      5.391868      1.466635
  H       3.343975      4.210089      2.464756
  H       0.646194      1.978952      2.180624
  H       3.963632      2.576211      1.126397
  H       4.469204      1.028329      1.640728
  O       1.915845      0.898959     -1.016541
  O      -2.613476      0.663927     -0.308601
  N      -0.353283      0.756835     -0.652058
  N       1.002480     -1.102480     -0.366513
  C       0.929336      0.243523     -0.704725
  C      -1.540338      0.075793     -0.300335
  C      -0.085016     -1.845445      0.031874
  C      -1.332739     -1.321904      0.063070
  H      -0.448517      1.739537     -0.891195
  H       1.938817     -1.476817     -0.302427
  H      -2.191185     -1.906182      0.364597
  H       0.128577     -2.871852      0.309523
24
Coordinates from ORCA-job biuret_uracil_opt_freq E -808.430683643952
  N       2.711126      4.374177      1.659170
  C       1.511825      3.680915      1.634466
  O       0.462493      4.165931      1.240187
  N       1.562170      2.356850      2.085974
  C       2.570922      1.385454      2.102431
  O       2.304093      0.245060      2.470936
  N       3.837916      1.785562      1.746897
  H       2.599552      5.355176      1.437269
  H       3.357989      4.179006      2.414061
  H       0.645710      1.945976      2.219644
  H       3.934128      2.530345      1.066740
  H       4.464306      1.003241      1.613058
  O       1.915635      0.953263     -0.987950
  O      -2.623771      0.653815     -0.384009
  N      -0.357685      0.779704     -0.671039
  N       1.020877     -1.051614     -0.322124
  C       0.933205      0.286298     -0.686522
  C      -1.541806      0.083911     -0.336904
  C      -0.062831     -1.805102      0.066640
  C      -1.319793     -1.302769      0.058024
  H      -0.465276      1.757486     -0.924082
  H       1.961768     -1.406519     -0.222630
  H      -2.175770     -1.895372      0.350215
  H       0.161832     -2.821728      0.370187
24
Coordinates from ORCA-job biuret_uracil_opt_freq E -808.430813545476
  N       2.694078      4.345387      1.630446
  C       1.497028      3.650773      1.649953
  O       0.433334      4.137513      1.297036
  N       1.561033      2.322607      2.091034
  C       2.579810      1.359792      2.106568
  O       2.328001      0.224098      2.498846
  N       3.834191      1.764635      1.715448
  H       2.568425      5.325654      1.412775
  H       3.371051      4.152699      2.358864
  H       0.648084      1.915184      2.254500
  H       3.901392      2.485826      1.006825
  H       4.465949      0.985264      1.588805
  O       1.918236      0.999105     -0.957276
  O      -2.629112      0.648203     -0.455423
  N      -0.358070      0.800525     -0.684749
  N       1.035042     -1.007918     -0.280150
  C       0.938541      0.323001     -0.666025
  C      -1.542180      0.093146     -0.370571
  C      -0.047878     -1.769038      0.096161
  C      -1.310480     -1.284215      0.050273
  H      -0.473347      1.774514     -0.947953
  H       1.977783     -1.346567     -0.146362
  H      -2.165826     -1.883632      0.330505
  H       0.183529     -2.777486      0.421109
24
Coordinates from ORCA-job biuret_uracil_opt_freq E -808.430937185095
  N       2.675523      4.324406      1.605901
  C       1.486179      3.623035      1.663609
  O       0.409640      4.103606      1.341236
  N       1.564884      2.293536      2.104947
  C       2.594166      1.339753      2.116116
  O       2.357207      0.207933      2.526817
  N       3.835635      1.750160      1.691531
  H       2.534377      5.304026      1.395258
  H       3.384043      4.129730      2.302726
  H       0.654840      1.888663      2.288368
  H       3.870312      2.446104      0.955588
  H       4.473507      0.974576      1.571374
  O       1.918805      1.036891     -0.933075
  O      -2.633608      0.643595     -0.519261
  N      -0.359236      0.817246     -0.698495
  N       1.044067     -0.971302     -0.244790
  C       0.941512      0.353335     -0.649696
  C      -1.544051      0.101192     -0.401608
  C      -0.039175     -1.738124      0.119822
  C      -1.305025     -1.268113      0.041391
  H      -0.478636      1.788177     -0.970291
  H       1.986858     -1.296419     -0.080458
  H      -2.159884     -1.873420      0.310711
  H       0.196674     -2.739516      0.462918
24
Coordinates from ORCA-job biuret_uracil_opt_freq E -808.431063038652
  N       2.653771      4.299730      1.580018
  C       1.475927      3.588372      1.679576
  O       0.385278      4.056651      1.386853
  N       1.574370      2.260998      2.130122
  C       2.613960      1.318097      2.131915
  O       2.397078      0.190513      2.564281
  N       3.839325      1.735161      1.666723
  H       2.496856      5.278868      1.379500
  H       3.398801      4.099258      2.235471
  H       0.668711      1.856565      2.334451
  H       3.834242      2.398322      0.899909
  H       4.484823      0.964648      1.553668
  O       1.913226      1.083274     -0.912911
  O      -2.641451      0.632541     -0.597086
  N      -0.365417      0.835034     -0.723214
  N       1.052094     -0.924874     -0.204718
  C       0.939966      0.390229     -0.636934
  C      -1.548413      0.108205     -0.442103
  C      -0.029803     -1.699280      0.149214
  C      -1.299340     -1.249457      0.031649
  H      -0.490036      1.801035     -1.009457
  H       1.994202     -1.231826     -0.004679
  H      -2.151719     -1.862589      0.291393
  H       0.212162     -2.690407      0.517000
24
Coordinates from ORCA-job biuret_uracil_opt_freq E -808.431266616190
  N       2.621882      4.275744      1.557901
  C       1.461567      3.547909      1.698269
  O       0.354201      3.997111      1.438937
  N       1.588276      2.223343      2.155845
  C       2.641043      1.297626      2.146073
  O       2.453969      0.173963      2.601760
  N       3.847408      1.726349      1.637317
  H       2.447937      5.255252      1.375925
  H       3.410030      4.063031      2.156103
  H       0.689813      1.813836      2.380186
  H       3.795385      2.340287      0.831489
  H       4.505057      0.963900      1.537819
  O       1.910782      1.127803     -0.889424
  O      -2.645004      0.624467     -0.684305
  N      -0.368517      0.852996     -0.752906
  N       1.056723     -0.875845     -0.158260
  C       0.939233      0.427757     -0.623066
  C      -1.550524      0.118154     -0.488613
  C      -0.025722     -1.655940      0.183704
  C      -1.296704     -1.225947      0.021294
  H      -0.494615      1.812428     -1.059112
  H       1.995263     -1.164655      0.082339
  H      -2.147685     -1.845221      0.271078
  H       0.218815     -2.635280      0.580285
24
Coordinates from ORCA-job biuret_uracil_opt_freq E -808.431466403438
  N       2.593226      4.267327      1.556151
  C       1.448265      3.522247      1.710672
  O       0.329014      3.952663      1.470357
  N       1.600107      2.199239      2.167253
  C       2.663980      1.291525      2.149905
  O       2.505011      0.168391      2.617451
  N       3.858822      1.734799      1.617989
  H       2.410869      5.247946      1.391873
  H       3.411444      4.039622      2.106014
  H       0.709240      1.777595      2.399211
  H       3.777376      2.304880      0.782109
  H       4.528535      0.980556      1.533857
  O       1.915667      1.141811     -0.873972
  O      -2.642298      0.628230     -0.736443
  N      -0.365361      0.860374     -0.773169
  N       1.053485     -0.853668     -0.128784
  C       0.940921      0.442834     -0.615493
  C      -1.549501      0.127763     -0.517357
  C      -0.032834     -1.632308      0.206096
  C      -1.301989     -1.208451      0.016033
  H      -0.485476      1.814906     -1.096101
  H       1.987505     -1.137171      0.135435
  H      -2.154981     -1.826890      0.260780
  H       0.207587     -2.605152      0.620774
24
Coordinates from ORCA-job biuret_uracil_opt_freq E -808.431670060653
  N       2.564615      4.256478      1.558177
  C       1.434111      3.495897      1.725209
  O       0.304037      3.908824      1.505327
  N       1.612160      2.174193      2.177231
  C       2.686348      1.285348      2.151039
  O       2.558343      0.162208      2.629854
  N       3.868782      1.746696      1.598210
  H       2.377718      5.237552      1.405181
  H       3.409756      4.016346      2.059319
  H       0.731293      1.737011      2.419051
  H       3.763503      2.276810      0.738361
  H       4.551885      1.002713      1.527559
  O       1.920009      1.152488     -0.859966
  O      -2.638597      0.631422     -0.791030
  N      -0.362035      0.867011     -0.796952
  N       1.049070     -0.832214     -0.098756
  C       0.941623      0.455584     -0.609513
  C      -1.547820      0.137139     -0.547582
  C      -0.041047     -1.608155      0.230705
  C      -1.308071     -1.189882      0.012228
  H      -0.476354      1.816099     -1.138204
  H       1.978631     -1.110762      0.186411
  H      -2.163470     -1.806169      0.253527
  H       0.194124     -2.573570      0.665253
24
Coordinates from ORCA-job biuret_uracil_opt_freq E -808.431924519331
  N       2.525497      4.234055      1.557954
  C       1.415438      3.454518      1.749970
  O       0.271352      3.845368      1.564415
  N       1.629729      2.134239      2.193415
  C       2.719354      1.270988      2.152524
  O       2.634967      0.150948      2.650296
  N       3.878832      1.757028      1.564744
  H       2.328898      5.213863      1.412909
  H       3.402281      3.987065      1.996990
  H       0.764228      1.678786      2.456410
  H       3.736853      2.230412      0.676688
  H       4.581145      1.029224      1.508571
  O       1.923533      1.174244     -0.841718
  O      -2.631664      0.629316     -0.880092
  N      -0.357384      0.878302     -0.835214
  N       1.044374     -0.793348     -0.051720
  C       0.941586      0.478437     -0.601078
  C      -1.544420      0.148680     -0.595778
  C      -0.049967     -1.566658      0.270638
  C      -1.313376     -1.161204      0.007214
  H      -0.467020      1.817951     -1.203336
  H       1.967491     -1.059316      0.265478
  H      -2.171527     -1.775471      0.243566
  H       0.178413     -2.518362      0.737791
24
Coordinates from ORCA-job biuret_uracil_opt_freq E -808.432269830983
  N       2.467869      4.204242      1.569952
  C       1.389863      3.395537      1.792125
  O       0.227590      3.751973      1.656407
  N       1.659827      2.077894      2.218043
  C       2.773681      1.253837      2.151472
  O       2.754793      0.139884      2.671381
  N       3.895740      1.778226      1.516618
  H       2.255121      5.179352      1.421144
  H       3.382404      3.956899      1.922617
  H       0.821121      1.593506      2.514241
  H       3.707402      2.176338      0.599275
  H       4.629126      1.079357      1.477492
  O       1.930079      1.191691     -0.826353
  O      -2.616746      0.625283     -1.010278
  N      -0.346932      0.886556     -0.897194
  N       1.030028     -0.743175      0.013347
  C       0.941036      0.501288     -0.596056
  C      -1.538420      0.162740     -0.666443
  C      -0.072792     -1.507736      0.328970
  C      -1.327250     -1.118164      0.002287
  H      -0.446880      1.809378     -1.307678
  H       1.943535     -0.993985      0.369986
  H      -2.192177     -1.724330      0.234499
  H       0.140595     -2.437523      0.844785
24
Coordinates from ORCA-job biuret_uracil_opt_freq E -808.432564141561
  N       2.401181      4.153166      1.568980
  C       1.366500      3.313199      1.845352
  O       0.186429      3.629007      1.775590
  N       1.700845      2.003659      2.260698
  C       2.841066      1.222884      2.161197
  O       2.895185      0.123408      2.711883
  N       3.906221      1.781632      1.456469
  H       2.159228      5.118822      1.408096
  H       3.352769      3.915096      1.811534
  H       0.895008      1.496956      2.606391
  H       3.654674      2.093232      0.519859
  H       4.677543      1.123444      1.427673
  O       1.925188      1.239473     -0.807489
  O      -2.595971      0.598694     -1.179779
  N      -0.337937      0.901409     -0.975268
  N       1.015405     -0.656025      0.096913
  C       0.933818      0.547558     -0.587559
  C      -1.529923      0.173690     -0.758435
  C      -0.092714     -1.418437      0.401557
  C      -1.334540     -1.064425     -0.007156
  H      -0.430478      1.800558     -1.437273
  H       1.915943     -0.874050      0.505958
  H      -2.202842     -1.668794      0.217138
  H       0.106014     -2.315087      0.978310
24
Coordinates from ORCA-job biuret_uracil_opt_freq E -808.432258901434
  N       2.345566      4.178600      1.694155
  C       1.344673      3.290919      1.921591
  O       0.151375      3.553839      1.873907
  N       1.754636      1.983461      2.272180
  C       2.931157      1.257143      2.126485
  O       3.065665      0.152898      2.649528
  N       3.961599      1.881680      1.425389
  H       2.090676      5.118895      1.436793
  H       3.311914      3.964752      1.898018
  H       1.008980      1.411407      2.648037
  H       3.712637      2.219545      0.495929
  H       4.768957      1.267180      1.387599
  O       1.961494      1.105341     -0.867275
  O      -2.568472      0.629266     -1.284614
  N      -0.302663      0.830097     -1.062665
  N       0.943243     -0.700287      0.129284
  C       0.941895      0.461134     -0.632534
  C      -1.530872      0.175901     -0.818613
  C      -0.197622     -1.406663      0.448060
  C      -1.414911     -1.020873      0.000926
  H      -0.345334      1.692436     -1.581679
  H       1.839100     -0.960636      0.526457
  H      -2.316912     -1.566865      0.240382
  H      -0.048167     -2.280103      1.073298
24
Coordinates from ORCA-job biuret_uracil_opt_freq E -808.433147288090
  N       2.366185      4.161343      1.641234
  C       1.362502      3.286451      1.912846
  O       0.172041      3.565870      1.873679
  N       1.750820      1.979689      2.294920
  C       2.916456      1.235223      2.157274
  O       3.025287      0.139697      2.702112
  N       3.940756      1.825105      1.423179
  H       2.101503      5.107567      1.415075
  H       3.334111      3.943302      1.831515
  H       0.984287      1.442550      2.681240
  H       3.658633      2.144380      0.498030
  H       4.734969      1.196181      1.373170
  O       1.933381      1.189358     -0.839833
  O      -2.583191      0.585620     -1.298364
  N      -0.326181      0.860862     -1.052276
  N       0.967439     -0.650898      0.138197
  C       0.929611      0.517347     -0.610675
  C      -1.536258      0.164344     -0.827352
  C      -0.157404     -1.389181      0.441182
  C      -1.381781     -1.037588     -0.014727
  H      -0.394159      1.732074     -1.566079
  H       1.862431     -0.880125      0.554575
  H      -2.266453     -1.617001      0.211507
  H       0.013629     -2.263104      1.060209
24
Coordinates from ORCA-job biuret_uracil_opt_freq E -808.433486043484
  N       2.366511      4.149413      1.632743
  C       1.372624      3.274498      1.941462
  O       0.181979      3.558098      1.937572
  N       1.765749      1.967321      2.319154
  C       2.934605      1.227972      2.170286
  O       3.052116      0.140204      2.728945
  N       3.934216      1.807432      1.398723
  H       2.088243      5.094186      1.417328
  H       3.340895      3.930585      1.783379
  H       1.004774      1.444390      2.734577
  H       3.612573      2.111972      0.481848
  H       4.726913      1.179159      1.328615
  O       1.920974      1.223021     -0.826086
  O      -2.579032      0.547283     -1.365001
  N      -0.331691      0.861883     -1.075291
  N       0.962715     -0.612800      0.166933
  C       0.921936      0.542635     -0.600278
  C      -1.536826      0.150290     -0.865537
  C      -0.158272     -1.363047      0.455047
  C      -1.377543     -1.037553     -0.031019
  H      -0.403350      1.722035     -1.610071
  H       1.852036     -0.825005      0.603835
  H      -2.257200     -1.628870      0.184408
  H       0.013669     -2.226036      1.089064
24
Coordinates from ORCA-job biuret_uracil_opt_freq E -808.433803124270
  N       2.376276      4.156075      1.646967
  C       1.392424      3.280826      1.992023
  O       0.204316      3.573041      2.035722
  N       1.789167      1.968931      2.346709
  C       2.960799      1.235295      2.177731
  O       3.089124      0.152488      2.743201
  N       3.934487      1.802894      1.369456
  H       2.085795      5.100779      1.447707
  H       3.355626      3.934807      1.754284
  H       1.040581      1.458795      2.798795
  H       3.573174      2.110430      0.468552
  H       4.719186      1.169535      1.267528
  O       1.909369      1.228983     -0.823884
  O      -2.573855      0.498994     -1.448285
  N      -0.336926      0.840852     -1.110730
  N       0.942011     -0.591254      0.194239
  C       0.911639      0.547158     -0.598489
  C      -1.541236      0.122524     -0.915568
  C      -0.178052     -1.348852      0.466268
  C      -1.388241     -1.047170     -0.053852
  H      -0.404414      1.682374     -1.676897
  H       1.824522     -0.794779      0.648699
  H      -2.266099     -1.644939      0.151310
  H      -0.011058     -2.198720      1.119154
24
Coordinates from ORCA-job biuret_uracil_opt_freq E -808.434129554279
  N       2.379286      4.162490      1.679647
  C       1.414031      3.283787      2.068192
  O       0.231941      3.580998      2.186408
  N       1.823083      1.964790      2.376169
  C       2.999825      1.248362      2.174287
  O       3.160722      0.171192      2.743801
  N       3.936325      1.817240      1.324255
  H       2.077198      5.109048      1.509644
  H       3.362372      3.935558      1.717232
  H       1.102364      1.456490      2.874328
  H       3.532978      2.111144      0.436134
  H       4.720241      1.188024      1.193938
  O       1.898720      1.217088     -0.825003
  O      -2.557007      0.433849     -1.573273
  N      -0.336016      0.804083     -1.170719
  N       0.905287     -0.563402      0.235545
  C       0.896396      0.541461     -0.603066
  C      -1.541933      0.085097     -0.990344
  C      -0.217554     -1.322053      0.492717
  C      -1.411364     -1.050364     -0.079897
  H      -0.387536      1.613543     -1.783009
  H       1.777033     -0.754592      0.716143
  H      -2.291263     -1.647981      0.116655
  H      -0.066515     -2.146784      1.180855
24
Coordinates from ORCA-job biuret_uracil_opt_freq E -808.434445755046
  N       2.431645      4.212430      1.722668
  C       1.463609      3.351872      2.156214
  O       0.302399      3.685666      2.354654
  N       1.842826      2.013823      2.397563
  C       3.007491      1.285834      2.163970
  O       3.165794      0.198231      2.716629
  N       3.934598      1.840197      1.295700
  H       2.146095      5.174621      1.624384
  H       3.411711      3.968136      1.735800
  H       1.140288      1.518305      2.932323
  H       3.514288      2.178024      0.431424
  H       4.689654      1.187196      1.121346
  O       1.883213      1.167524     -0.844052
  O      -2.556802      0.357194     -1.662964
  N      -0.347311      0.737666     -1.214205
  N       0.861812     -0.589039      0.239385
  C       0.878099      0.499712     -0.622439
  C      -1.555538      0.019623     -1.049729
  C      -0.261328     -1.350866      0.483610
  C      -1.444140     -1.097749     -0.117629
  H      -0.381666      1.521070     -1.857209
  H       1.726487     -0.781979      0.731753
  H      -2.324835     -1.696319      0.071826
  H      -0.119775     -2.162102      1.189616
24
Coordinates from ORCA-job biuret_uracil_opt_freq E -808.434821681259
  N       2.453048      4.228921      1.757166
  C       1.501024      3.376916      2.239596
  O       0.360490      3.723140      2.518537
  N       1.872166      2.028343      2.427053
  C       3.026336      1.302587      2.154546
  O       3.210185      0.214278      2.700066
  N       3.925055      1.861857      1.257168
  H       2.182664      5.199639      1.717074
  H       3.429643      3.971913      1.722555
  H       1.197583      1.530566      2.996299
  H       3.480763      2.191779      0.401375
  H       4.677436      1.210713      1.063102
  O       1.858354      1.148224     -0.857117
  O      -2.543099      0.262690     -1.784395
  N      -0.354525      0.687472     -1.281436
  N       0.822139     -0.568055      0.265516
  C       0.850332      0.482503     -0.641464
  C      -1.558377     -0.038419     -1.125938
  C      -0.299998     -1.332623      0.504354
  C      -1.466693     -1.115933     -0.145279
  H      -0.372675      1.439946     -1.960102
  H       1.677081     -0.737344      0.784074
  H      -2.346494     -1.716475      0.041389
  H      -0.173824     -2.113571      1.246499
24
Coordinates from ORCA-job biuret_uracil_opt_freq E -808.435212819376
  N       2.514579      4.270265      1.782151
  C       1.560425      3.450943      2.317151
  O       0.454722      3.835985      2.671526
  N       1.881104      2.083196      2.449188
  C       3.002549      1.323483      2.142705
  O       3.170860      0.223025      2.669577
  N       3.899389      1.872503      1.236090
  H       2.295825      5.253625      1.840939
  H       3.485039      3.986996      1.761638
  H       1.213722      1.595172      3.035057
  H       3.458082      2.234263      0.392286
  H       4.630660      1.204409      1.019651
  O       1.819874      1.129883     -0.881592
  O      -2.548616      0.153904     -1.864575
  N      -0.377840      0.630253     -1.332308
  N       0.794500     -0.578339      0.257497
  C       0.817580      0.453636     -0.672043
  C      -1.570138     -0.115677     -1.182601
  C      -0.319295     -1.353903      0.497060
  C      -1.478835     -1.169182     -0.177233
  H      -0.393021      1.369930     -2.023987
  H       1.643862     -0.719152      0.794085
  H      -2.351250     -1.780270      0.009434
  H      -0.195161     -2.115880      1.258945
24
Coordinates from ORCA-job biuret_uracil_opt_freq E -808.435424214573
  N       2.566754      4.304519      1.801032
  C       1.612072      3.511887      2.377505
  O       0.537712      3.928523      2.786991
  N       1.887236      2.130138      2.473636
  C       2.978246      1.336339      2.138014
  O       3.122160      0.226957      2.650331
  N       3.873621      1.869599      1.223261
  H       2.391582      5.292456      1.919320
  H       3.531248      3.998253      1.784272
  H       1.220316      1.654450      3.069092
  H       3.437729      2.266908      0.393773
  H       4.584685      1.187127      0.986434
  O       1.783929      1.131322     -0.896846
  O      -2.554768      0.065146     -1.920353
  N      -0.399117      0.589585     -1.369076
  N       0.776896     -0.584940      0.248413
  C       0.791506      0.437101     -0.693178
  C      -1.579392     -0.177615     -1.223934
  C      -0.327188     -1.374315      0.485517
  C      -1.481125     -1.216224     -0.204672
  H      -0.419831      1.325414     -2.066867
  H       1.620659     -0.698391      0.800642
  H      -2.345083     -1.840147     -0.020872
  H      -0.201234     -2.125024      1.258206
24
Coordinates from ORCA-job biuret_uracil_opt_freq E -808.435682498718
  N       2.622081      4.336359      1.835409
  C       1.657786      3.566389      2.428694
  O       0.608777      4.009704      2.873568
  N       1.888888      2.173108      2.494727
  C       2.950462      1.348419      2.132324
  O       3.064989      0.229564      2.628110
  N       3.845021      1.866569      1.211893
  H       2.486380      5.328230      1.977764
  H       3.577775      4.003124      1.802244
  H       1.215114      1.708320      3.090583
  H       3.415111      2.293454      0.395451
  H       4.536025      1.170976      0.956332
  O       1.751400      1.137814     -0.904263
  O      -2.560762     -0.009444     -1.959966
  N      -0.416994      0.554954     -1.396830
  N       0.765433     -0.592299      0.239127
  C       0.770989      0.423479     -0.709363
  C      -1.586254     -0.231042     -1.255569
  C      -0.328896     -1.395904      0.472853
  C      -1.478133     -1.260429     -0.228363
  H      -0.445702      1.291931     -2.094190
  H       1.602371     -0.678027      0.807118
  H      -2.334005     -1.896846     -0.048941
  H      -0.199241     -2.139332      1.251928
24
Coordinates from ORCA-job biuret_uracil_opt_freq E -808.436359444932
  N       2.776058      4.407471      1.935855
  C       1.766855      3.697713      2.533997
  O       0.776617      4.206880      3.036921
  N       1.874793      2.285257      2.525757
  C       2.856014      1.387442      2.106964
  O       2.879071      0.242725      2.553067
  N       3.767652      1.866981      1.189589
  H       2.743956      5.400905      2.125806
  H       3.699284      3.996360      1.865121
  H       1.165624      1.851296      3.103116
  H       3.366234      2.364998      0.401811
  H       4.397428      1.132940      0.889109
  O       1.674705      1.155431     -0.915615
  O      -2.577351     -0.169262     -2.020780
  N      -0.457975      0.476915     -1.442196
  N       0.750949     -0.620013      0.209769
  C       0.728898      0.391926     -0.742795
  C      -1.599851     -0.351729     -1.310099
  C      -0.316875     -1.460041      0.436853
  C      -1.459824     -1.372113     -0.278206
  H      -0.508577      1.222680     -2.128021
  H       1.569497     -0.642136      0.811694
  H      -2.294123     -2.039685     -0.109089
  H      -0.170445     -2.193875      1.222011
24
Coordinates from ORCA-job biuret_uracil_opt_freq E -808.437101912679
  N       2.907352      4.446533      2.035882
  C       1.851911      3.786584      2.611373
  O       0.902172      4.342470      3.140667
  N       1.863199      2.370044      2.547785
  C       2.776093      1.425905      2.080705
  O       2.721285      0.264369      2.480771
  N       3.705335      1.875893      1.169493
  H       2.949588      5.436971      2.237494
  H       3.793990      3.972176      1.914503
  H       1.119858      1.964668      3.102472
  H       3.325612      2.423850      0.404764
  H       4.279532      1.113747      0.830095
  O       1.609220      1.177388     -0.919657
  O      -2.583590     -0.293528     -2.066396
  N      -0.487352      0.417539     -1.474367
  N       0.740642     -0.633443      0.195167
  C       0.695212      0.373547     -0.761243
  C      -1.605501     -0.444287     -1.349843
  C      -0.303466     -1.504468      0.414459
  C      -1.439567     -1.457389     -0.313603
  H      -0.555634      1.166630     -2.155363
  H       1.540296     -0.606039      0.824278
  H      -2.254911     -2.150423     -0.153636
  H      -0.142661     -2.229669      1.204840
24
Coordinates from ORCA-job biuret_uracil_opt_freq E -808.437979795374
  N       3.033532      4.469299      2.143137
  C       1.931799      3.857161      2.680926
  O       1.015896      4.453152      3.225547
  N       1.856421      2.446510      2.564598
  C       2.705278      1.474860      2.047172
  O       2.580256      0.299979      2.397859
  N       3.654881      1.900740      1.143160
  H       3.135174      5.451205      2.356808
  H       3.877950      3.940704      1.966173
  H       1.082094      2.070878      3.098583
  H       3.284735      2.485127      0.399366
  H       4.166187      1.113477      0.761736
  O       1.547628      1.192821     -0.922114
  O      -2.579326     -0.407827     -2.116853
  N      -0.510151      0.359469     -1.502042
  N       0.724015     -0.641193      0.193477
  C       0.662027      0.357122     -0.769150
  C      -1.606237     -0.530113     -1.388317
  C      -0.297476     -1.540993      0.401179
  C      -1.423773     -1.534548     -0.344731
  H      -0.588404      1.101548     -2.189342
  H       1.503879     -0.575547      0.847518
  H      -2.221546     -2.249686     -0.193608
  H      -0.126226     -2.255077      1.199558
24
Coordinates from ORCA-job biuret_uracil_opt_freq E -808.438851170654
  N       3.204362      4.491860      2.282292
  C       2.058250      3.944675      2.792131
  O       1.203484      4.582028      3.386934
  N       1.862433      2.556520      2.592470
  C       2.613912      1.557532      1.999654
  O       2.401743      0.372083      2.280329
  N       3.582924      1.952790      1.098729
  H       3.385207      5.452173      2.533580
  H       3.989668      3.907857      2.028079
  H       1.066264      2.215547      3.117883
  H       3.245005      2.606677      0.397461
  H       4.006837      1.146497      0.654076
  O       1.452838      1.201656     -0.930229
  O      -2.555806     -0.594665     -2.221994
  N      -0.540452      0.263407     -1.555296
  N       0.676222     -0.645691      0.201867
  C       0.603905      0.328173     -0.781793
  C      -1.602108     -0.665944     -1.460551
  C      -0.312560     -1.584701      0.391280
  C      -1.412994     -1.644464     -0.393147
  H      -0.619536      0.984369     -2.261673
  H       1.422011     -0.525999      0.891385
  H      -2.184716     -2.389793     -0.253860
  H      -0.138279     -2.273520      1.211034
24
Coordinates from ORCA-job biuret_uracil_opt_freq E -808.439171054895
  N       3.283770      4.508395      2.367663
  C       2.127236      3.976142      2.857804
  O       1.285362      4.619743      3.465399
  N       1.910772      2.596178      2.640667
  C       2.627754      1.611941      1.989727
  O       2.413007      0.421872      2.248213
  N       3.571842      2.010991      1.056170
  H       3.458693      5.472860      2.600095
  H       4.040699      3.921245      2.047400
  H       1.136105      2.249661      3.195181
  H       3.206090      2.690490      0.390910
  H       3.940549      1.204092      0.564720
  O       1.394779      1.186617     -0.931609
  O      -2.517949     -0.697944     -2.329543
  N      -0.548652      0.201377     -1.594910
  N       0.605100     -0.643109      0.233921
  C       0.554335      0.304200     -0.770412
  C      -1.596865     -0.740873     -1.524970
  C      -0.369824     -1.601302      0.395723
  C      -1.438769     -1.698584     -0.432827
  H      -0.600021      0.890838     -2.333747
  H       1.339217     -0.518434      0.938080
  H      -2.200961     -2.455656     -0.307423
  H      -0.213653     -2.271671      1.234410
24
Coordinates from ORCA-job biuret_uracil_opt_freq E -808.439806394630
  N       3.379730      4.515594      2.413946
  C       2.211878      4.026557      2.928653
  O       1.423123      4.688567      3.584369
  N       1.913246      2.668886      2.664784
  C       2.565893      1.660915      1.978886
  O       2.302324      0.476385      2.209837
  N       3.511578      2.038965      1.044129
  H       3.622527      5.454036      2.693659
  H       4.111258      3.894324      2.095938
  H       1.135298      2.337565      3.221925
  H       3.202902      2.776888      0.416821
  H       3.833133      1.234634      0.517877
  O       1.328329      1.198981     -0.952787
  O      -2.502803     -0.841131     -2.393145
  N      -0.576060      0.139257     -1.644453
  N       0.571828     -0.637421      0.220480
  C       0.513159      0.290235     -0.802448
  C      -1.594567     -0.835803     -1.572663
  C      -0.378076     -1.619606      0.385394
  C      -1.426842     -1.764463     -0.459004
  H      -0.637554      0.816140     -2.395785
  H       1.284418     -0.467783      0.936862
  H      -2.166855     -2.543105     -0.332082
  H      -0.219254     -2.269548      1.239445
24
Coordinates from ORCA-job biuret_uracil_opt_freq E -808.440246802237
  N       3.425336      4.512901      2.422008
  C       2.247827      4.050907      2.946281
  O       1.477881      4.731031      3.606006
  N       1.912597      2.702950      2.676512
  C       2.533527      1.681320      1.977101
  O       2.240953      0.504945      2.204869
  N       3.487559      2.050062      1.049898
  H       3.695827      5.431867      2.743005
  H       4.160093      3.866099      2.165930
  H       1.133517      2.379595      3.237834
  H       3.244841      2.840840      0.462283
  H       3.776231      1.253202      0.494970
  O       1.290561      1.203624     -0.981210
  O      -2.505087     -0.919611     -2.413190
  N      -0.602343      0.110946     -1.668026
  N       0.556219     -0.629539      0.198508
  C       0.484375      0.289197     -0.832307
  C      -1.600351     -0.884659     -1.588801
  C      -0.376836     -1.625331      0.377209
  C      -1.422015     -1.795747     -0.464812
  H      -0.673634      0.779277     -2.425455
  H       1.275701     -0.443465      0.901682
  H      -2.146441     -2.587030     -0.327119
  H      -0.207725     -2.264312      1.237463
24
Coordinates from ORCA-job biuret_uracil_opt_freq E -808.440720178440
  N       3.495175      4.524768      2.452739
  C       2.321190      4.080185      3.003906
  O       1.589807      4.768193      3.699214
  N       1.938272      2.749222      2.714821
  C       2.512489      1.721791      1.976666
  O       2.199023      0.551674      2.200143
  N       3.445729      2.079378      1.027390
  H       3.794503      5.423895      2.804597
  H       4.215989      3.864177      2.191746
  H       1.173151      2.433857      3.298560
  H       3.231168      2.905235      0.479249
  H       3.679589      1.290405      0.436544
  O       1.231763      1.209777     -0.988146
  O      -2.466286     -1.045603     -2.494047
  N      -0.621878      0.061415     -1.713158
  N       0.504815     -0.615730      0.204051
  C       0.437941      0.280604     -0.846501
  C      -1.589689     -0.964643     -1.642777
  C      -0.405280     -1.633215      0.374609
  C      -1.420289     -1.847037     -0.494511
  H      -0.693748      0.707700     -2.492757
  H       1.205544     -0.399049      0.917272
  H      -2.125166     -2.656348     -0.360462
  H      -0.245200     -2.251583      1.251489
24
Coordinates from ORCA-job biuret_uracil_opt_freq E -808.441265421885
  N       3.614753      4.513308      2.516674
  C       2.420353      4.116074      3.065582
  O       1.729927      4.830716      3.775616
  N       1.968856      2.814796      2.756152
  C       2.464074      1.789898      1.962306
  O       2.095587      0.629892      2.156808
  N       3.386678      2.131506      0.999256
  H       3.945430      5.389152      2.898799
  H       4.313891      3.821897      2.277613
  H       1.205109      2.518082      3.350341
  H       3.249026      3.021933      0.533746
  H       3.521296      1.374303      0.339594
  O       1.131956      1.219566     -1.012314
  O      -2.410872     -1.210222     -2.583848
  N      -0.649688     -0.007854     -1.756971
  N       0.435682     -0.598412      0.206686
  C       0.365499      0.270653     -0.866204
  C      -1.572709     -1.074696     -1.700674
  C      -0.433075     -1.651037      0.369422
  C      -1.409415     -1.926251     -0.528806
  H      -0.719424      0.612296     -2.556653
  H       1.115373     -0.342042      0.929994
  H      -2.083099     -2.762050     -0.397899
  H      -0.276591     -2.242442      1.265418
24
Coordinates from ORCA-job biuret_uracil_opt_freq E -808.441712913625
  N       3.712201      4.502171      2.564492
  C       2.506857      4.145839      3.123902
  O       1.855895      4.882543      3.847629
  N       2.005140      2.867594      2.808593
  C       2.430528      1.849810      1.961688
  O       2.016631      0.700838      2.134953
  N       3.329074      2.180259      0.976344
  H       4.070985      5.366742      2.947016
  H       4.390261      3.787021      2.335124
  H       1.248356      2.581010      3.415985
  H       3.263118      3.115985      0.590635
  H       3.369546      1.465980      0.258252
  O       1.047129      1.227193     -1.034566
  O      -2.355502     -1.347541     -2.663212
  N      -0.666271     -0.072296     -1.797570
  N       0.368253     -0.585707      0.206572
  C       0.306576      0.258778     -0.887762
  C      -1.554808     -1.169525     -1.753219
  C      -0.464953     -1.666844      0.361516
  C      -1.402082     -1.993819     -0.561800
  H      -0.729831      0.526461     -2.610282
  H       1.027514     -0.297773      0.938970
  H      -2.050100     -2.850463     -0.436240
  H      -0.315903     -2.235189      1.273620
24
Coordinates from ORCA-job biuret_uracil_opt_freq E -808.442242867669
  N       3.780941      4.492811      2.593523
  C       2.576389      4.165863      3.176220
  O       1.965861      4.914402      3.922296
  N       2.033090      2.907266      2.856458
  C       2.401496      1.897614      1.966900
  O       1.955488      0.758309      2.125958
  N       3.277870      2.219710      0.961601
  H       4.171971      5.345512      2.970847
  H       4.435575      3.760547      2.350627
  H       1.284789      2.629104      3.477431
  H       3.252918      3.175540      0.622696
  H       3.250551      1.538097      0.211174
  O       0.991123      1.236209     -1.043233
  O      -2.307651     -1.456760     -2.724207
  N      -0.675939     -0.121944     -1.839123
  N       0.319106     -0.574318      0.207037
  C       0.268105      0.249684     -0.903657
  C      -1.536833     -1.242297     -1.796836
  C      -0.489600     -1.674215      0.355858
  C      -1.393204     -2.040804     -0.586704
  H      -0.739103      0.457111     -2.668320
  H       0.957372     -0.261158      0.948380
  H      -2.021677     -2.912444     -0.464605
  H      -0.350023     -2.224770      1.280320
24
Coordinates from ORCA-job biuret_uracil_opt_freq E -808.442701366534
  N       3.790697      4.483220      2.578187
  C       2.602565      4.160428      3.201561
  O       2.016841      4.917447      3.959459
  N       2.055301      2.899193      2.902834
  C       2.392877      1.899540      1.984417
  O       1.924843      0.767849      2.155028
  N       3.234737      2.216922      0.950873
  H       4.201787      5.339661      2.923855
  H       4.439999      3.747784      2.329543
  H       1.307886      2.634307      3.534684
  H       3.201772      3.180667      0.633405
  H       3.156185      1.552014      0.186974
  O       0.987582      1.248203     -1.039955
  O      -2.271412     -1.497521     -2.750061
  N      -0.659747     -0.138422     -1.862741
  N       0.308613     -0.553494      0.206954
  C       0.268451      0.256287     -0.916851
  C      -1.515636     -1.266321     -1.816175
  C      -0.494268     -1.656956      0.358659
  C      -1.380599     -2.043839     -0.591184
  H      -0.727516      0.434352     -2.698583
  H       0.934175     -0.226954      0.951127
  H      -2.004634     -2.919352     -0.472315
  H      -0.361886     -2.195947      1.290945
24
Coordinates from ORCA-job biuret_uracil_opt_freq E -808.443256685187
  N       3.853881      4.470384      2.594876
  C       2.678818      4.169473      3.256394
  O       2.143585      4.926891      4.049656
  N       2.086226      2.932204      2.949393
  C       2.348640      1.952901      1.987442
  O       1.843102      0.835348      2.134880
  N       3.165004      2.265441      0.934768
  H       4.303703      5.307037      2.941611
  H       4.480644      3.719735      2.333055
  H       1.346538      2.675544      3.592291
  H       3.193308      3.242715      0.664394
  H       3.014650      1.643967      0.145435
  O       0.929654      1.254213     -1.052858
  O      -2.210799     -1.607809     -2.805946
  N      -0.656648     -0.192672     -1.903615
  N       0.260299     -0.540069      0.206802
  C       0.233666      0.244837     -0.934212
  C      -1.487531     -1.339612     -1.856222
  C      -0.519416     -1.659825      0.356089
  C      -1.368534     -2.087625     -0.611221
  H      -0.716015      0.366094     -2.749146
  H       0.861670     -0.185410      0.958932
  H      -1.974415     -2.976011     -0.493849
  H      -0.401419     -2.178684      1.301691
24
Coordinates from ORCA-job biuret_uracil_opt_freq E -808.444154905766
  N       3.868318      4.479493      2.568667
  C       2.760894      4.149185      3.323631
  O       2.291755      4.863921      4.193122
  N       2.153524      2.920223      3.019655
  C       2.290919      1.996885      1.997629
  O       1.747031      0.899430      2.114399
  N       3.041765      2.321049      0.900819
  H       4.352255      5.309898      2.885685
  H       4.490066      3.741745      2.258876
  H       1.430767      2.657823      3.675191
  H       3.133469      3.298172      0.658310
  H       2.802618      1.737458      0.105688
  O       0.935598      1.230852     -1.055060
  O      -2.124411     -1.676941     -2.860932
  N      -0.585576     -0.255655     -1.942431
  N       0.226041     -0.535420      0.219485
  C       0.246583      0.218979     -0.939014
  C      -1.434921     -1.386575     -1.890695
  C      -0.564625     -1.647031      0.366747
  C      -1.377124     -2.098799     -0.621695
  H      -0.599691      0.307886     -2.779970
  H       0.812271     -0.172231      0.982561
  H      -1.997103     -2.977689     -0.508921
  H      -0.491809     -2.143590      1.328892
24
Coordinates from ORCA-job biuret_uracil_opt_freq E -808.445322202816
  N       3.929610      4.467148      2.571305
  C       2.849188      4.145279      3.372300
  O       2.432766      4.859255      4.269223
  N       2.213797      2.929465      3.082919
  C       2.249412      2.043445      2.004812
  O       1.666986      0.964262      2.121768
  N       2.930369      2.371575      0.866498
  H       4.433003      5.288672      2.882406
  H       4.542064      3.720818      2.262175
  H       1.516851      2.665955      3.766550
  H       3.092450      3.351855      0.674023
  H       2.572904      1.857146      0.064944
  O       0.888770      1.238775     -1.063313
  O      -2.023386     -1.789970     -2.920971
  N      -0.556589     -0.308488     -1.982086
  N       0.164247     -0.513038      0.223777
  C       0.217670      0.209867     -0.952188
  C      -1.382377     -1.457954     -1.931361
  C      -0.603224     -1.640430      0.366582
  C      -1.362079     -2.135774     -0.642721
  H      -0.555459      0.227792     -2.842605
  H       0.721398     -0.121729      0.994962
  H      -1.967776     -3.024850     -0.532338
  H      -0.561980     -2.110009      1.343977
24
Coordinates from ORCA-job biuret_uracil_opt_freq E -808.445023052253
  N       3.894084      4.451309      2.501813
  C       2.846697      4.107419      3.340549
  O       2.423997      4.834319      4.225850
  N       2.263735      2.851663      3.117235
  C       2.246646      1.974522      1.999673
  O       1.667932      0.887801      2.191753
  N       2.824381      2.335326      0.815553
  H       4.353670      5.300070      2.808990
  H       4.532859      3.713656      2.226114
  H       1.609376      2.572639      3.843528
  H       2.950800      3.331323      0.651461
  H       2.391301      1.829127      0.035073
  O       0.947009      1.239732     -1.067176
  O      -1.941218     -1.747073     -2.915598
  N      -0.471241     -0.279763     -1.957793
  N       0.174056     -0.471447      0.239346
  C       0.257825      0.226890     -0.945874
  C      -1.318786     -1.415513     -1.915566
  C      -0.607620     -1.587309      0.393419
  C      -1.344887     -2.082660     -0.622813
  H      -0.442286      0.224886     -2.846797
  H       0.721585     -0.068841      1.009075
  H      -1.971955     -2.956593     -0.509781
  H      -0.599347     -2.032416      1.382605
24
Coordinates from ORCA-job biuret_uracil_opt_freq E -808.447079392914
  N       3.935460      4.429039      2.527140
  C       2.895563      4.103806      3.382816
  O       2.514442      4.825400      4.290367
  N       2.270396      2.871601      3.140798
  C       2.201987      2.035553      2.007686
  O       1.584727      0.969765      2.152060
  N       2.792804      2.397672      0.833822
  H       4.430785      5.262933      2.818283
  H       4.542812      3.678471      2.217950
  H       1.617581      2.596254      3.866723
  H       2.986313      3.383291      0.691906
  H       2.345110      1.930940      0.037224
  O       0.908070      1.252472     -1.088732
  O      -1.929972     -1.840613     -2.936254
  N      -0.487052     -0.332859     -1.999449
  N       0.151321     -0.461087      0.227251
  C       0.237444      0.223489     -0.965046
  C      -1.316871     -1.478656     -1.940389
  C      -0.614809     -1.589176      0.384006
  C      -1.336353     -2.117905     -0.631971
  H      -0.457024      0.166300     -2.884265
  H       0.686514     -0.041932      0.999519
  H      -1.945767     -3.002901     -0.509217
  H      -0.604868     -2.022787      1.378412
24
Coordinates from ORCA-job biuret_uracil_opt_freq E -808.447507478421
  N       3.951784      4.438007      2.518823
  C       2.933684      4.105245      3.397597
  O       2.570499      4.822912      4.314965
  N       2.306994      2.869816      3.167832
  C       2.194131      2.060978      2.033069
  O       1.570683      0.999767      2.170557
  N       2.758955      2.436595      0.855307
  H       4.448868      5.273603      2.802496
  H       4.553869      3.691540      2.190622
  H       1.674920      2.594727      3.908863
  H       2.969712      3.417653      0.719522
  H       2.316541      1.968342      0.057020
  O       0.881655      1.233448     -1.104155
  O      -1.900618     -1.882107     -2.971358
  N      -0.481262     -0.358172     -2.023271
  N       0.121139     -0.463136      0.230827
  C       0.218333      0.200880     -0.968853
  C      -1.305429     -1.506819     -1.969590
  C      -0.643145     -1.594295      0.378362
  C      -1.342272     -2.134236     -0.651919
  H      -0.434947      0.139619     -2.908082
  H       0.640467     -0.030119      1.008997
  H      -1.946863     -3.023055     -0.532306
  H      -0.649083     -2.022124      1.375312
24
Coordinates from ORCA-job biuret_uracil_opt_freq E -808.448277682687
  N       3.977194      4.417172      2.539918
  C       2.964558      4.079890      3.423240
  O       2.615054      4.787878      4.351724
  N       2.323404      2.852104      3.186322
  C       2.151146      2.084812      2.027795
  O       1.494075      1.041103      2.141174
  N       2.694534      2.490012      0.855972
  H       4.479224      5.241701      2.845280
  H       4.572837      3.668461      2.206696
  H       1.705268      2.572884      3.937021
  H       2.948667      3.461744      0.743624
  H       2.276109      2.025398      0.043251
  O       0.883335      1.241956     -1.185275
  O      -1.899865     -1.961150     -2.952186
  N      -0.483466     -0.405616     -2.049758
  N       0.122505     -0.429873      0.192876
  C       0.222972      0.212730     -1.020122
  C      -1.303533     -1.551490     -1.964421
  C      -0.636492     -1.561860      0.376371
  C      -1.334555     -2.138750     -0.630916
  H      -0.432518      0.063773     -2.943179
  H       0.631768      0.031479      0.966270
  H      -1.930673     -3.028281     -0.477747
  H      -0.632935     -1.957008      1.386707
24
Coordinates from ORCA-job biuret_uracil_opt_freq E -808.448711916748
  N       3.981499      4.411379      2.534807
  C       3.000162      4.055352      3.445953
  O       2.684961      4.745409      4.401352
  N       2.357708      2.827881      3.207571
  C       2.136369      2.097510      2.027655
  O       1.476046      1.052300      2.151310
  N       2.620428      2.529688      0.839393
  H       4.484036      5.243005      2.820323
  H       4.559786      3.673366      2.149786
  H       1.767353      2.533981      3.979628
  H       2.868036      3.504704      0.734463
  H       2.181915      2.069396      0.035471
  O       0.907115      1.224828     -1.191333
  O      -1.842950     -1.994917     -2.969001
  N      -0.441810     -0.429683     -2.060696
  N       0.104064     -0.414090      0.199724
  C       0.238460      0.201414     -1.022642
  C      -1.270819     -1.568605     -1.974058
  C      -0.665629     -1.538729      0.384460
  C      -1.340952     -2.129767     -0.630107
  H      -0.360783      0.017108     -2.966147
  H       0.598934      0.055162      0.976759
  H      -1.946145     -3.012950     -0.475830
  H      -0.689167     -1.914675      1.401796
24
Coordinates from ORCA-job biuret_uracil_opt_freq E -808.448664546888
  N       3.954593      4.393625      2.516601
  C       2.981035      4.029381      3.431802
  O       2.679475      4.712348      4.397945
  N       2.331310      2.806054      3.190201
  C       2.131460      2.061706      2.029060
  O       1.515378      0.987870      2.165891
  N       2.579824      2.545420      0.844626
  H       4.454401      5.229904      2.793027
  H       4.503940      3.666235      2.073373
  H       1.767311      2.497393      3.976079
  H       2.753442      3.538297      0.748014
  H       2.228416      2.046733      0.027652
  O       0.969883      1.191436     -1.215891
  O      -1.831541     -1.954960     -2.950758
  N      -0.416866     -0.405753     -2.036654
  N       0.133275     -0.405720      0.201974
  C       0.275144      0.195023     -1.030239
  C      -1.262953     -1.532441     -1.952142
  C      -0.661575     -1.508899      0.401611
  C      -1.353529     -2.086697     -0.607059
  H      -0.302870      0.012393     -2.954640
  H       0.639471      0.052069      0.974138
  H      -1.975973     -2.956578     -0.446223
  H      -0.684438     -1.875773      1.422249
24
Coordinates from ORCA-job biuret_uracil_opt_freq E -808.449398081794
  N       3.978005      4.398659      2.521058
  C       3.026709      4.027454      3.459100
  O       2.765816      4.692308      4.448527
  N       2.342595      2.827198      3.203515
  C       2.108336      2.106860      2.027185
  O       1.473890      1.046091      2.155532
  N       2.543137      2.584440      0.837430
  H       4.515797      5.197384      2.834186
  H       4.524002      3.662943      2.088357
  H       1.788965      2.511863      3.992883
  H       2.766862      3.566755      0.746592
  H       2.134330      2.114763      0.025640
  O       0.938940      1.198147     -1.226890
  O      -1.793720     -2.027352     -2.968783
  N      -0.419909     -0.438844     -2.060468
  N       0.103956     -0.399003      0.194646
  C       0.254266      0.190745     -1.041337
  C      -1.246884     -1.579997     -1.968788
  C      -0.677273     -1.511544      0.394796
  C      -1.347045     -2.113806     -0.616319
  H      -0.300071     -0.031656     -2.981201
  H       0.598453      0.072918      0.967239
  H      -1.958883     -2.990401     -0.451496
  H      -0.711660     -1.866855      1.419235
24
Coordinates from ORCA-job biuret_uracil_opt_freq E -808.449607271075
  N       3.993154      4.387165      2.533612
  C       3.044226      4.021100      3.473977
  O       2.807802      4.672353      4.478090
  N       2.333736      2.839298      3.206968
  C       2.090935      2.123923      2.028491
  O       1.453799      1.065384      2.145534
  N       2.520813      2.608363      0.839108
  H       4.552669      5.172071      2.842800
  H       4.508556      3.651857      2.064395
  H       1.784106      2.519150      3.996619
  H       2.748761      3.589874      0.751461
  H       2.116607      2.137943      0.023233
  O       0.932344      1.202231     -1.236277
  O      -1.776118     -2.059834     -2.970592
  N      -0.420599     -0.451504     -2.070705
  N       0.098108     -0.389609      0.190483
  C       0.252206      0.190414     -1.048542
  C      -1.237960     -1.599597     -1.971703
  C      -0.677949     -1.505236      0.394367
  C      -1.340162     -2.121021     -0.614813
  H      -0.299371     -0.053123     -2.994464
  H       0.586619      0.090599      0.963183
  H      -1.947646     -2.999873     -0.445952
  H      -0.716024     -1.852859      1.421364
24
Coordinates from ORCA-job biuret_uracil_opt_freq E -808.449860328470
  N       3.998268      4.378830      2.533013
  C       3.071194      4.009106      3.493014
  O       2.883828      4.637018      4.522157
  N       2.318322      2.857634      3.214752
  C       2.067404      2.140261      2.037896
  O       1.438979      1.078014      2.156230
  N       2.474791      2.637872      0.845988
  H       4.597657      5.130977      2.848916
  H       4.477647      3.645223      2.024607
  H       1.784555      2.527061      4.010816
  H       2.704285      3.618457      0.760867
  H       2.070559      2.166614      0.029679
  O       0.939299      1.195469     -1.263310
  O      -1.744905     -2.103655     -2.971770
  N      -0.415809     -0.466583     -2.085108
  N       0.093857     -0.373425      0.178247
  C       0.256052      0.186857     -1.069155
  C      -1.222826     -1.623104     -1.973984
  C      -0.680921     -1.487164      0.393845
  C      -1.335341     -2.121164     -0.609993
  H      -0.286619     -0.087305     -3.014803
  H       0.585254      0.111801      0.946225
  H      -1.941059     -2.999575     -0.432938
  H      -0.725855     -1.820150      1.425446
24
Coordinates from ORCA-job biuret_uracil_opt_freq E -808.450095246627
  N       4.000776      4.362696      2.530092
  C       3.085468      3.996935      3.499374
  O       2.940161      4.604089      4.548345
  N       2.287034      2.880566      3.211274
  C       2.043838      2.144040      2.047731
  O       1.433537      1.073912      2.169415
  N       2.433101      2.645955      0.848652
  H       4.635582      5.085978      2.842363
  H       4.428902      3.637574      1.967386
  H       1.767754      2.541960      4.011356
  H       2.627686      3.633445      0.756688
  H       2.043396      2.157149      0.035590
  O       0.970492      1.188903     -1.276888
  O      -1.722417     -2.108175     -2.968285
  N      -0.403591     -0.462395     -2.083977
  N       0.103855     -0.362036      0.176934
  C       0.275458      0.187680     -1.074865
  C      -1.207805     -1.622326     -1.969122
  C      -0.674016     -1.472013      0.397297
  C      -1.327373     -2.112216     -0.603648
  H      -0.271050     -0.094051     -3.017053
  H       0.599364      0.117635      0.946407
  H      -1.936322     -2.988009     -0.425248
  H      -0.725218     -1.798228      1.430822
