26
Coordinates from ORCA-job dimethylurea_uracil_opt_freq E -717.730003011584
  O       0.077964      4.035305      1.500097
  N       1.444605      2.184315      1.500097
  N       2.364804      4.288722      1.500097
  C       1.204249      3.542699      1.499697
  H       2.387983      1.811244      1.499797
  H       2.338481      5.302794      1.500197
  C       0.339899      1.214509      1.500097
  H       0.066853      0.974806      2.527759
  H      -0.520296      1.643628      0.986266
  H       0.654003      0.305984      0.986266
  C       3.689816      3.652136      1.499952
  H       4.017426      3.494794      2.527578
  H       3.631850      2.692592      0.986127
  H       4.402666      4.296995      0.986043
  O       2.326400      0.965100      0.000100
  O      -2.297200      1.023200      0.000500
  N       0.018000      1.019900     -0.000200
  N       1.163700     -1.022100      0.000100
  C       1.252400      0.362900      0.000000
  C      -1.231500      0.414100     -0.000400
  C      -0.026800     -1.695500      0.000200
  C      -1.204900     -1.067600     -0.000200
  H       0.038200      2.035700     -0.000100
  H       2.018700     -1.570200      0.000400
  H      -2.144300     -1.606300     -0.000200
  H       0.046900     -2.776100      0.000400
26
Coordinates from ORCA-job dimethylurea_uracil_opt_freq E -717.828993512533
  O       0.081754      4.004279      1.533435
  N       1.442253      2.158036      1.529921
  N       2.361435      4.290255      1.505040
  C       1.213277      3.519472      1.523745
  H       2.374054      1.763847      1.515669
  H       2.291318      5.299794      1.501524
  C       0.348793      1.211163      1.545071
  H       0.070864      0.977778      2.587414
  H      -0.518006      1.666074      1.032191
  H       0.653543      0.275754      1.021005
  C       3.718984      3.723726      1.489632
  H       4.073961      3.586085      2.513423
  H       3.714706      2.763278      0.977072
  H       4.388941      4.405381      0.964361
  O       2.351060      0.901652     -0.003804
  O      -2.287997      1.059111     -0.050273
  N       0.020561      1.005598     -0.021797
  N       1.148249     -1.059445     -0.000001
  C       1.264377      0.320891      0.003366
  C      -1.240645      0.413420     -0.037863
  C      -0.061360     -1.717076     -0.011430
  C      -1.232585     -1.065621     -0.029557
  H       0.072064      2.023389     -0.037046
  H       1.995478     -1.616195      0.000675
  H      -2.180388     -1.587841     -0.039960
  H      -0.004789     -2.799185     -0.011141
26
Coordinates from ORCA-job dimethylurea_uracil_opt_freq E -717.912127829098
  O       0.079940      3.990756      1.565636
  N       1.437604      2.147204      1.560188
  N       2.354822      4.285267      1.504122
  C       1.214521      3.508186      1.546085
  H       2.364939      1.741123      1.531530
  H       2.258992      5.290949      1.494200
  C       0.356796      1.213555      1.594859
  H       0.078272      0.986416      2.648514
  H      -0.512650      1.683840      1.083633
  H       0.653805      0.259605      1.061549
  C       3.723981      3.752681      1.473202
  H       4.104122      3.629736      2.491899
  H       3.740335      2.788852      0.965592
  H       4.368232      4.447138      0.931659
  O       2.366539      0.866881     -0.005016
  O      -2.270487      1.088936     -0.097200
  N       0.023454      0.995860     -0.043303
  N       1.142383     -1.075654      0.000751
  C       1.274950      0.298121      0.006765
  C      -1.240407      0.414493     -0.073356
  C      -0.077626     -1.726509     -0.021141
  C      -1.244079     -1.060300     -0.056715
  H       0.100518      2.010881     -0.068805
  H       1.987182     -1.633215      0.001775
  H      -2.197068     -1.571912     -0.076104
  H      -0.029169     -2.809267     -0.019649
26
Coordinates from ORCA-job dimethylurea_uracil_opt_freq E -718.013080052036
  O       0.082734      3.971697      1.614697
  N       1.436343      2.132283      1.606140
  N       2.349289      4.280393      1.504537
  C       1.221051      3.492664      1.580152
  H       2.358230      1.714337      1.556259
  H       2.213917      5.280048      1.488105
  C       0.363797      1.210303      1.669561
  H       0.085035      0.993578      2.732848
  H      -0.499324      1.696534      1.159508
  H       0.645795      0.239242      1.125189
  C       3.733417      3.799053      1.448187
  H       4.150346      3.696923      2.457154
  H       3.780851      2.833517      0.944435
  H       4.338048      4.512649      0.884864
  O       2.380449      0.818157     -0.005446
  O      -2.242483      1.125225     -0.171446
  N       0.029392      0.976987     -0.078085
  N       1.126574     -1.098782      0.002842
  C       1.282476      0.266506      0.009518
  C      -1.236515      0.416344     -0.130052
  C      -0.103727     -1.738615     -0.034635
  C      -1.260381     -1.052694     -0.099159
  H       0.142740      1.986106     -0.111774
  H       1.968785     -1.657936      0.007154
  H      -2.220864     -1.548976     -0.131757
  H      -0.066071     -2.821921     -0.028128
26
Coordinates from ORCA-job dimethylurea_uracil_opt_freq E -718.123602942024
  O       0.092278      3.963940      1.689797
  N       1.441308      2.126021      1.672146
  N       2.347374      4.278189      1.508720
  C       1.231961      3.484426      1.632133
  H       2.359324      1.703750      1.587998
  H       2.166799      5.269986      1.488012
  C       0.367111      1.203475      1.776544
  H       0.091907      1.000441      2.843068
  H      -0.478211      1.697910      1.268217
  H       0.626906      0.227419      1.221327
  C       3.740033      3.846591      1.412339
  H       4.206778      3.766293      2.403595
  H       3.811751      2.880094      0.909934
  H       4.298480      4.575470      0.820041
  O       2.389829      0.765407     -0.014276
  O      -2.210861      1.153985     -0.283854
  N       0.040983      0.951027     -0.133587
  N       1.103454     -1.125468      0.005908
  C       1.284330      0.234422      0.003728
  C      -1.229021      0.415894     -0.216277
  C      -0.133713     -1.752991     -0.049933
  C      -1.276847     -1.047485     -0.159737
  H       0.193968      1.953767     -0.168158
  H       1.945063     -1.684884      0.019310
  H      -2.244891     -1.527609     -0.208205
  H      -0.106189     -2.836447     -0.028120
26
Coordinates from ORCA-job dimethylurea_uracil_opt_freq E -718.201647479415
  O       0.105935      3.967846      1.770313
  N       1.452015      2.127847      1.733329
  N       2.349919      4.281006      1.519788
  C       1.243210      3.484403      1.686029
  H       2.367140      1.711555      1.611341
  H       2.134747      5.266329      1.504400
  C       0.367907      1.196656      1.875681
  H       0.100595      1.006315      2.937168
  H      -0.460484      1.690176      1.368582
  H       0.604083      0.234878      1.317524
  C       3.743349      3.881295      1.380353
  H       4.254604      3.810074      2.351266
  H       3.825030      2.918335      0.870298
  H       4.265267      4.621196      0.767629
  O       2.391032      0.724060     -0.038842
  O      -2.190010      1.161093     -0.402337
  N       0.058003      0.927900     -0.195363
  N       1.081243     -1.149523      0.008945
  C       1.278571      0.211997     -0.018961
  C      -1.222115      0.411538     -0.304202
  C      -0.158483     -1.766100     -0.057240
  C      -1.289141     -1.048502     -0.215051
  H       0.235674      1.927877     -0.225035
  H       1.923345     -1.708473      0.037417
  H      -2.262288     -1.517252     -0.273724
  H      -0.139244     -2.848902     -0.008637
26
Coordinates from ORCA-job dimethylurea_uracil_opt_freq E -718.254200043151
  O       0.118210      3.978546      1.854827
  N       1.462080      2.133968      1.788186
  N       2.351924      4.285060      1.534915
  C       1.249779      3.488908      1.740252
  H       2.374951      1.729413      1.627259
  H       2.117705      5.266712      1.531357
  C       0.369240      1.195500      1.963339
  H       0.113306      1.016930      3.019098
  H      -0.453599      1.683598      1.455832
  H       0.583754      0.258966      1.408426
  C       3.739499      3.895908      1.351250
  H       4.288527      3.820547      2.301334
  H       3.813740      2.938356      0.828040
  H       4.237676      4.641816      0.725418
  O       2.388684      0.696909     -0.076655
  O      -2.172261      1.155502     -0.518365
  N       0.078859      0.909713     -0.260045
  N       1.066916     -1.166437      0.011091
  C       1.270163      0.199479     -0.059340
  C      -1.213841      0.404193     -0.386703
  C      -0.173026     -1.774715     -0.057883
  C      -1.294254     -1.052536     -0.261632
  H       0.263772      1.909574     -0.283034
  H       1.910119     -1.722557      0.060706
  H      -2.270573     -1.514159     -0.323838
  H      -0.161446     -2.855570      0.026835
26
Coordinates from ORCA-job dimethylurea_uracil_opt_freq E -718.288741548016
  O       0.130171      3.996391      1.941821
  N       1.468547      2.144775      1.839131
  N       2.353477      4.291617      1.550503
  C       1.253263      3.499042      1.793130
  H       2.378213      1.752601      1.640242
  H       2.115853      5.272768      1.562398
  C       0.369801      1.204543      2.043849
  H       0.126862      1.038730      3.097974
  H      -0.459025      1.681122      1.535295
  H       0.568210      0.289831      1.494477
  C       3.730372      3.895252      1.322954
  H       4.309811      3.803187      2.253311
  H       3.782757      2.945031      0.782720
  H       4.216801      4.644183      0.691090
  O       2.388322      0.676953     -0.117899
  O      -2.154050      1.143639     -0.625338
  N       0.099380      0.893514     -0.324656
  N       1.060892     -1.179164      0.010577
  C       1.263819      0.189907     -0.111736
  C      -1.205017      0.392774     -0.459074
  C      -0.178266     -1.781488     -0.060528
  C      -1.293451     -1.059925     -0.302756
  H       0.274712      1.895319     -0.341148
  H       1.905140     -1.730490      0.086632
  H      -2.271603     -1.517540     -0.364832
  H      -0.175087     -2.858949      0.062534
26
Coordinates from ORCA-job dimethylurea_uracil_opt_freq E -718.310989795875
  O       0.143506      4.022786      2.027508
  N       1.470523      2.161895      1.888381
  N       2.355364      4.302067      1.563371
  C       1.256180      3.516735      1.843359
  H       2.374768      1.777969      1.654771
  H       2.127719      5.285343      1.591397
  C       0.368142      1.227313      2.120753
  H       0.138212      1.076821      3.176783
  H      -0.474179      1.684242      1.611589
  H       0.558168      0.318730      1.577346
  C       3.718238      3.886116      1.294198
  H       4.320097      3.766206      2.206939
  H       3.739240      2.946095      0.733550
  H       4.203038      4.637368      0.663759
  O       2.394798      0.656220     -0.151403
  O      -2.136350      1.129117     -0.716130
  N       0.116737      0.877166     -0.384894
  N       1.060974     -1.192306      0.005432
  C       1.265143      0.176258     -0.165305
  C      -1.197106      0.377460     -0.517506
  C      -0.177180     -1.790245     -0.073124
  C      -1.289312     -1.071262     -0.340660
  H       0.269593      1.882187     -0.396457
  H       1.904915     -1.739189      0.109550
  H      -2.268050     -1.527506     -0.403048
  H      -0.183274     -2.863962      0.080510
26
Coordinates from ORCA-job dimethylurea_uracil_opt_freq E -718.325563128906
  O       0.159641      4.056710      2.113207
  N       1.467704      2.184144      1.937960
  N       2.357919      4.315449      1.573279
  C       1.260308      3.541007      1.892914
  H       2.363404      1.801091      1.673684
  H       2.149810      5.302261      1.617339
  C       0.362452      1.261527      2.194486
  H       0.143454      1.128068      3.254229
  H      -0.497140      1.693371      1.685329
  H       0.551017      0.343768      1.660506
  C       3.704579      3.874248      1.262834
  H       4.322782      3.716245      2.158741
  H       3.689511      2.949571      0.676580
  H       4.193949      4.630335      0.641996
  O       2.407606      0.632995     -0.173640
  O      -2.117759      1.114656     -0.790195
  N       0.132469      0.859544     -0.439181
  N       1.064423     -1.208169     -0.004502
  C       1.275959      0.156249     -0.210856
  C      -1.188019      0.359591     -0.565898
  C      -0.173144     -1.802630     -0.094764
  C      -1.283579     -1.085413     -0.375545
  H       0.257342      1.867753     -0.448633
  H       1.905895     -1.753340      0.124859
  H      -2.262091     -1.541728     -0.440801
  H      -0.188592     -2.873679      0.076742
26
Coordinates from ORCA-job dimethylurea_uracil_opt_freq E -718.335217691329
  O       0.180754      4.096397      2.204465
  N       1.461573      2.210262      1.986281
  N       2.361286      4.331259      1.582246
  C       1.266943      3.570267      1.943523
  H       2.344830      1.820394      1.692661
  H       2.178324      5.321755      1.644117
  C       0.353213      1.303217      2.263630
  H       0.142979      1.187906      3.328039
  H      -0.524283      1.708722      1.756888
  H       0.543951      0.367640      1.747344
  C       3.690420      3.865085      1.229714
  H       4.319753      3.658630      2.107960
  H       3.638859      2.963478      0.610265
  H       4.188169      4.631367      0.628778
  O       2.422019      0.606769     -0.190776
  O      -2.096594      1.100392     -0.852142
  N       0.149035      0.837776     -0.489194
  N       1.067853     -1.228671     -0.018301
  C       1.292002      0.129498     -0.247048
  C      -1.175742      0.339211     -0.609958
  C      -0.170217     -1.819946     -0.119701
  C      -1.278256     -1.102284     -0.407960
  H       0.248986      1.848164     -0.502211
  H       1.904798     -1.775817      0.131178
  H      -2.256608     -1.558178     -0.478310
  H      -0.194142     -2.889669      0.059182
26
Coordinates from ORCA-job dimethylurea_uracil_opt_freq E -718.341637999354
  O       0.207895      4.139681      2.301965
  N       1.454868      2.239835      2.028759
  N       2.365104      4.349772      1.591002
  C       1.276659      3.603269      1.995138
  H       2.321356      1.838316      1.702992
  H       2.209226      5.343213      1.672325
  C       0.343219      1.348759      2.326280
  H       0.141575      1.252092      3.395563
  H      -0.551089      1.730698      1.826500
  H       0.536607      0.392320      1.837285
  C       3.676541      3.861446      1.199320
  H       4.310420      3.599965      2.059552
  H       3.591799      2.989427      0.541973
  H       4.186751      4.641403      0.627682
  O       2.434237      0.576759     -0.208678
  O      -2.075673      1.084578     -0.904552
  N       0.165290      0.810464     -0.536431
  N       1.069485     -1.254813     -0.035393
  C       1.307261      0.097135     -0.276930
  C      -1.162210      0.316554     -0.651387
  C      -0.170557     -1.842448     -0.144207
  C      -1.274894     -1.122094     -0.439050
  H       0.250299      1.821813     -0.560310
  H       1.900554     -1.806881      0.129109
  H      -2.253694     -1.576047     -0.514621
  H      -0.201127     -2.911594      0.036782
26
Coordinates from ORCA-job dimethylurea_uracil_opt_freq E -718.346025527759
  O       0.241467      4.184806      2.400619
  N       1.449366      2.272890      2.058264
  N       2.370581      4.372873      1.600190
  C       1.289491      3.639352      2.042868
  H       2.294431      1.858377      1.694612
  H       2.241457      5.367814      1.705095
  C       0.335313      1.396825      2.380051
  H       0.145392      1.319797      3.454374
  H      -0.574986      1.759877      1.893062
  H       0.530123      0.419420      1.927059
  C       3.666838      3.866176      1.179463
  H       4.294302      3.544591      2.023934
  H       3.556928      3.029794      0.480372
  H       4.196481      4.661144      0.648225
  O       2.440654      0.542271     -0.232755
  O      -2.062359      1.062167     -0.948036
  N       0.176010      0.776515     -0.583558
  N       1.068320     -1.287083     -0.056767
  C       1.316110      0.060004     -0.306184
  C      -1.153182      0.289337     -0.689856
  C      -0.174770     -1.870907     -0.166816
  C      -1.275380     -1.147299     -0.467680
  H       0.258176      1.787460     -0.626293
  H       1.893546     -1.844683      0.118559
  H      -2.255300     -1.598460     -0.544619
  H      -0.209106     -2.939434      0.016488
26
Coordinates from ORCA-job dimethylurea_uracil_opt_freq E -718.349031174747
  O       0.282019      4.229760      2.501457
  N       1.444512      2.308260      2.074718
  N       2.377804      4.400434      1.610809
  C       1.305982      3.677025      2.089668
  H       2.262890      1.882166      1.665647
  H       2.274758      5.394902      1.744999
  C       0.329269      1.446436      2.425345
  H       0.154454      1.390417      3.504693
  H      -0.595406      1.796472      1.955118
  H       0.524471      0.449735      2.014562
  C       3.661213      3.878185      1.169322
  H       4.272720      3.492804      1.998714
  H       3.533285      3.082863      0.426220
  H       4.216340      4.686476      0.687121
  O       2.441318      0.504003     -0.260137
  O      -2.057669      1.032133     -0.986692
  N       0.180404      0.737407     -0.630962
  N       1.065154     -1.324240     -0.081707
  C       1.317962      0.019824     -0.335816
  C      -1.149838      0.257490     -0.726674
  C      -0.181488     -1.904149     -0.187942
  C      -1.278857     -1.177682     -0.494170
  H       0.271020      1.746237     -0.699035
  H       1.885419     -1.886090      0.102769
  H      -2.260455     -1.625611     -0.567912
  H      -0.217376     -2.971634      0.000554
26
Coordinates from ORCA-job dimethylurea_uracil_opt_freq E -718.351080729940
  O       0.328304      4.273390      2.597487
  N       1.439106      2.345392      2.077619
  N       2.387842      4.431647      1.621195
  C       1.324645      3.715046      2.129731
  H       2.225407      1.910959      1.616727
  H       2.309800      5.423141      1.790273
  C       0.325365      1.496865      2.463307
  H       0.170668      1.464156      3.547602
  H      -0.612734      1.838120      2.012828
  H       0.521153      0.483636      2.097273
  C       3.662952      3.895741      1.172040
  H       4.248632      3.448872      1.989173
  H       3.527019      3.143118      0.386557
  H       4.248249      4.712644      0.743616
  O       2.434045      0.466871     -0.290744
  O      -2.064936      0.992236     -1.020963
  N       0.175409      0.695106     -0.678032
  N       1.060306     -1.363343     -0.111114
  C       1.311619     -0.020148     -0.367365
  C      -1.155271      0.219616     -0.760777
  C      -0.189051     -1.941378     -0.208549
  C      -1.285480     -1.214436     -0.517148
  H       0.280749      1.700110     -0.775889
  H       1.878184     -1.925744      0.081359
  H      -2.268491     -1.660472     -0.583153
  H      -0.223590     -3.007523     -0.012386
26
Coordinates from ORCA-job dimethylurea_uracil_opt_freq E -718.352325638870
  O       0.379431      4.313274      2.690830
  N       1.431737      2.380928      2.076676
  N       2.398817      4.461369      1.630442
  C       1.345719      3.749891      2.169583
  H       2.181074      1.942131      1.560341
  H       2.345357      5.447765      1.836062
  C       0.320732      1.545005      2.498490
  H       0.187682      1.537391      3.586715
  H      -0.628453      1.880436      2.066480
  H       0.518261      0.518905      2.174430
  C       3.667100      3.912395      1.177421
  H       4.226979      3.413618      1.982448
  H       3.526681      3.198421      0.357040
  H       4.280197      4.731864      0.795540
  O       2.422673      0.435560     -0.314586
  O      -2.076560      0.948895     -1.056608
  N       0.166468      0.655309     -0.720875
  N       1.056004     -1.399838     -0.141201
  C       1.301873     -0.055687     -0.395823
  C      -1.164110      0.180537     -0.794310
  C      -0.194623     -1.977868     -0.229381
  C      -1.291623     -1.252355     -0.539164
  H       0.287216      1.655185     -0.848177
  H       1.873569     -1.959011      0.060933
  H      -2.275389     -1.697886     -0.597392
  H      -0.226907     -3.042610     -0.025242
26
Coordinates from ORCA-job dimethylurea_uracil_opt_freq E -718.352999332350
  O       0.435626      4.349523      2.781001
  N       1.420890      2.415432      2.070208
  N       2.412789      4.489093      1.641040
  C       1.365736      3.782182      2.201806
  H       2.130414      1.976091      1.499483
  H       2.387355      5.466881      1.890052
  C       0.314814      1.590813      2.528494
  H       0.204268      1.610836      3.619272
  H      -0.644081      1.919263      2.112075
  H       0.515907      0.555430      2.240924
  C       3.674095      3.925659      1.184845
  H       4.207276      3.378604      1.976282
  H       3.529558      3.250262      0.333003
  H       4.314660      4.743162      0.846193
  O       2.406621      0.414751     -0.333472
  O      -2.092922      0.900390     -1.094973
  N       0.152697      0.619307     -0.759051
  N       1.053064     -1.430540     -0.169118
  C       1.289345     -0.084391     -0.421369
  C      -1.176513      0.139272     -0.826602
  C      -0.196440     -2.012395     -0.247454
  C      -1.296498     -1.292094     -0.558429
  H       0.282508      1.614119     -0.913372
  H       1.872770     -1.981967      0.044847
  H      -2.279432     -1.740380     -0.609751
  H      -0.224602     -3.075681     -0.035262
26
Coordinates from ORCA-job dimethylurea_uracil_opt_freq E -718.353373432319
  O       0.486777      4.378723      2.857225
  N       1.410096      2.442488      2.073406
  N       2.424078      4.507334      1.647931
  C       1.388373      3.805790      2.239864
  H       2.079559      2.005231      1.453717
  H       2.423445      5.477608      1.927163
  C       0.307638      1.629156      2.561542
  H       0.216366      1.675856      3.653078
  H      -0.658339      1.951106      2.155427
  H       0.512081      0.587734      2.301423
  C       3.677280      3.930284      1.184137
  H       4.196771      3.356565      1.965445
  H       3.523708      3.275854      0.317637
  H       4.334283      4.742108      0.863572
  O       2.392231      0.404845     -0.337458
  O      -2.104092      0.859810     -1.136168
  N       0.142055      0.593765     -0.787233
  N       1.052774     -1.452172     -0.192106
  C       1.279734     -0.103252     -0.437683
  C      -1.185051      0.105869     -0.857656
  C      -0.194317     -2.038895     -0.266449
  C      -1.297333     -1.324282     -0.580341
  H       0.274924      1.584793     -0.961522
  H       1.874544     -1.994654      0.036265
  H      -2.278495     -1.776620     -0.630499
  H      -0.219183     -3.101422     -0.050048
26
Coordinates from ORCA-job dimethylurea_uracil_opt_freq E -718.353644266840
  O       0.544769      4.407741      2.935528
  N       1.394648      2.471392      2.071899
  N       2.439693      4.524001      1.657844
  C       1.404729      3.830847      2.264800
  H       2.024001      2.038316      1.408489
  H       2.471786      5.482425      1.975124
  C       0.298868      1.667691      2.590904
  H       0.227349      1.743975      3.681706
  H      -0.674279      1.978573      2.192086
  H       0.508167      0.622072      2.353333
  C       3.680600      3.926610      1.183390
  H       4.184228      3.323455      1.952508
  H       3.512185      3.295227      0.302745
  H       4.357619      4.728496      0.879625
  O       2.373385      0.408115     -0.338606
  O      -2.119418      0.812772     -1.180247
  N       0.126683      0.572238     -0.811575
  N       1.055568     -1.465765     -0.211781
  C       1.268348     -0.113573     -0.451495
  C      -1.195838      0.069823     -0.888169
  C      -0.186264     -2.062799     -0.282803
  C      -1.295183     -1.358986     -0.600833
  H       0.253479      1.560805     -1.003103
  H       1.881217     -1.995121      0.032950
  H      -2.272280     -1.820057     -0.651198
  H      -0.204158     -3.124651     -0.062451
26
Coordinates from ORCA-job dimethylurea_uracil_opt_freq E -718.353920361441
  O       0.598024      4.429815      3.005371
  N       1.382369      2.490145      2.087108
  N       2.451095      4.529542      1.664939
  C       1.425941      3.845406      2.301648
  H       1.973494      2.062594      1.386446
  H       2.510594      5.480736      2.000598
  C       0.288918      1.697833      2.628873
  H       0.232193      1.802867      3.717264
  H      -0.687652      1.999205      2.229495
  H       0.499142      0.649146      2.405565
  C       3.676217      3.915724      1.167455
  H       4.188475      3.309811      1.928465
  H       3.481264      3.283149      0.293436
  H       4.355315      4.708486      0.844737
  O       2.358798      0.417111     -0.317466
  O      -2.122500      0.778915     -1.232947
  N       0.118906      0.561242     -0.824556
  N       1.059723     -1.471934     -0.223450
  C       1.261864     -0.116133     -0.451547
  C      -1.198162      0.044912     -0.921423
  C      -0.176594     -2.078091     -0.302524
  C      -1.288631     -1.383292     -0.630257
  H       0.236306      1.549055     -1.025390
  H       1.886307     -1.989716      0.042331
  H      -2.261186     -1.852730     -0.690427
  H      -0.190315     -3.140174     -0.083076
26
Coordinates from ORCA-job dimethylurea_uracil_opt_freq E -718.354221734666
  O       0.655391      4.447415      3.076923
  N       1.371614      2.503542      2.110259
  N       2.464183      4.528143      1.675804
  C       1.446937      3.855148      2.338777
  H       1.927421      2.082568      1.378940
  H       2.553340      5.472778      2.023889
  C       0.278395      1.724090      2.671816
  H       0.234598      1.860710      3.755971
  H      -0.698393      2.014136      2.263126
  H       0.484516      0.672552      2.456059
  C       3.665457      3.898024      1.139436
  H       4.205736      3.302204      1.888921
  H       3.429795      3.252063      0.286013
  H       4.333346      4.681693      0.773826
  O       2.342894      0.434463     -0.276531
  O      -2.117974      0.748779     -1.298757
  N       0.112748      0.557398     -0.827384
  N       1.064449     -1.470059     -0.224959
  C       1.255978     -0.110329     -0.438308
  C      -1.195467      0.024449     -0.959967
  C      -0.164213     -2.087797     -0.323657
  C      -1.277903     -1.403884     -0.669252
  H       0.214369      1.546366     -1.030876
  H       1.889481     -1.975903      0.067721
  H      -2.243692     -1.884211     -0.749019
  H      -0.173106     -3.150716     -0.108100
26
Coordinates from ORCA-job dimethylurea_uracil_opt_freq E -718.354399342806
  O       0.697740      4.456417      3.126221
  N       1.367894      2.508959      2.132411
  N       2.474789      4.523509      1.685697
  C       1.464738      3.858457      2.366970
  H       1.900930      2.090282      1.383333
  H       2.584254      5.464633      2.037266
  C       0.271907      1.741472      2.706682
  H       0.236340      1.901235      3.787027
  H      -0.702578      2.023775      2.286705
  H       0.469571      0.687207      2.494960
  C       3.653846      3.885254      1.111699
  H       4.227305      3.304175      1.848173
  H       3.383587      3.223059      0.281768
  H       4.302333      4.664108      0.703354
  O       2.329877      0.448792     -0.233394
  O      -2.109582      0.730298     -1.353181
  N       0.108609      0.557161     -0.822492
  N       1.065487     -1.465408     -0.217687
  C       1.250378     -0.102895     -0.418540
  C      -1.190411      0.012554     -0.991531
  C      -0.156055     -2.092686     -0.341332
  C      -1.268494     -1.417075     -0.706811
  H       0.198728      1.547733     -1.023480
  H       1.886742     -1.964668      0.096297
  H      -2.227777     -1.906112     -0.808723
  H      -0.160256     -3.156611     -0.130722
26
Coordinates from ORCA-job dimethylurea_uracil_opt_freq E -718.354537589827
  O       0.729997      4.463323      3.159836
  N       1.367375      2.512658      2.150288
  N       2.484808      4.519446      1.693461
  C       1.479825      3.860923      2.386767
  H       1.884592      2.091516      1.391346
  H       2.608976      5.458454      2.045541
  C       0.268210      1.756686      2.735228
  H       0.239504      1.933373      3.812545
  H      -0.704224      2.033667      2.307165
  H       0.456166      0.699442      2.529326
  C       3.645166      3.876270      1.089364
  H       4.245429      3.306041      1.813109
  H       3.349341      3.201767      0.278564
  H       4.276568      4.651745      0.648962
  O       2.316011      0.461855     -0.196290
  O      -2.105117      0.714525     -1.395023
  N       0.101762      0.556758     -0.816292
  N       1.064201     -1.460183     -0.207952
  C       1.242494     -0.095504     -0.399159
  C      -1.187781      0.002541     -1.017305
  C      -0.149778     -2.097104     -0.357567
  C      -1.260539     -1.429300     -0.741777
  H       0.185118      1.548796     -1.013076
  H       1.882159     -1.955684      0.120266
  H      -2.213136     -1.926410     -0.864866
  H      -0.147223     -3.161977     -0.151790
26
Coordinates from ORCA-job dimethylurea_uracil_opt_freq E -718.354726024043
  O       0.768207      4.474753      3.193099
  N       1.368659      2.518177      2.172557
  N       2.500003      4.514245      1.701214
  C       1.499664      3.865428      2.407354
  H       1.868604      2.087876      1.406946
  H       2.640631      5.451816      2.050541
  C       0.265570      1.779351      2.773131
  H       0.247124      1.975475      3.846800
  H      -0.705309      2.050686      2.338564
  H       0.438299      0.717197      2.579620
  C       3.637200      3.864730      1.063389
  H       4.266983      3.305427      1.770807
  H       3.313358      3.176698      0.275215
  H       4.249211      4.635192      0.588012
  O       2.291195      0.482971     -0.149003
  O      -2.106244      0.689890     -1.444831
  N       0.085587      0.555718     -0.807064
  N       1.060204     -1.451124     -0.192610
  C       1.226351     -0.083616     -0.372365
  C      -1.188712     -0.012901     -1.050479
  C      -0.140454     -2.104097     -0.381853
  C      -1.249266     -1.448900     -0.792024
  H       0.162714      1.549959     -0.995511
  H       1.875391     -1.942411      0.148391
  H      -2.190650     -1.958650     -0.945688
  H      -0.124418     -3.170266     -0.183541
26
Coordinates from ORCA-job dimethylurea_uracil_opt_freq E -718.355000838538
  O       0.807690      4.494048      3.218084
  N       1.370047      2.527733      2.195466
  N       2.519694      4.509160      1.704935
  C       1.521494      3.874161      2.423692
  H       1.852980      2.080842      1.427879
  H       2.676688      5.446330      2.047954
  C       0.264909      1.810077      2.817705
  H       0.260633      2.025278      3.887684
  H      -0.707195      2.076459      2.383664
  H       0.419596      0.741478      2.645439
  C       3.634262      3.849153      1.040791
  H       4.284354      3.294915      1.734148
  H       3.286074      3.151830      0.271522
  H       4.234525      4.611756      0.538319
  O       2.252662      0.514335     -0.101332
  O      -2.119386      0.653024     -1.494912
  N       0.056311      0.553383     -0.797952
  N       1.053959     -1.437976     -0.176010
  C       1.199921     -0.067161     -0.344423
  C      -1.197167     -0.035793     -1.087157
  C      -0.126245     -2.114017     -0.413516
  C      -1.234593     -1.477142     -0.852095
  H       0.127294      1.550432     -0.974069
  H       1.870124     -1.922845      0.171453
  H      -2.159672     -2.004390     -1.041567
  H      -0.089054     -3.181444     -0.225032
26
Coordinates from ORCA-job dimethylurea_uracil_opt_freq E -718.355288610850
  O       0.844575      4.523202      3.230774
  N       1.368781      2.542733      2.216143
  N       2.540761      4.504971      1.700663
  C       1.541667      3.888260      2.432926
  H       1.835493      2.074975      1.450105
  H       2.713086      5.442738      2.034458
  C       0.266409      1.846828      2.865844
  H       0.279449      2.078575      3.932550
  H      -0.711177      2.109862      2.442869
  H       0.405341      0.771524      2.722558
  C       3.638455      3.827175      1.027191
  H       4.290269      3.268911      1.715947
  H       3.273189      3.128347      0.267367
  H       4.243206      4.577941      0.512303
  O       2.201954      0.555689     -0.062831
  O      -2.146154      0.603871     -1.539387
  N       0.015167      0.549860     -0.792593
  N       1.047812     -1.421505     -0.164864
  C       1.165195     -0.047260     -0.323138
  C      -1.214157     -0.066060     -1.122965
  C      -0.105955     -2.125683     -0.449882
  C      -1.217261     -1.512102     -0.912735
  H       0.077309      1.550058     -0.953977
  H       1.871055     -1.895083      0.181162
  H      -2.122247     -2.060347     -1.136685
  H      -0.042318     -3.193857     -0.273129
26
Coordinates from ORCA-job dimethylurea_uracil_opt_freq E -718.355558853320
  O       0.867629      4.554123      3.227729
  N       1.365049      2.557948      2.230326
  N       2.554731      4.501983      1.687632
  C       1.553212      3.903095      2.432877
  H       1.821675      2.073678      1.468024
  H       2.736626      5.441717      2.010852
  C       0.269996      1.876706      2.904769
  H       0.297812      2.117725      3.969695
  H      -0.714998      2.139963      2.499448
  H       0.401678      0.796895      2.787163
  C       3.647076      3.803280      1.025701
  H       4.282518      3.236749      1.722869
  H       3.276325      3.108665      0.264775
  H       4.270052      4.541088      0.513827
  O       2.155767      0.594586     -0.043139
  O      -2.175349      0.558823     -1.568003
  N      -0.022830      0.547681     -0.792273
  N       1.045141     -1.406456     -0.163973
  C       1.134708     -0.029707     -0.315327
  C      -1.232910     -0.093435     -1.147734
  C      -0.085598     -2.134436     -0.479781
  C      -1.202935     -1.541567     -0.954688
  H       0.027078      1.550662     -0.940552
  H       1.879169     -1.865750      0.175452
  H      -2.091148     -2.107499     -1.200903
  H      -0.000569     -3.202893     -0.314098
26
Coordinates from ORCA-job dimethylurea_uracil_opt_freq E -718.355793720738
  O       0.889530      4.585748      3.223196
  N       1.359743      2.572832      2.245091
  N       2.562990      4.498395      1.668377
  C       1.561689      3.917625      2.431460
  H       1.805814      2.077860      1.483040
  H       2.753554      5.440218      1.980756
  C       0.274662      1.903152      2.944107
  H       0.315841      2.152492      4.007275
  H      -0.717575      2.169081      2.558028
  H       0.404186      0.820495      2.848328
  C       3.654289      3.776819      1.026971
  H       4.267734      3.204355      1.738489
  H       3.282037      3.086172      0.263388
  H       4.297942      4.500990      0.521310
  O       2.113110      0.630100     -0.027216
  O      -2.198836      0.517658     -1.596859
  N      -0.055518      0.546425     -0.795022
  N       1.045283     -1.393382     -0.170529
  C       1.108667     -0.014515     -0.313954
  C      -1.248658     -0.118644     -1.170222
  C      -0.065301     -2.141384     -0.507214
  C      -1.189599     -1.566912     -0.988333
  H      -0.023937      1.551833     -0.931549
  H       1.890010     -1.835668      0.165268
  H      -2.063312     -2.147990     -1.250779
  H       0.035559     -3.210135     -0.352736
26
Coordinates from ORCA-job dimethylurea_uracil_opt_freq E -718.356006592813
  O       0.918135      4.612266      3.229433
  N       1.355488      2.584943      2.264287
  N       2.567708      4.493650      1.650378
  C       1.571999      3.929055      2.435559
  H       1.785709      2.084486      1.496429
  H       2.768570      5.436363      1.954008
  C       0.279236      1.927878      2.987105
  H       0.332490      2.190084      4.046868
  H      -0.717638      2.196486      2.614470
  H       0.406190      0.843456      2.908239
  C       3.655593      3.753131      1.022435
  H       4.258033      3.182490      1.744397
  H       3.278806      3.060174      0.263512
  H       4.309087      4.466046      0.513376
  O       2.075966      0.656223     -0.003582
  O      -2.209201      0.483986     -1.635354
  N      -0.080041      0.544089     -0.798267
  N       1.045333     -1.384461     -0.178978
  C       1.087525     -0.003715     -0.310974
  C      -1.256643     -0.140103     -1.196313
  C      -0.048112     -2.147612     -0.533446
  C      -1.176629     -1.587721     -1.021994
  H      -0.069797      1.551184     -0.925071
  H       1.895736     -1.811433      0.162568
  H      -2.037495     -2.180731     -1.299775
  H       0.063857     -3.216591     -0.388639
26
Coordinates from ORCA-job dimethylurea_uracil_opt_freq E -718.356095753725
  O       0.968248      4.645252      3.250273
  N       1.352242      2.600479      2.297484
  N       2.574225      4.485916      1.630074
  C       1.591425      3.942985      2.448358
  H       1.752854      2.092023      1.518164
  H       2.792262      5.428661      1.922247
  C       0.285994      1.966230      3.054303
  H       0.356494      2.253096      4.106550
  H      -0.715084      2.236643      2.694098
  H       0.404880      0.879534      2.998779
  C       3.651449      3.723478      1.007830
  H       4.254715      3.162659      1.736576
  H       3.261944      3.019853      0.265825
  H       4.305521      4.422272      0.480145
  O       2.023585      0.684385      0.041304
  O      -2.214017      0.440651     -1.699966
  N      -0.111780      0.537289     -0.801405
  N       1.042295     -1.375279     -0.188279
  C       1.057412      0.007814     -0.299966
  C      -1.261938     -0.168810     -1.239626
  C      -0.026199     -2.157134     -0.573372
  C      -1.156343     -1.615745     -1.078783
  H      -0.130015      1.545779     -0.915250
  H       1.894715     -1.784772      0.169485
  H      -1.997495     -2.223806     -1.383082
  H       0.102514     -3.225829     -0.441095
26
Coordinates from ORCA-job dimethylurea_uracil_opt_freq E -718.356201205417
  O       0.984316      4.662321      3.252291
  N       1.356997      2.606709      2.317849
  N       2.572606      4.485103      1.616633
  C       1.598591      3.950699      2.451595
  H       1.745252      2.094680      1.535759
  H       2.791209      5.430988      1.898618
  C       0.295982      1.984787      3.092334
  H       0.376564      2.286599      4.139548
  H      -0.706608      2.259629      2.738746
  H       0.409517      0.897387      3.046839
  C       3.653834      3.717373      1.006963
  H       4.259043      3.171033      1.745020
  H       3.268036      3.000415      0.276126
  H       4.304595      4.411849      0.469522
  O       1.997391      0.686157      0.060446
  O      -2.214914      0.421903     -1.734750
  N      -0.126321      0.529703     -0.807485
  N       1.037614     -1.378564     -0.200217
  C       1.041365      0.005788     -0.298972
  C      -1.264811     -0.183385     -1.264544
  C      -0.021862     -2.166119     -0.596630
  C      -1.151938     -1.630325     -1.108929
  H      -0.161423      1.538777     -0.913080
  H       1.887865     -1.781776      0.169848
  H      -1.985561     -2.243390     -1.423552
  H       0.112563     -3.234718     -0.469305
26
Coordinates from ORCA-job dimethylurea_uracil_opt_freq E -718.356325625890
  O       0.999216      4.680797      3.255924
  N       1.366498      2.613375      2.345641
  N       2.570162      4.484878      1.605855
  C       1.606701      3.959759      2.458111
  H       1.740675      2.094311      1.561473
  H       2.788544      5.435222      1.872990
  C       0.307802      2.006503      3.136255
  H       0.398559      2.326171      4.177134
  H      -0.694790      2.286204      2.785886
  H       0.412531      0.918206      3.100727
  C       3.651911      3.713198      1.002204
  H       4.267980      3.185989      1.745410
  H       3.266196      2.977841      0.289765
  H       4.292623      4.402246      0.446051
  O       1.973972      0.680428      0.084971
  O      -2.212199      0.407155     -1.771441
  N      -0.138364      0.519622     -0.813552
  N       1.030934     -1.386190     -0.211512
  C       1.025856     -0.000292     -0.293688
  C      -1.265107     -0.196273     -1.292296
  C      -0.019976     -2.176981     -0.624429
  C      -1.146864     -1.644047     -1.147163
  H      -0.186687      1.529136     -0.909180
  H       1.875045     -1.788004      0.173612
  H      -1.972534     -2.260314     -1.475983
  H       0.121218     -3.245318     -0.502093
26
Coordinates from ORCA-job dimethylurea_uracil_opt_freq E -718.356447448055
  O       0.988531      4.694037      3.242987
  N       1.381604      2.615261      2.370872
  N       2.563791      4.486820      1.598505
  C       1.605761      3.966618      2.458342
  H       1.755083      2.087305      1.593065
  H       2.772255      5.444692      1.845712
  C       0.319912      2.016669      3.165032
  H       0.415655      2.346607      4.202271
  H      -0.680369      2.303578      2.813291
  H       0.416383      0.927718      3.130856
  C       3.649832      3.717077      1.001366
  H       4.277744      3.210384      1.749220
  H       3.268759      2.963100      0.305869
  H       4.279127      4.402753      0.428346
  O       1.968678      0.662143      0.098427
  O      -2.207945      0.409657     -1.785804
  N      -0.138468      0.511918     -0.818418
  N       1.024444     -1.398983     -0.220361
  C       1.020241     -0.012084     -0.289678
  C      -1.263148     -0.198181     -1.307274
  C      -0.026026     -2.185672     -0.644364
  C      -1.148064     -1.647640     -1.172726
  H      -0.189288      1.522278     -0.903374
  H       1.861142     -1.807108      0.173931
  H      -1.972278     -2.261114     -1.510224
  H       0.116547     -3.254210     -0.525198
26
Coordinates from ORCA-job dimethylurea_uracil_opt_freq E -718.356530501847
  O       0.985634      4.710500      3.233954
  N       1.392222      2.620781      2.395950
  N       2.561019      4.487081      1.591742
  C       1.607031      3.975140      2.460113
  H       1.760053      2.082252      1.621331
  H       2.765997      5.449785      1.821996
  C       0.328527      2.031022      3.195533
  H       0.428747      2.369985      4.229584
  H      -0.670364      2.322767      2.844398
  H       0.418892      0.941524      3.165666
  C       3.645047      3.713365      0.997119
  H       4.280178      3.218486      1.746917
  H       3.261888      2.948613      0.314544
  H       4.268538      4.392642      0.410313
  O       1.959528      0.652655      0.114612
  O      -2.207132      0.406773     -1.798023
  N      -0.141444      0.505095     -0.822162
  N       1.019942     -1.407037     -0.227398
  C       1.013306     -0.019489     -0.284262
  C      -1.262398     -0.202823     -1.321573
  C      -0.026037     -2.192837     -0.665897
  C      -1.144481     -1.653116     -1.199430
  H      -0.192717      1.516172     -0.896467
  H       1.852328     -1.818670      0.172102
  H      -1.964980     -2.265593     -1.547663
  H       0.120578     -3.261448     -0.552327
26
Coordinates from ORCA-job dimethylurea_uracil_opt_freq E -718.356632899631
  O       0.983606      4.737017      3.217329
  N       1.404494      2.630192      2.431504
  N       2.557629      4.484287      1.577944
  C       1.608720      3.987537      2.460369
  H       1.763637      2.076655      1.662568
  H       2.758658      5.453351      1.783229
  C       0.340952      2.053886      3.242319
  H       0.448269      2.404157      4.272117
  H      -0.657297      2.351955      2.895309
  H       0.424420      0.963716      3.220501
  C       3.639233      3.701279      0.991482
  H       4.279642      3.221989      1.746849
  H       3.252842      2.923463      0.325737
  H       4.258419      4.369492      0.387610
  O       1.938486      0.647129      0.139424
  O      -2.209211      0.397831     -1.817021
  N      -0.150176      0.497160     -0.826915
  N       1.014773     -1.413922     -0.237458
  C       1.000194     -0.025875     -0.277527
  C      -1.263477     -0.211722     -1.342704
  C      -0.020871     -2.201297     -0.698046
  C      -1.136159     -1.662402     -1.238318
  H      -0.204851      1.509137     -0.884472
  H       1.844464     -1.826000      0.167128
  H      -1.949075     -2.275373     -1.603172
  H       0.132584     -3.270019     -0.595114
26
Coordinates from ORCA-job dimethylurea_uracil_opt_freq E -718.356732370692
  O       0.990798      4.766300      3.205756
  N       1.414700      2.642259      2.469440
  N       2.555173      4.479214      1.562754
  C       1.613332      4.000839      2.462955
  H       1.758921      2.074347      1.703408
  H       2.755723      5.453152      1.743723
  C       0.353620      2.082640      3.296060
  H       0.468959      2.445372      4.320798
  H      -0.645085      2.385186      2.954608
  H       0.430884      0.992039      3.284874
  C       3.631519      3.683643      0.983355
  H       4.277156      3.219226      1.743371
  H       3.238301      2.894050      0.335879
  H       4.246437      4.338798      0.361028
  O       1.909342      0.645900      0.169338
  O      -2.211704      0.383687     -1.842327
  N      -0.162310      0.488848     -0.832426
  N       1.010285     -1.419090     -0.248049
  C       0.983954     -0.030801     -0.270764
  C      -1.264767     -0.223699     -1.367987
  C      -0.011070     -2.209754     -0.733681
  C      -1.123906     -1.674060     -1.281731
  H      -0.222496      1.501307     -0.872869
  H       1.838565     -1.828451      0.162224
  H      -1.926670     -2.288877     -1.665564
  H       0.150243     -3.278453     -0.643500
26
Coordinates from ORCA-job dimethylurea_uracil_opt_freq E -718.356639747282
  O       1.079436      4.914935      3.179929
  N       1.463403      2.713997      2.668926
  N       2.539949      4.436334      1.484155
  C       1.654689      4.065509      2.490614
  H       1.696500      2.075405      1.907667
  H       2.750665      5.424639      1.544789
  C       0.429154      2.262373      3.597929
  H       0.589360      2.696110      4.589276
  H      -0.575054      2.578525      3.287775
  H       0.471953      1.172953      3.657603
  C       3.578295      3.571183      0.932117
  H       4.265979      3.190163      1.702085
  H       3.140203      2.720377      0.399051
  H       4.155230      4.149762      0.203038
  O       1.714299      0.649942      0.346759
  O      -2.217964      0.287583     -2.015500
  N      -0.245250      0.438944     -0.863592
  N       0.985002     -1.436251     -0.304512
  C       0.880099     -0.050433     -0.232005
  C      -1.267607     -0.298146     -1.522292
  C       0.058817     -2.247153     -0.929040
  C      -1.040045     -1.739367     -1.527361
  H      -0.350911      1.448534     -0.818228
  H       1.803616     -1.823590      0.145745
  H      -1.773204     -2.367968     -2.018277
  H       0.273290     -3.310738     -0.905985
26
Coordinates from ORCA-job dimethylurea_uracil_opt_freq E -718.356914627058
  O       1.045638      4.893101      3.169045
  N       1.460359      2.703647      2.638725
  N       2.538712      4.448548      1.494063
  C       1.640983      4.058237      2.480279
  H       1.721016      2.079392      1.881873
  H       2.736960      5.437474      1.568439
  C       0.422651      2.231227      3.549887
  H       0.577343      2.653780      4.546436
  H      -0.581749      2.545803      3.235235
  H       0.472459      1.140179      3.593748
  C       3.597167      3.601306      0.953230
  H       4.273337      3.218290      1.731720
  H       3.180021      2.752766      0.401785
  H       4.181887      4.194342      0.243779
  O       1.747501      0.633946      0.305531
  O      -2.220762      0.306522     -1.982877
  N      -0.228377      0.444299     -0.864960
  N       0.987009     -1.444480     -0.302145
  C       0.897542     -0.058895     -0.248329
  C      -1.270873     -0.285861     -1.496743
  C       0.038640     -2.248437     -0.899384
  C      -1.063290     -1.730826     -1.485916
  H      -0.325649      1.454908     -0.833316
  H       1.806736     -1.836504      0.141706
  H      -1.812911     -2.354788     -1.955247
  H       0.237554     -3.314353     -0.865893
26
Coordinates from ORCA-job dimethylurea_uracil_opt_freq E -718.355902804156
  O       1.041253      4.895916      3.142266
  N       1.466531      2.710753      2.639107
  N       2.528251      4.443222      1.493999
  C       1.637085      4.060468      2.469446
  H       1.718303      2.082585      1.885800
  H       2.722161      5.429881      1.561738
  C       0.434088      2.242816      3.552274
  H       0.588461      2.656838      4.548005
  H      -0.572373      2.555867      3.242100
  H       0.487752      1.155796      3.597525
  C       3.585543      3.593253      0.966087
  H       4.250556      3.202234      1.742552
  H       3.175540      2.755218      0.413166
  H       4.173301      4.181339      0.270680
  O       1.739672      0.618992      0.293722
  O      -2.217015      0.314812     -1.964726
  N      -0.226742      0.437176     -0.875330
  N       0.985661     -1.450917     -0.316322
  C       0.896018     -0.069163     -0.260929
  C      -1.266919     -0.281407     -1.490485
  C       0.042850     -2.244124     -0.904093
  C      -1.055640     -1.720952     -1.477950
  H      -0.318483      1.443816     -0.842841
  H       1.803565     -1.847447      0.118791
  H      -1.801567     -2.336065     -1.934517
  H       0.242052     -3.307285     -0.869398
26
Coordinates from ORCA-job dimethylurea_uracil_opt_freq E -718.356700419719
  O       1.036143      4.867561      3.191821
  N       1.449992      2.693637      2.615437
  N       2.537540      4.446579      1.511518
  C       1.633600      4.045375      2.487667
  H       1.723533      2.079859      1.869145
  H       2.735618      5.430660      1.602526
  C       0.411795      2.210186      3.504872
  H       0.556948      2.612778      4.504340
  H      -0.589987      2.517853      3.179161
  H       0.468432      1.120677      3.543071
  C       3.598618      3.610347      0.942808
  H       4.287277      3.208512      1.708636
  H       3.181733      2.775093      0.375104
  H       4.177187      4.215991      0.243427
  O       1.772035      0.632445      0.295653
  O      -2.213551      0.325765     -1.975302
  N      -0.215730      0.451574     -0.856812
  N       0.992821     -1.438199     -0.279297
  C       0.912692     -0.054900     -0.242675
  C      -1.264695     -0.269182     -1.477506
  C       0.033489     -2.235538     -0.867135
  C      -1.068614     -1.713232     -1.456696
  H      -0.310367      1.460171     -0.841839
  H       1.811724     -1.836280      0.161388
  H      -1.825062     -2.333841     -1.918061
  H       0.226731     -3.300267     -0.820581
26
Coordinates from ORCA-job dimethylurea_uracil_opt_freq E -718.351363720745
  O       1.087570      4.919318      3.166922
  N       1.463765      2.714980      2.605513
  N       2.577952      4.481517      1.493519
  C       1.673422      4.082502      2.464826
  H       1.729156      2.088007      1.825705
  H       2.800078      5.477833      1.583771
  C       0.418447      2.240918      3.558067
  H       0.629814      2.687491      4.567367
  H      -0.607037      2.541289      3.261007
  H       0.444260      1.135385      3.615581
  C       3.620481      3.627698      1.000288
  H       4.243633      3.234557      1.791534
  H       3.201135      2.769186      0.436047
  H       4.243630      4.228963      0.322337
  O       1.728803      0.665564      0.264728
  O      -2.254790      0.244364     -1.976249
  N      -0.266082      0.434864     -0.862932
  N       0.978298     -1.442572     -0.315070
  C       0.870522     -0.047371     -0.261150
  C      -1.298998     -0.326893     -1.499517
  C       0.028455     -2.281987     -0.923373
  C      -1.081196     -1.786780     -1.510090
  H      -0.392009      1.453491     -0.845757
  H       1.801374     -1.823667      0.124297
  H      -1.826787     -2.442316     -1.991423
  H       0.246007     -3.352719     -0.895280
26
Coordinates from ORCA-job dimethylurea_uracil_opt_freq E -718.356873470271
  O       1.057265      4.885907      3.194509
  N       1.447799      2.700696      2.616368
  N       2.546649      4.454256      1.500166
  C       1.644242      4.056954      2.487990
  H       1.713966      2.081715      1.849097
  H       2.752974      5.440825      1.584617
  C       0.413794      2.222427      3.523775
  H       0.581149      2.633286      4.522482
  H      -0.596719      2.528347      3.212384
  H       0.466284      1.132374      3.567710
  C       3.609869      3.608973      0.965093
  H       4.278509      3.220001      1.746246
  H       3.197992      2.761699      0.409188
  H       4.205062      4.205390      0.265857
  O       1.747323      0.649956      0.276383
  O      -2.228641      0.294715     -1.981084
  N      -0.238626      0.446718     -0.866954
  N       0.989489     -1.435244     -0.305094
  C       0.893509     -0.048885     -0.260578
  C      -1.277216     -0.289133     -1.492690
  C       0.038120     -2.246460     -0.884823
  C      -1.068151     -1.735527     -1.467060
  H      -0.352373      1.456868     -0.849550
  H       1.811798     -1.823433      0.140133
  H      -1.816628     -2.367454     -1.917866
  H       0.242466     -3.311350     -0.835628
26
Coordinates from ORCA-job dimethylurea_uracil_opt_freq E -718.351432990262
  O       1.069233      4.827165      3.132487
  N       1.450904      2.682222      2.604949
  N       2.538385      4.445271      1.510861
  C       1.649094      4.026597      2.465044
  H       1.718118      2.083532      1.880139
  H       2.733562      5.422680      1.603362
  C       0.417068      2.204997      3.507670
  H       0.566789      2.613509      4.504919
  H      -0.581408      2.508110      3.180302
  H       0.463021      1.112217      3.558153
  C       3.603346      3.630167      0.946485
  H       4.296126      3.239971      1.710470
  H       3.200686      2.785480      0.389039
  H       4.169510      4.245909      0.240562
  O       1.761875      0.644745      0.332430
  O      -2.210856      0.318082     -2.003843
  N      -0.227849      0.451706     -0.833520
  N       0.984620     -1.431221     -0.256377
  C       0.903531     -0.047498     -0.213357
  C      -1.266964     -0.274007     -1.480054
  C       0.027840     -2.234496     -0.867246
  C      -1.072322     -1.718387     -1.470926
  H      -0.330205      1.459077     -0.824744
  H       1.799312     -1.827646      0.184201
  H      -1.826035     -2.345918     -1.965017
  H       0.222524     -3.298640     -0.835318
26
Coordinates from ORCA-job dimethylurea_uracil_opt_freq E -718.356100194916
  O       1.060252      4.890875      3.190778
  N       1.458615      2.706585      2.607142
  N       2.542047      4.447384      1.517805
  C       1.651933      4.056549      2.474880
  H       1.718134      2.087749      1.858973
  H       2.739356      5.433838      1.626046
  C       0.424506      2.236336      3.528397
  H       0.589475      2.653540      4.529736
  H      -0.582671      2.537953      3.212215
  H       0.470724      1.141460      3.586450
  C       3.599978      3.609476      0.955574
  H       4.283000      3.203457      1.724575
  H       3.190390      2.770612      0.386633
  H       4.176386      4.218643      0.259813
  O       1.739345      0.634538      0.295226
  O      -2.225463      0.298893     -1.995857
  N      -0.239508      0.437858     -0.864811
  N       0.983106     -1.443536     -0.286190
  C       0.889488     -0.060516     -0.245276
  C      -1.274782     -0.290345     -1.492808
  C       0.037524     -2.248268     -0.884209
  C      -1.063382     -1.733741     -1.477085
  H      -0.341040      1.444869     -0.851058
  H       1.801075     -1.837473      0.149168
  H      -1.809879     -2.361377     -1.956977
  H       0.241294     -3.311736     -0.848470
26
Coordinates from ORCA-job dimethylurea_uracil_opt_freq E -718.354695707284
  O       1.060014      4.896699      3.203082
  N       1.437656      2.700033      2.648337
  N       2.558339      4.457849      1.483955
  C       1.638799      4.063552      2.506608
  H       1.704468      2.068202      1.871013
  H       2.775652      5.443526      1.547498
  C       0.403316      2.223499      3.541298
  H       0.565264      2.629221      4.534957
  H      -0.603261      2.526981      3.221772
  H       0.458611      1.135950      3.578871
  C       3.610939      3.608902      0.949185
  H       4.281256      3.238032      1.721998
  H       3.191440      2.759825      0.408678
  H       4.201108      4.195093      0.237426
  O       1.747274      0.639856      0.298895
  O      -2.218687      0.298305     -1.968982
  N      -0.234688      0.445340     -0.861892
  N       0.987611     -1.438179     -0.302860
  C       0.893270     -0.053368     -0.251471
  C      -1.271672     -0.287114     -1.495814
  C       0.038821     -2.247793     -0.899217
  C      -1.064674     -1.734270     -1.483234
  H      -0.347924      1.457007     -0.838766
  H       1.811630     -1.828756      0.144482
  H      -1.808701     -2.361402     -1.938055
  H       0.244044     -3.313365     -0.857094
26
Coordinates from ORCA-job dimethylurea_uracil_opt_freq E -718.356940132413
  O       1.068720      4.895979      3.192319
  N       1.452883      2.707220      2.632416
  N       2.546762      4.453583      1.506748
  C       1.650124      4.062225      2.495076
  H       1.709166      2.084542      1.870963
  H       2.755614      5.441734      1.590749
  C       0.419956      2.238486      3.548457
  H       0.590928      2.656485      4.545309
  H      -0.589046      2.541661      3.233386
  H       0.467446      1.147402      3.600241
  C       3.601396      3.604423      0.953742
  H       4.288868      3.216270      1.726772
  H       3.176410      2.752696      0.400755
  H       4.182068      4.199959      0.239284
  O       1.733699      0.640065      0.301308
  O      -2.221385      0.291616     -2.009454
  N      -0.241747      0.439694     -0.867847
  N       0.984021     -1.442173     -0.303942
  C       0.885701     -0.056737     -0.250692
  C      -1.273140     -0.293953     -1.509154
  C       0.040536     -2.251280     -0.898868
  C      -1.060912     -1.739344     -1.488190
  H      -0.356211      1.449608     -0.847442
  H       1.803235     -1.832013      0.144602
  H      -1.802785     -2.368805     -1.950727
  H       0.247596     -3.315721     -0.855140
26
Coordinates from ORCA-job dimethylurea_uracil_opt_freq E -718.354971987859
  O       1.076088      4.876893      3.203413
  N       1.455785      2.709292      2.617813
  N       2.541816      4.439985      1.482543
  C       1.652947      4.049313      2.470592
  H       1.704257      2.093726      1.874743
  H       2.743275      5.415337      1.560780
  C       0.427797      2.243852      3.540328
  H       0.589726      2.652542      4.539016
  H      -0.579033      2.540051      3.225095
  H       0.476779      1.152611      3.601585
  C       3.590574      3.603832      0.953151
  H       4.254806      3.230412      1.717437
  H       3.185832      2.762827      0.425776
  H       4.172450      4.186636      0.249465
  O       1.729060      0.634893      0.315100
  O      -2.224674      0.300913     -1.989523
  N      -0.241624      0.437010     -0.851369
  N       0.983175     -1.439750     -0.275874
  C       0.886757     -0.060183     -0.230571
  C      -1.272728     -0.288028     -1.487440
  C       0.044503     -2.241514     -0.893303
  C      -1.056265     -1.727394     -1.495476
  H      -0.336116      1.440506     -0.835694
  H       1.803057     -1.834099      0.153649
  H      -1.799827     -2.353299     -2.000573
  H       0.251487     -3.302739     -0.869995
26
Coordinates from ORCA-job dimethylurea_uracil_opt_freq E -718.357026658021
  O       1.072158      4.899178      3.188040
  N       1.453104      2.710214      2.634461
  N       2.543870      4.450757      1.500768
  C       1.650657      4.063167      2.486820
  H       1.706285      2.088343      1.875791
  H       2.749687      5.437205      1.582657
  C       0.424537      2.244291      3.553616
  H       0.595060      2.660431      4.548292
  H      -0.583801      2.546539      3.240553
  H       0.472874      1.153627      3.610871
  C       3.600555      3.602771      0.953198
  H       4.284171      3.215271      1.725978
  H       3.185145      2.754727      0.404428
  H       4.180175      4.195850      0.243585
  O       1.726266      0.635876      0.308511
  O      -2.221809      0.289667     -1.997299
  N      -0.245838      0.436897     -0.865139
  N       0.982651     -1.443425     -0.296161
  C       0.881570     -0.059713     -0.245154
  C      -1.273800     -0.295608     -1.506161
  C       0.042374     -2.251376     -0.903256
  C      -1.059070     -1.739391     -1.500373
  H      -0.359713      1.445347     -0.844332
  H       1.802264     -1.833158      0.150847
  H      -1.800018     -2.369013     -1.982058
  H       0.250548     -3.314851     -0.867813
26
Coordinates from ORCA-job dimethylurea_uracil_opt_freq E -718.356600758899
  O       1.086621      4.896351      3.210251
  N       1.455785      2.710242      2.639513
  N       2.546104      4.450270      1.499819
  C       1.658354      4.061937      2.502293
  H       1.699653      2.089023      1.872772
  H       2.756820      5.435975      1.574357
  C       0.425347      2.249603      3.562807
  H       0.601714      2.672025      4.557257
  H      -0.583459      2.551200      3.247987
  H       0.468914      1.158419      3.619689
  C       3.595786      3.603684      0.955549
  H       4.288939      3.246750      1.726728
  H       3.166936      2.735887      0.436434
  H       4.168153      4.185120      0.215856
  O       1.722563      0.636517      0.313328
  O      -2.220227      0.287158     -2.044711
  N      -0.245343      0.435130     -0.868721
  N       0.980870     -1.445175     -0.309961
  C       0.879800     -0.060396     -0.247168
  C      -1.272139     -0.298361     -1.522875
  C       0.042074     -2.254228     -0.911102
  C      -1.056711     -1.743063     -1.495776
  H      -0.360425      1.443608     -0.847831
  H       1.796735     -1.834318      0.134775
  H      -1.794033     -2.371584     -1.951712
  H       0.251071     -3.318151     -0.868889
26
Coordinates from ORCA-job dimethylurea_uracil_opt_freq E -718.357095652263
  O       1.087892      4.904258      3.202803
  N       1.453788      2.715674      2.641670
  N       2.544920      4.448973      1.499291
  C       1.656666      4.066482      2.496517
  H       1.695136      2.094424      1.878663
  H       2.757064      5.433749      1.579703
  C       0.427350      2.255967      3.568271
  H       0.603783      2.677920      4.561293
  H      -0.582347      2.555976      3.256363
  H       0.473760      1.165679      3.629672
  C       3.595115      3.596277      0.950345
  H       4.283057      3.217688      1.719923
  H       3.171527      2.742139      0.413486
  H       4.170690      4.182356      0.229991
  O       1.714763      0.637651      0.316884
  O      -2.221310      0.281828     -2.020633
  N      -0.250729      0.433444     -0.868047
  N       0.981911     -1.443820     -0.303961
  C       0.875635     -0.060200     -0.245037
  C      -1.273361     -0.301431     -1.519078
  C       0.047012     -2.253843     -0.913358
  C      -1.053648     -1.744647     -1.509370
  H      -0.367917      1.441084     -0.845871
  H       1.800296     -1.831405      0.146524
  H      -1.790131     -2.375748     -1.987825
  H       0.258983     -3.316854     -0.877549
26
Coordinates from ORCA-job dimethylurea_uracil_opt_freq E -718.357051632242
  O       1.082891      4.922409      3.179885
  N       1.464282      2.719047      2.668992
  N       2.538745      4.442164      1.485694
  C       1.657204      4.072144      2.490863
  H       1.701464      2.087887      1.916188
  H       2.743684      5.432673      1.540104
  C       0.438950      2.269741      3.598821
  H       0.616276      2.693153      4.587383
  H      -0.568593      2.575959      3.288592
  H       0.480522      1.180239      3.663317
  C       3.587086      3.584839      0.947197
  H       4.281094      3.222690      1.722061
  H       3.163174      2.719208      0.427735
  H       4.154906      4.162512      0.210947
  O       1.697062      0.629466      0.336654
  O      -2.217519      0.283597     -2.032334
  N      -0.255097      0.429635     -0.868196
  N       0.977805     -1.447455     -0.305361
  C       0.866195     -0.065608     -0.236904
  C      -1.270437     -0.301952     -1.530467
  C       0.052367     -2.255040     -0.932622
  C      -1.044385     -1.744210     -1.535578
  H      -0.374603      1.437717     -0.832513
  H       1.792855     -1.836897      0.145254
  H      -1.774214     -2.372879     -2.028478
  H       0.268188     -3.317414     -0.906563
26
Coordinates from ORCA-job dimethylurea_uracil_opt_freq E -718.357101399029
  O       1.096540      4.917057      3.198832
  N       1.458367      2.721452      2.659458
  N       2.543217      4.445646      1.494577
  C       1.661208      4.072081      2.498351
  H       1.690514      2.093614      1.895858
  H       2.754753      5.431407      1.562215
  C       0.434679      2.271266      3.592652
  H       0.614939      2.697301      4.582055
  H      -0.574844      2.572597      3.283443
  H       0.478052      1.180613      3.661424
  C       3.590044      3.588851      0.946054
  H       4.282023      3.213408      1.715246
  H       3.164500      2.733415      0.416104
  H       4.160759      4.170755      0.218335
  O       1.696288      0.632905      0.331692
  O      -2.220919      0.276048     -2.036898
  N      -0.258044      0.428114     -0.869203
  N       0.978710     -1.447032     -0.304340
  C       0.865305     -0.064929     -0.239430
  C      -1.273095     -0.306720     -1.531514
  C       0.052552     -2.257322     -0.928735
  C      -1.046157     -1.749060     -1.531950
  H      -0.378035      1.435594     -0.840295
  H       1.795813     -1.833838      0.147093
  H      -1.776262     -2.379969     -2.021112
  H       0.268995     -3.319630     -0.899242
26
Coordinates from ORCA-job dimethylurea_uracil_opt_freq E -718.357038588162
  O       1.109333      4.910750      3.220581
  N       1.450523      2.722403      2.644757
  N       2.548236      4.446063      1.500997
  C       1.664185      4.070368      2.505330
  H       1.680025      2.102470      1.882021
  H       2.770140      5.427708      1.581902
  C       0.427846      2.268521      3.578509
  H       0.611550      2.695303      4.569268
  H      -0.584367      2.564331      3.269056
  H       0.473574      1.178405      3.646307
  C       3.590020      3.585778      0.946330
  H       4.281264      3.207291      1.711103
  H       3.156107      2.731292      0.415861
  H       4.164567      4.165671      0.219135
  O       1.699167      0.646048      0.325839
  O      -2.221651      0.268757     -2.030376
  N      -0.260604      0.431725     -0.869780
  N       0.982621     -1.439622     -0.308888
  C       0.866790     -0.056318     -0.244458
  C      -1.273802     -0.308867     -1.529878
  C       0.055367     -2.254775     -0.924122
  C      -1.045474     -1.751359     -1.519720
  H      -0.385255      1.438635     -0.847389
  H       1.801359     -1.823156      0.145426
  H      -1.775544     -2.386967     -1.998636
  H       0.273926     -3.316834     -0.888506
26
Coordinates from ORCA-job dimethylurea_uracil_opt_freq E -718.357119829682
  O       1.106683      4.919539      3.208946
  N       1.456658      2.724278      2.660089
  N       2.544235      4.445529      1.494777
  C       1.664594      4.074097      2.503222
  H       1.683358      2.099221      1.895442
  H       2.761121      5.430408      1.564481
  C       0.434603      2.275475      3.595921
  H       0.618945      2.703746      4.584215
  H      -0.576249      2.574719      3.287286
  H       0.478167      1.185381      3.666292
  C       3.587099      3.585144      0.944653
  H       4.280541      3.210772      1.711916
  H       3.156345      2.727960      0.418036
  H       4.157473      4.164098      0.214015
  O       1.691691      0.634722      0.334163
  O      -2.219312      0.271405     -2.041801
  N      -0.260935      0.426892     -0.870039
  N       0.979397     -1.446153     -0.308074
  C       0.862690     -0.064188     -0.240030
  C      -1.272300     -0.309423     -1.535297
  C       0.055255     -2.257612     -0.931532
  C      -1.043342     -1.751198     -1.534123
  H      -0.384804      1.433708     -0.842506
  H       1.795793     -1.831778      0.146754
  H      -1.771677     -2.383856     -2.024501
  H       0.273877     -3.319264     -0.901637
26
Coordinates from ORCA-job dimethylurea_uracil_opt_freq E -718.357126702638
  O       1.114890      4.927927      3.208541
  N       1.458535      2.728345      2.669528
  N       2.544606      4.443071      1.492492
  C       1.668249      4.077691      2.504570
  H       1.678981      2.099754      1.906291
  H       2.762363      5.428034      1.556689
  C       0.438658      2.285649      3.610382
  H       0.626085      2.716737      4.596166
  H      -0.572288      2.585905      3.304392
  H       0.480084      1.195366      3.686014
  C       3.584470      3.579200      0.941684
  H       4.278818      3.204438      1.708278
  H       3.152557      2.722867      0.418035
  H       4.153157      4.155648      0.208280
  O       1.677603      0.635370      0.344604
  O      -2.220959      0.264655     -2.052644
  N      -0.268165      0.424066     -0.870944
  N       0.977405     -1.446260     -0.308848
  C       0.854404     -0.065010     -0.236633
  C      -1.273392     -0.314366     -1.544755
  C       0.060116     -2.259922     -0.942679
  C      -1.037791     -1.755748     -1.549284
  H      -0.394804      1.430936     -0.838678
  H       1.793927     -1.830249      0.146977
  H      -1.760770     -2.389248     -2.042442
  H       0.283164     -3.321235     -0.915348
26
Coordinates from ORCA-job dimethylurea_uracil_opt_freq E -718.357138446770
  O       1.125826      4.933251      3.215182
  N       1.459050      2.732206      2.675889
  N       2.544943      4.441128      1.492416
  C       1.672554      4.080382      2.509467
  H       1.672261      2.102921      1.910510
  H       2.766277      5.425259      1.553127
  C       0.441113      2.294252      3.620690
  H       0.632032      2.728500      4.604223
  H      -0.570329      2.593538      3.315624
  H       0.481378      1.204310      3.699949
  C       3.579677      3.573370      0.938514
  H       4.278572      3.201917      1.702489
  H       3.141355      2.714989      0.422076
  H       4.145446      4.145077      0.197409
  O       1.667143      0.635143      0.351917
  O      -2.219324      0.259703     -2.061616
  N      -0.272711      0.421789     -0.871127
  N       0.976764     -1.446228     -0.309799
  C       0.848763     -0.065856     -0.234035
  C      -1.272358     -0.317770     -1.551534
  C       0.064628     -2.260793     -0.949206
  C      -1.032342     -1.758292     -1.558865
  H      -0.402535      1.428063     -0.837252
  H       1.792351     -1.829019      0.147872
  H      -1.751515     -2.392854     -2.058602
  H       0.290883     -3.321363     -0.924649
26
Coordinates from ORCA-job dimethylurea_uracil_opt_freq E -718.357152283355
  O       1.155035      4.949908      3.231052
  N       1.460320      2.743612      2.693291
  N       2.545964      4.439410      1.488402
  C       1.683770      4.090149      2.520994
  H       1.654307      2.112870      1.924644
  H       2.776537      5.422518      1.543208
  C       0.448404      2.317740      3.650632
  H       0.651750      2.762026      4.628197
  H      -0.565381      2.616010      3.350544
  H       0.486183      1.228508      3.740980
  C       3.570712      3.560734      0.932235
  H       4.273250      3.189067      1.692586
  H       3.122777      2.701176      0.424402
  H       4.133776      4.124078      0.184529
  O       1.637766      0.633145      0.370155
  O      -2.218048      0.242782     -2.089244
  N      -0.287772      0.412496     -0.873942
  N       0.974230     -1.448388     -0.318094
  C       0.831539     -0.070141     -0.230042
  C      -1.272193     -0.330118     -1.570514
  C       0.075279     -2.265622     -0.969455
  C      -1.019904     -1.768077     -1.584376
  H      -0.428347      1.416820     -0.836642
  H       1.787770     -1.827594      0.146873
  H      -1.728862     -2.405693     -2.098698
  H       0.311040     -3.323794     -0.951046
26
Coordinates from ORCA-job dimethylurea_uracil_opt_freq E -718.357160448249
  O       1.175010      4.956950      3.241584
  N       1.460742      2.748896      2.702405
  N       2.547522      4.436441      1.488300
  C       1.692155      4.093404      2.526983
  H       1.643568      2.117341      1.931420
  H       2.783470      5.418145      1.540260
  C       0.452098      2.330888      3.666047
  H       0.661640      2.780227      4.639281
  H      -0.562237      2.628733      3.368127
  H       0.487559      1.242229      3.763029
  C       3.563963      3.552790      0.926787
  H       4.271149      3.181573      1.682893
  H       3.108182      2.692812      0.425948
  H       4.123163      4.111685      0.171621
  O       1.618964      0.633638      0.383733
  O      -2.216655      0.233381     -2.105461
  N      -0.297304      0.408587     -0.873792
  N       0.972672     -1.447776     -0.318718
  C       0.820702     -0.071145     -0.225150
  C      -1.271583     -0.336433     -1.582984
  C       0.082789     -2.267202     -0.980579
  C      -1.011164     -1.772869     -1.602435
  H      -0.443691      1.411920     -0.833423
  H       1.785361     -1.824701      0.151031
  H      -1.712835     -2.411844     -2.122104
  H       0.324662     -3.324045     -0.964135
26
Coordinates from ORCA-job dimethylurea_uracil_opt_freq E -718.357169251417
  O       1.197588      4.969634      3.250486
  N       1.460779      2.757252      2.714326
  N       2.550699      4.432527      1.488027
  C       1.700889      4.099628      2.533934
  H       1.631378      2.123039      1.942933
  H       2.793777      5.412624      1.534465
  C       0.456810      2.348493      3.686333
  H       0.673417      2.803587      4.654667
  H      -0.558362      2.647020      3.392733
  H       0.489890      1.260243      3.791646
  C       3.556843      3.539578      0.920577
  H       4.267021      3.165472      1.672353
  H       3.092170      2.682144      0.426064
  H       4.114557      4.091697      0.159436
  O       1.591976      0.637739      0.400713
  O      -2.218574      0.218470     -2.123387
  N      -0.312167      0.403680     -0.873111
  N       0.970546     -1.445004     -0.319602
  C       0.804935     -0.070487     -0.218427
  C      -1.272823     -0.346115     -1.596824
  C       0.094324     -2.268993     -0.996673
  C      -0.998741     -1.780599     -1.623882
  H      -0.466313      1.406081     -0.827493
  H       1.783253     -1.817390      0.150250
  H      -1.689910     -2.422548     -2.152842
  H       0.345942     -3.324150     -0.986032
26
Coordinates from ORCA-job dimethylurea_uracil_opt_freq E -718.357174679781
  O       1.209560      4.975573      3.255895
  N       1.462070      2.761184      2.720934
  N       2.552066      4.431584      1.487579
  C       1.706179      4.102696      2.538115
  H       1.626300      2.125769      1.949428
  H       2.797848      5.411194      1.531364
  C       0.459888      2.357368      3.697532
  H       0.680420      2.816471      4.663411
  H      -0.555384      2.657556      3.406182
  H       0.491449      1.269289      3.806635
  C       3.552842      3.535193      0.917168
  H       4.264722      3.159711      1.666788
  H       3.084118      2.678725      0.425714
  H       4.109195      4.084809      0.152993
  O       1.578132      0.636537      0.410651
  O      -2.218510      0.211844     -2.134374
  N      -0.319203      0.399620     -0.873624
  N       0.968355     -1.445952     -0.320616
  C       0.796644     -0.072622     -0.215082
  C      -1.273088     -0.351090     -1.605047
  C       0.098931     -2.270689     -1.005163
  C      -0.992883     -1.784158     -1.636098
  H      -0.476580      1.401280     -0.825151
  H       1.780822     -1.817054      0.153481
  H      -1.678835     -2.426440     -2.171152
  H       0.354845     -3.324775     -0.996894
26
Coordinates from ORCA-job dimethylurea_uracil_opt_freq E -718.357186286339
  O       1.230823      4.980827      3.269593
  N       1.460781      2.766582      2.725098
  N       2.556535      4.432658      1.489424
  C       1.715162      4.106504      2.545100
  H       1.618363      2.132366      1.951542
  H       2.809394      5.410567      1.534991
  C       0.461574      2.366378      3.706741
  H       0.687806      2.831112      4.668966
  H      -0.554389      2.668109      3.418368
  H       0.493196      1.278932      3.819796
  C       3.546632      3.530800      0.910941
  H       4.258810      3.145536      1.655597
  H       3.069500      2.679352      0.417489
  H       4.103942      4.079600      0.148345
  O       1.559878      0.635819      0.424902
  O      -2.216964      0.202241     -2.148810
  N      -0.329358      0.394118     -0.870947
  N       0.965357     -1.446563     -0.319303
  C       0.785250     -0.074875     -0.208122
  C      -1.272877     -0.357914     -1.613809
  C       0.105335     -2.272468     -1.013071
  C      -0.984593     -1.788821     -1.649779
  H      -0.492054      1.394565     -0.820647
  H       1.777116     -1.815430      0.159037
  H      -1.662834     -2.431610     -2.193104
  H       0.367520     -3.324764     -1.007669
26
Coordinates from ORCA-job dimethylurea_uracil_opt_freq E -718.357211130008
  O       1.253281      4.986163      3.285098
  N       1.458700      2.772619      2.727031
  N       2.563565      4.434767      1.494808
  C       1.724796      4.110831      2.553443
  H       1.611850      2.139221      1.951949
  H       2.824982      5.410405      1.543025
  C       0.462378      2.374353      3.712768
  H       0.693170      2.843538      4.671952
  H      -0.554220      2.678439      3.428066
  H       0.494851      1.287369      3.827950
  C       3.539689      3.526507      0.903433
  H       4.252516      3.128555      1.640629
  H       3.050705      2.683226      0.407548
  H       4.098920      4.074119      0.141303
  O       1.539958      0.635837      0.440843
  O      -2.215836      0.192291     -2.161710
  N      -0.340423      0.388542     -0.866661
  N       0.961155     -1.446963     -0.314433
  C       0.772699     -0.076834     -0.198929
  C      -1.272889     -0.364933     -1.621363
  C       0.112419     -2.274089     -1.020042
  C      -0.975000     -1.793631     -1.663108
  H      -0.507575      1.388069     -0.813788
  H       1.772754     -1.813290      0.166991
  H      -1.644159     -2.436916     -2.217489
  H       0.381618     -3.324573     -1.018643
26
Coordinates from ORCA-job dimethylurea_uracil_opt_freq E -718.357230586225
  O       1.275360      4.987970      3.304131
  N       1.454968      2.778277      2.724329
  N       2.573581      4.439894      1.504291
  C       1.734910      4.114527      2.562568
  H       1.607465      2.146464      1.947421
  H       2.845391      5.412124      1.559952
  C       0.460697      2.378519      3.711439
  H       0.693308      2.849725      4.669300
  H      -0.556176      2.684744      3.429623
  H       0.495376      1.291425      3.825372
  C       3.532588      3.526216      0.894203
  H       4.244821      3.107481      1.620817
  H       3.027782      2.696878      0.389830
  H       4.095446      4.076083      0.136037
  O       1.524405      0.634288      0.457131
  O      -2.213131      0.184796     -2.170461
  N      -0.348562      0.383091     -0.860429
  N       0.955987     -1.448868     -0.304776
  C       0.762724     -0.079709     -0.187625
  C      -1.271884     -0.370634     -1.625850
  C       0.117592     -2.275914     -1.022621
  C      -0.966526     -1.797393     -1.672264
  H      -0.518137      1.381984     -0.806055
  H       1.767017     -1.813201      0.177426
  H      -1.627197     -2.440295     -2.237681
  H       0.392097     -3.324850     -1.025439
26
Coordinates from ORCA-job dimethylurea_uracil_opt_freq E -718.357230797912
  O       1.286121      4.987868      3.316910
  N       1.451919      2.782144      2.717677
  N       2.581585      4.446008      1.513541
  C       1.740113      4.117559      2.568265
  H       1.608306      2.152073      1.940145
  H       2.861237      5.415682      1.576745
  C       0.459039      2.377482      3.703626
  H       0.691758      2.846008      4.662400
  H      -0.559033      2.683500      3.424157
  H       0.496568      1.290439      3.813205
  C       3.528888      3.529094      0.889661
  H       4.238912      3.094104      1.608136
  H       3.012647      2.711339      0.377498
  H       4.095752      4.081493      0.135974
  O       1.518413      0.633064      0.463885
  O      -2.211216      0.182101     -2.172850
  N      -0.351714      0.380530     -0.855442
  N       0.951803     -1.450914     -0.296412
  C       0.758331     -0.081361     -0.180952
  C      -1.271194     -0.373092     -1.625742
  C       0.118608     -2.277739     -1.020676
  C      -0.963086     -1.799601     -1.674837
  H      -0.522174      1.379649     -0.800603
  H       1.762467     -1.814772      0.186398
  H      -1.619301     -2.442607     -2.245546
  H       0.395153     -3.326426     -1.024494
26
Coordinates from ORCA-job dimethylurea_uracil_opt_freq E -718.357245243735
  O       1.300070      4.990185      3.331041
  N       1.450404      2.787984      2.716771
  N       2.589360      4.453043      1.522301
  C       1.747447      4.122214      2.575269
  H       1.606443      2.158548      1.938316
  H       2.877449      5.419483      1.592212
  C       0.459423      2.381899      3.703307
  H       0.692694      2.848118      4.662892
  H      -0.559096      2.687981      3.425964
  H       0.497995      1.294328      3.809820
  C       3.524341      3.533053      0.883890
  H       4.233569      3.082145      1.593458
  H       2.995458      2.727502      0.365641
  H       4.092981      4.087997      0.132210
  O       1.509408      0.626863      0.475245
  O      -2.207694      0.177911     -2.180276
  N      -0.354629      0.374770     -0.853895
  N       0.946294     -1.456809     -0.290026
  C       0.752741     -0.087004     -0.174623
  C      -1.269541     -0.377807     -1.631059
  C       0.119300     -2.282043     -1.022956
  C      -0.959017     -1.803519     -1.682378
  H      -0.527219      1.373399     -0.797881
  H       1.754675     -1.820289      0.194661
  H      -1.610115     -2.446106     -2.260010
  H       0.397161     -3.330225     -1.029224
26
Coordinates from ORCA-job dimethylurea_uracil_opt_freq E -718.357263906628
  O       1.309191      4.995586      3.341178
  N       1.452088      2.795513      2.718876
  N       2.595155      4.460683      1.529031
  C       1.753414      4.129007      2.581974
  H       1.607626      2.166299      1.940676
  H       2.890424      5.424751      1.603829
  C       0.463560      2.388684      3.706876
  H       0.698106      2.850366      4.668179
  H      -0.555853      2.693510      3.431920
  H       0.501797      1.300579      3.809753
  C       3.519543      3.537695      0.880056
  H       4.228212      3.075395      1.582660
  H       2.980815      2.740677      0.358800
  H       4.088088      4.094086      0.129150
  O       1.499718      0.617197      0.485053
  O      -2.203222      0.174733     -2.190364
  N      -0.356331      0.368101     -0.855243
  N       0.939425     -1.465141     -0.285772
  C       0.746902     -0.094871     -0.170334
  C      -1.267307     -0.382755     -1.639078
  C       0.118197     -2.288249     -1.027970
  C      -0.955837     -1.808157     -1.693545
  H      -0.531834      1.366168     -0.796759
  H       1.744220     -1.829581      0.203810
  H      -1.602321     -2.450167     -2.276472
  H       0.396127     -3.336486     -1.035615
26
Coordinates from ORCA-job dimethylurea_uracil_opt_freq E -718.357281532821
  O       1.330507      5.007914      3.354752
  N       1.455254      2.807404      2.729999
  N       2.601458      4.466920      1.533984
  C       1.764453      4.139199      2.591621
  H       1.601383      2.178271      1.950405
  H       2.906480      5.427535      1.608865
  C       0.472043      2.405374      3.724687
  H       0.713901      2.863938      4.685332
  H      -0.548721      2.710822      3.455527
  H       0.506698      1.317473      3.826975
  C       3.512860      3.537577      0.875886
  H       4.222903      3.068369      1.572180
  H       2.964074      2.745558      0.358241
  H       4.079182      4.090434      0.120994
  O       1.473560      0.609104      0.500676
  O      -2.200346      0.161552     -2.214522
  N      -0.366906      0.357619     -0.860943
  N       0.931233     -1.472703     -0.287438
  C       0.731377     -0.103231     -0.167273
  C      -1.266496     -0.394401     -1.657630
  C       0.122186     -2.296251     -1.041262
  C      -0.947276     -1.818085     -1.716048
  H      -0.551977      1.353809     -0.797559
  H       1.731575     -1.835504      0.211615
  H      -1.584267     -2.461616     -2.307911
  H       0.404765     -3.343457     -1.050484
26
Coordinates from ORCA-job dimethylurea_uracil_opt_freq E -718.357283705109
  O       1.340644      5.014840      3.360676
  N       1.458025      2.813517      2.736912
  N       2.603640      4.469540      1.535271
  C       1.769910      4.144609      2.597072
  H       1.598677      2.184234      1.956717
  H       2.912594      5.429212      1.609308
  C       0.476931      2.414395      3.735287
  H       0.723099      2.872873      4.695509
  H      -0.543813      2.721425      3.468749
  H       0.508829      1.326120      3.838331
  C       3.508387      3.536900      0.873565
  H       4.219761      3.065638      1.567443
  H       2.954971      2.745846      0.358845
  H       4.073408      4.086588      0.116096
  O       1.459829      0.603670      0.508792
  O      -2.198349      0.155015     -2.226803
  N      -0.372060      0.351807     -0.864529
  N       0.927374     -1.476777     -0.288329
  C       0.723183     -0.108557     -0.165172
  C      -1.265679     -0.400146     -1.667018
  C       0.124257     -2.300107     -1.049249
  C      -0.942485     -1.822483     -1.728656
  H      -0.560733      1.346836     -0.798945
  H       1.725414     -1.839297      0.215226
  H      -1.574923     -2.465560     -2.324854
  H       0.409010     -3.346514     -1.059576
26
Coordinates from ORCA-job dimethylurea_uracil_opt_freq E -718.357293234670
  O       1.346645      5.017645      3.364070
  N       1.459183      2.816383      2.739727
  N       2.605145      4.470313      1.535964
  C       1.772945      4.146810      2.599475
  H       1.597458      2.187256      1.958860
  H       2.915908      5.429353      1.609649
  C       0.479269      2.418044      3.739594
  H       0.727898      2.875934      4.699334
  H      -0.541398      2.726762      3.475009
  H       0.509451      1.329888      3.842426
  C       3.506781      3.536150      0.872868
  H       4.218892      3.064188      1.565954
  H       2.951880      2.744942      0.359564
  H       4.071312      4.084077      0.114231
  O       1.450785      0.603531      0.512981
  O      -2.198347      0.150099     -2.234359
  N      -0.376506      0.349589     -0.866029
  N       0.925701     -1.476969     -0.289066
  C       0.717613     -0.109633     -0.164065
  C      -1.266010     -0.403429     -1.672315
  C       0.126095     -2.301411     -1.052251
  C      -0.939563     -1.825179     -1.733917
  H      -0.567775      1.344062     -0.798546
  H       1.723165     -1.838708      0.216637
  H      -1.569343     -2.468674     -2.332861
  H       0.412718     -3.347398     -1.062265
26
Coordinates from ORCA-job dimethylurea_uracil_opt_freq E -718.357283413694
  O       1.347366      5.018185      3.365947
  N       1.459719      2.817700      2.738561
  N       2.605892      4.472702      1.537335
  C       1.773504      4.148140      2.600292
  H       1.599427      2.189126      1.957363
  H       2.916617      5.431519      1.611450
  C       0.480112      2.416662      3.737788
  H       0.729289      2.873063      4.698229
  H      -0.540629      2.726362      3.474469
  H       0.510270      1.328570      3.838779
  C       3.507885      3.539024      0.874124
  H       4.220739      3.068040      1.567358
  H       2.954000      2.746720      0.361245
  H       4.072492      4.086150      0.114957
  O       1.447772      0.602754      0.514374
  O      -2.197826      0.148259     -2.237646
  N      -0.377913      0.348581     -0.866648
  N       0.924613     -1.477809     -0.289256
  C       0.715365     -0.110924     -0.163372
  C      -1.266322     -0.404618     -1.673656
  C       0.124730     -2.302759     -1.051447
  C      -0.940044     -1.826506     -1.734469
  H      -0.569442      1.342902     -0.798266
  H       1.721645     -1.839711      0.216949
  H      -1.570020     -2.469585     -2.333741
  H       0.410662     -3.348922     -1.060049
26
Coordinates from ORCA-job dimethylurea_uracil_opt_freq E -718.357292164209
  O       1.347662      5.017613      3.367526
  N       1.459958      2.818378      2.737064
  N       2.607014      4.474562      1.538697
  C       1.773998      4.148697      2.600715
  H       1.601576      2.189850      1.955955
  H       2.917908      5.433141      1.614610
  C       0.480232      2.414993      3.734943
  H       0.728724      2.869402      4.696340
  H      -0.540344      2.725210      3.472074
  H       0.510427      1.326803      3.833721
  C       3.509267      3.541746      0.874610
  H       4.222520      3.070328      1.567166
  H       2.955458      2.749702      0.360853
  H       4.073565      4.089625      0.115723
  O       1.445509      0.602252      0.516186
  O      -2.197121      0.147255     -2.239818
  N      -0.378747      0.347999     -0.866537
  N       0.923834     -1.478157     -0.288430
  C       0.713849     -0.111685     -0.162020
  C      -1.266440     -0.405240     -1.674280
  C       0.123487     -2.303512     -1.050310
  C      -0.940612     -1.827353     -1.733800
  H      -0.570172      1.342226     -0.797181
  H       1.720602     -1.840189      0.218031
  H      -1.570986     -2.470189     -2.333149
  H       0.408736     -3.349834     -1.058019
26
Coordinates from ORCA-job dimethylurea_uracil_opt_freq E -718.357296644514
  O       1.346015      5.015766      3.368961
  N       1.460305      2.818191      2.733853
  N       2.607722      4.477335      1.540258
  C       1.773769      4.148713      2.600887
  H       1.605255      2.189963      1.953149
  H       2.917992      5.436014      1.618828
  C       0.480164      2.411607      3.729858
  H       0.727216      2.863346      4.692931
  H      -0.540483      2.721753      3.467222
  H       0.510907      1.323126      3.825574
  C       3.512262      3.546773      0.876054
  H       4.226011      3.075848      1.568293
  H       2.959990      2.754623      0.360988
  H       4.075747      4.096845      0.117768
  O       1.445138      0.600892      0.516985
  O      -2.195800      0.147781     -2.241496
  N      -0.378423      0.347524     -0.866757
  N       0.922833     -1.479359     -0.287434
  C       0.713395     -0.112862     -0.161308
  C      -1.266549     -0.405222     -1.674403
  C       0.120481     -2.304785     -1.047215
  C      -0.942984     -1.828038     -1.731679
  H      -0.569118      1.341928     -0.796858
  H       1.718887     -1.841899      0.219060
  H      -1.574885     -2.470641     -2.329628
  H       0.404058     -3.351598     -1.053222
26
Coordinates from ORCA-job dimethylurea_uracil_opt_freq E -718.357290290721
  O       1.344520      5.014041      3.369736
  N       1.460133      2.817598      2.731292
  N       2.607936      4.479399      1.541335
  C       1.773291      4.148428      2.600538
  H       1.607381      2.189922      1.950564
  H       2.917898      5.438015      1.622087
  C       0.479528      2.408832      3.725743
  H       0.725172      2.858469      4.690148
  H      -0.541236      2.718450      3.462778
  H       0.511056      1.320116      3.818974
  C       3.514474      3.550543      0.876942
  H       4.228454      3.079756      1.568732
  H       2.962894      2.758688      0.360641
  H       4.077418      4.102481      0.119582
  O       1.446627      0.599463      0.517149
  O      -2.194320      0.149374     -2.241373
  N      -0.377023      0.347356     -0.866591
  N       0.922547     -1.480424     -0.286841
  C       0.714352     -0.113685     -0.160929
  C      -1.266324     -0.404689     -1.673244
  C       0.117972     -2.305495     -1.045179
  C      -0.945335     -1.828083     -1.728972
  H      -0.566606      1.341909     -0.797154
  H       1.718015     -1.843544      0.220334
  H      -1.578927     -2.470636     -2.325143
  H       0.400008     -3.352659     -1.050480
26
Coordinates from ORCA-job dimethylurea_uracil_opt_freq E -718.357304534324
  O       1.344603      5.013732      3.369825
  N       1.460433      2.817246      2.731461
  N       2.607657      4.479354      1.541035
  C       1.773370      4.148175      2.600637
  H       1.607478      2.189764      1.950638
  H       2.917501      5.438095      1.622302
  C       0.479526      2.408818      3.725810
  H       0.725020      2.858082      4.690466
  H      -0.541159      2.718561      3.462607
  H       0.510818      1.319965      3.818481
  C       3.514782      3.550845      0.876838
  H       4.229005      3.080633      1.568605
  H       2.963400      2.758709      0.360787
  H       4.077124      4.103229      0.119422
  O       1.446248      0.599214      0.517712
  O      -2.193914      0.149872     -2.241992
  N      -0.376875      0.347275     -0.866876
  N       0.922677     -1.480512     -0.287110
  C       0.714346     -0.113699     -0.161008
  C      -1.266295     -0.404611     -1.673641
  C       0.117791     -2.305543     -1.044968
  C      -0.945733     -1.828126     -1.728780
  H      -0.566078      1.341925     -0.797546
  H       1.717845     -1.843700      0.220502
  H      -1.579609     -2.470968     -2.324305
  H       0.399942     -3.352713     -1.050232
