26
Coordinates from ORCA-job dimethylurea_uracil_opt_freq E -718.357304534324
  O           1.34460264394177      5.01373245041440      3.36982513456172
  N           1.46043303753986      2.81724573924227      2.73146086997881
  N           2.60765664918218      4.47935386280584      1.54103521895568
  C           1.77336956446893      4.14817466265283      2.60063726600694
  H           1.60747826983849      2.18976448760265      1.95063767324183
  H           2.91750094451273      5.43809458670591      1.62230248292105
  C           0.47952556937006      2.40881766257828      3.72580989570484
  H           0.72502017355379      2.85808173645555      4.69046637978752
  H          -0.54115900733328      2.71856130689747      3.46260652599436
  H           0.51081829562422      1.31996541613359      3.81848060320273
  C           3.51478150300932      3.55084493437178      0.87683848967111
  H           4.22900506833057      3.08063302766851      1.56860517644979
  H           2.96340032589336      2.75870850870803      0.36078664127687
  H           4.07712428059993      4.10322858038392      0.11942169325485
  O           1.44624752904000      0.59921425594261      0.51771151865400
  O          -2.19391421536448      0.14987228048047     -2.24199150141624
  N          -0.37687481968616      0.34727524812490     -0.86687595889760
  N           0.92267721102183     -1.48051157400619     -0.28711006610531
  C           0.71434639990358     -0.11369890540813     -0.16100830020383
  C          -1.26629471090994     -0.40461064946749     -1.67364115079229
  C           0.11779096624390     -2.30554286746792     -1.04496778652600
  C          -0.94573326172153     -1.82812576526628     -1.72877986958907
  H          -0.56607773763904      1.34192505522474     -0.79754636435252
  H           1.71784542022952     -1.84370011217036      0.22050190559006
  H          -1.57960889750753     -2.47096797506778     -2.32430457193832
  H           0.39994179785781     -3.35271295353974     -1.05023190543104
