18
Coordinates from ORCA-job formamide_uracil_opt_freq E -584.451462216819
  O           1.97618833259480      5.54768391197222      2.01804798823286
  N           1.54414351151851      3.30369513258941      2.21574859455386
  C           1.99483167058960      4.41086627542714      1.56735275468009
  H           1.69247033838515      2.37273594679206      1.83577716972501
  H           1.25189048196970      3.40307603792620      3.17903873068478
  H           2.37747032495951      4.18365559500398      0.55342912277551
  O           1.69607346299140      0.56389571710617      0.96293012245157
  O          -2.70250359263392      0.22310530911636     -0.31155125778027
  N          -0.50788328289346      0.36938420042966      0.31603968087054
  N           1.00542841389025     -1.32793249150580     -0.12460626083461
  C           0.79254879091173     -0.07344069477301      0.42795840966286
  C          -1.60080275527254     -0.30246592765306     -0.28748995515309
  C           0.01404706559220     -2.06813569208252     -0.73412254308437
  C          -1.25392344669128     -1.61087772026333     -0.83448552777716
  H          -0.70662069587167      1.28659776651515      0.70363112585469
  H           1.95241397949769     -1.67497033092272     -0.05336909915494
  H          -2.03461781628659     -2.18698558313804     -1.31334047226223
  H           0.32619221674887     -3.03138745253990     -1.12161658344512
