18
Coordinates from ORCA-job formamide_uracil_opt_freq E -584.355841361465
  O       0.077964      4.035305      1.500097
  N       1.444605      2.184315      1.500097
  C       1.204249      3.542699      1.499697
  H       2.387983      1.811244      1.499797
  H       0.682178      1.514991      1.500097
  H       2.060768      4.216846      1.498987
  O       2.326400      0.965100      0.000100
  O      -2.297200      1.023200      0.000500
  N       0.018000      1.019900     -0.000200
  N       1.163700     -1.022100      0.000100
  C       1.252400      0.362900      0.000000
  C      -1.231500      0.414100     -0.000400
  C      -0.026800     -1.695500      0.000200
  C      -1.204900     -1.067600     -0.000200
  H       0.038200      2.035700     -0.000100
  H       2.018700     -1.570200      0.000400
  H      -2.144300     -1.606300     -0.000200
  H       0.046900     -2.776100      0.000400
18
Coordinates from ORCA-job formamide_uracil_opt_freq E -584.380825335472
  O       0.107279      4.106314      1.571724
  N       1.456105      2.259701      1.518889
  C       1.230444      3.601980      1.556075
  H       2.387000      1.879384      1.478049
  H       0.693573      1.592622      1.489331
  H       2.112392      4.254894      1.555524
  O       2.312488      0.935868     -0.025311
  O      -2.301210      1.004565     -0.029894
  N       0.006686      0.977786     -0.022981
  N       1.155648     -1.049327     -0.006027
  C       1.240843      0.332918     -0.019108
  C      -1.253922      0.371363     -0.023759
  C      -0.039231     -1.735532     -0.002001
  C      -1.224825     -1.104000     -0.010975
  H       0.039921      1.995961     -0.026444
  H       2.017453     -1.579488     -0.001494
  H      -2.164557     -1.639406     -0.009130
  H       0.041259     -2.817104      0.006903
18
Coordinates from ORCA-job formamide_uracil_opt_freq E -584.398419714279
  O       0.114767      4.161610      1.663869
  N       1.466539      2.328498      1.528168
  C       1.236170      3.655749      1.614184
  H       2.393921      1.947566      1.438051
  H       0.710474      1.656411      1.476108
  H       2.137857      4.290604      1.614569
  O       2.304113      0.899650     -0.058606
  O      -2.291125      1.004511     -0.063463
  N       0.006372      0.939911     -0.050394
  N       1.146650     -1.081982     -0.010577
  C       1.235528      0.298947     -0.042656
  C      -1.269496      0.338137     -0.046533
  C      -0.053065     -1.770742      0.002479
  C      -1.240328     -1.129414     -0.015491
  H       0.056594      1.956693     -0.064670
  H       2.016352     -1.597130     -0.001631
  H      -2.183165     -1.658470     -0.008404
  H       0.029188     -2.852047      0.024369
18
Coordinates from ORCA-job formamide_uracil_opt_freq E -584.415607034752
  O       0.139382      4.255314      1.802322
  N       1.484000      2.421465      1.539823
  C       1.251309      3.745454      1.694944
  H       2.404530      2.037799      1.379202
  H       0.726884      1.752345      1.465773
  H       2.172004      4.357125      1.698820
  O       2.297758      0.841775     -0.103199
  O      -2.287653      0.987483     -0.114710
  N       0.002552      0.890250     -0.087523
  N       1.130686     -1.134890     -0.017148
  C       1.226872      0.247648     -0.074381
  C      -1.287270      0.293752     -0.079957
  C      -0.071035     -1.816564      0.006235
  C      -1.255089     -1.166812     -0.024459
  H       0.064995      1.904481     -0.117242
  H       2.007975     -1.638628     -0.002809
  H      -2.200406     -1.692732     -0.011476
  H       0.009853     -2.896763      0.045157
18
Coordinates from ORCA-job formamide_uracil_opt_freq E -584.428844674907
  O       0.162681      4.329696      1.987013
  N       1.510065      2.525355      1.548560
  C       1.264997      3.841608      1.785180
  H       2.415830      2.154295      1.291942
  H       0.753292      1.857266      1.478772
  H       2.191141      4.447593      1.777735
  O       2.298986      0.766669     -0.150316
  O      -2.282302      0.966403     -0.183260
  N       0.004352      0.837841     -0.130755
  N       1.112885     -1.197377     -0.022068
  C       1.221359      0.185666     -0.108492
  C      -1.297927      0.252659     -0.120932
  C      -0.093322     -1.863299      0.012058
  C      -1.271147     -1.202858     -0.033597
  H       0.075062      1.850335     -0.190697
  H       1.992570     -1.696077     -0.000941
  H      -2.219421     -1.723876     -0.013281
  H      -0.021752     -2.943400      0.072451
18
Coordinates from ORCA-job formamide_uracil_opt_freq E -584.436404553903
  O       0.195557      4.381421      2.152493
  N       1.539428      2.619582      1.556929
  C       1.288500      3.924154      1.863774
  H       2.423855      2.265001      1.211065
  H       0.777710      1.954483      1.513061
  H       2.206962      4.541289      1.823368
  O       2.299706      0.700364     -0.178019
  O      -2.283028      0.935951     -0.247213
  N       0.002681      0.793077     -0.161990
  N       1.096882     -1.249804     -0.024325
  C       1.214553      0.132380     -0.129569
  C      -1.304066      0.216392     -0.161144
  C      -0.113346     -1.903932      0.011908
  C      -1.286652     -1.237169     -0.048588
  H       0.071097      1.803490     -0.248706
  H       1.976135     -1.749183      0.004183
  H      -2.236568     -1.755089     -0.026101
  H      -0.052057     -2.983906      0.088246
18
Coordinates from ORCA-job formamide_uracil_opt_freq E -584.440899884019
  O       0.236460      4.413015      2.314131
  N       1.569347      2.708257      1.561786
  C       1.314713      3.997639      1.924141
  H       2.425914      2.375408      1.134761
  H       0.806934      2.042456      1.565419
  H       2.214342      4.638419      1.844336
  O       2.298961      0.641499     -0.191885
  O      -2.282567      0.904026     -0.308533
  N       0.000673      0.752307     -0.185241
  N       1.081789     -1.295714     -0.024287
  C       1.208032      0.084184     -0.142710
  C      -1.306282      0.183364     -0.196087
  C      -0.133047     -1.942339      0.008270
  C      -1.302636     -1.269850     -0.067761
  H       0.063628      1.760628     -0.296812
  H       1.957852     -1.799271      0.012772
  H      -2.254684     -1.783282     -0.048843
  H      -0.082083     -3.022247      0.095916
18
Coordinates from ORCA-job formamide_uracil_opt_freq E -584.443423371653
  O       0.283984      4.439613      2.449539
  N       1.598075      2.785329      1.572767
  C       1.343888      4.061247      1.976627
  H       2.424464      2.476677      1.075673
  H       0.842551      2.114734      1.636178
  H       2.209761      4.735258      1.831043
  O       2.295770      0.593297     -0.190497
  O      -2.283131      0.874081     -0.356361
  N      -0.003235      0.716165     -0.202190
  N       1.067199     -1.335383     -0.025972
  C       1.201265      0.042499     -0.148432
  C      -1.307693      0.152642     -0.231724
  C      -0.151285     -1.977937     -0.001842
  C      -1.317448     -1.300605     -0.091222
  H       0.054304      1.722625     -0.329537
  H       1.939069     -1.845406      0.020167
  H      -2.272141     -1.808735     -0.077299
  H      -0.108050     -3.057600      0.092451
18
Coordinates from ORCA-job formamide_uracil_opt_freq E -584.444819103611
  O       0.352756      4.470070      2.586472
  N       1.622395      2.859344      1.580442
  C       1.372741      4.126629      2.007758
  H       2.417381      2.573166      1.025281
  H       0.885204      2.179265      1.713110
  H       2.207741      4.825257      1.809248
  O       2.285694      0.555923     -0.178296
  O      -2.288298      0.839949     -0.408826
  N      -0.013165      0.681154     -0.214362
  N       1.052289     -1.369984     -0.023400
  C       1.190706      0.006292     -0.147085
  C      -1.314814      0.119785     -0.256708
  C      -0.167708     -2.013413     -0.014505
  C      -1.332069     -1.334406     -0.119915
  H       0.040828      1.686244     -0.353139
  H       1.920661     -1.884333      0.033533
  H      -2.288338     -1.839323     -0.120676
  H      -0.126657     -3.093117      0.080441
18
Coordinates from ORCA-job formamide_uracil_opt_freq E -584.445665526060
  O       0.421225      4.509718      2.691549
  N       1.646530      2.920617      1.600450
  C       1.404602      4.184014      2.042159
  H       2.408810      2.656368      0.992701
  H       0.939503      2.226923      1.804238
  H       2.189492      4.909233      1.755412
  O       2.273553      0.526223     -0.153708
  O      -2.296726      0.810524     -0.440850
  N      -0.024689      0.649625     -0.226403
  N       1.037906     -1.400841     -0.025288
  C       1.179291     -0.024685     -0.141743
  C      -1.323181      0.088128     -0.294546
  C      -0.182353     -2.045532     -0.033642
  C      -1.344919     -1.365693     -0.152482
  H       0.028695      1.655155     -0.360978
  H       1.903346     -1.918689      0.043818
  H      -2.302768     -1.867497     -0.162950
  H      -0.140972     -3.125090      0.061633
18
Coordinates from ORCA-job formamide_uracil_opt_freq E -584.446272161022
  O       0.510423      4.564171      2.791927
  N       1.667111      2.979986      1.620181
  C       1.437838      4.245590      2.061597
  H       2.397035      2.731064      0.969148
  H       1.000310      2.271791      1.895590
  H       2.180887      4.981220      1.699463
  O       2.252773      0.506487     -0.120276
  O      -2.313025      0.772769     -0.482813
  N      -0.044739      0.619056     -0.232365
  N       1.023098     -1.426861     -0.022137
  C       1.161421     -0.049681     -0.129388
  C      -1.340356      0.053469     -0.315115
  C      -0.194003     -2.077531     -0.055841
  C      -1.357147     -1.401906     -0.190994
  H       0.007604      1.625713     -0.357566
  H       1.888111     -1.943561      0.059825
  H      -2.313425     -1.905849     -0.223948
  H      -0.146572     -3.157427      0.032084
18
Coordinates from ORCA-job formamide_uracil_opt_freq E -584.446799670639
  O       0.615729      4.638503      2.882861
  N       1.684609      3.038732      1.646445
  C       1.473385      4.311770      2.075643
  H       2.382279      2.798983      0.958218
  H       1.071402      2.315390      1.996540
  H       2.175306      5.044603      1.633675
  O       2.224245      0.492673     -0.072697
  O      -2.337077      0.729760     -0.514623
  N      -0.070658      0.587736     -0.241580
  N       1.007857     -1.451420     -0.021200
  C       1.138055     -0.071861     -0.113008
  C      -1.361453      0.013770     -0.351072
  C      -0.203339     -2.110451     -0.084534
  C      -1.368276     -1.442171     -0.237168
  H      -0.020855      1.596964     -0.341777
  H       1.874148     -1.962981      0.077301
  H      -2.321136     -1.951053     -0.290440
  H      -0.146876     -3.190444     -0.003211
18
Coordinates from ORCA-job formamide_uracil_opt_freq E -584.447221240192
  O       0.726373      4.729919      2.952195
  N       1.703200      3.093991      1.680718
  C       1.516454      4.378049      2.089590
  H       2.367047      2.855938      0.958627
  H       1.158130      2.356668      2.108598
  H       2.160506      5.098234      1.548718
  O       2.188852      0.482951     -0.013461
  O      -2.364545      0.683533     -0.546410
  N      -0.100512      0.559212     -0.243659
  N       0.992139     -1.474445     -0.019870
  C       1.110053     -0.091790     -0.090282
  C      -1.386107     -0.025660     -0.372804
  C      -0.210362     -2.142822     -0.119748
  C      -1.377518     -1.483420     -0.288921
  H      -0.060065      1.569523     -0.312867
  H       1.861197     -1.978013      0.094186
  H      -2.324192     -2.000097     -0.371828
  H      -0.143303     -3.223272     -0.053410
18
Coordinates from ORCA-job formamide_uracil_opt_freq E -584.447521777827
  O       0.832465      4.817786      3.002686
  N       1.716179      3.144130      1.708173
  C       1.556698      4.438419      2.095795
  H       2.353863      2.895072      0.966192
  H       1.232561      2.404656      2.197470
  H       2.164286      5.137581      1.488273
  O       2.149812      0.480255      0.048247
  O      -2.395180      0.635811     -0.569338
  N      -0.132940      0.531977     -0.243466
  N       0.978382     -1.490882     -0.019223
  C       1.079735     -0.105547     -0.064921
  C      -1.410228     -0.065325     -0.400981
  C      -0.213531     -2.171586     -0.154357
  C      -1.384958     -1.523687     -0.338304
  H      -0.103041      1.545819     -0.278487
  H       1.851795     -1.983217      0.109278
  H      -2.323435     -2.050672     -0.445989
  H      -0.135115     -3.252091     -0.101675
18
Coordinates from ORCA-job formamide_uracil_opt_freq E -584.447745700817
  O       0.904790      4.884493      3.019966
  N       1.724707      3.177233      1.725762
  C       1.590713      4.480172      2.094545
  H       2.349169      2.906603      0.979653
  H       1.280056      2.443354      2.258032
  H       2.179254      5.159661      1.447079
  O       2.116290      0.484200      0.101420
  O      -2.421548      0.597632     -0.582322
  N      -0.161332      0.513909     -0.234816
  N       0.969293     -1.498173     -0.019233
  C       1.054097     -0.110947     -0.040706
  C      -1.429679     -0.094292     -0.415610
  C      -0.212269     -2.190136     -0.183319
  C      -1.388605     -1.553239     -0.375878
  H      -0.142336      1.529467     -0.242384
  H       1.847319     -1.980047      0.117632
  H      -2.318293     -2.090852     -0.504705
  H      -0.124278     -3.270538     -0.145746
18
Coordinates from ORCA-job formamide_uracil_opt_freq E -584.448061149603
  O       1.014977      4.986064      3.026011
  N       1.735135      3.222261      1.748864
  C       1.647126      4.538875      2.082185
  H       2.343657      2.902048      1.008347
  H       1.345341      2.509780      2.349344
  H       2.212311      5.184317      1.381552
  O       2.056501      0.496635      0.195978
  O      -2.465541      0.536366     -0.596953
  N      -0.210645      0.488879     -0.209029
  N       0.956900     -1.503478     -0.019300
  C       1.010532     -0.114551      0.004700
  C      -1.460755     -0.137889     -0.432409
  C      -0.205014     -2.214273     -0.232780
  C      -1.390539     -1.596829     -0.436220
  H      -0.212246      1.504835     -0.172500
  H       1.842670     -1.967761      0.128370
  H      -2.303163     -2.152995     -0.601789
  H      -0.099899     -3.293784     -0.225000
18
Coordinates from ORCA-job formamide_uracil_opt_freq E -584.448260197823
  O       1.097983      5.054908      3.019124
  N       1.740923      3.247913      1.763649
  C       1.688877      4.574352      2.064646
  H       2.335923      2.884053      1.031607
  H       1.388516      2.562389      2.417452
  H       2.233029      5.194622      1.326156
  O       2.008958      0.508019      0.273513
  O      -2.497246      0.493059     -0.604833
  N      -0.248843      0.473504     -0.179505
  N       0.949354     -1.503455     -0.018387
  C       0.977944     -0.115001      0.044064
  C      -1.482748     -0.167072     -0.439906
  C      -0.196123     -2.227302     -0.271479
  C      -1.388445     -1.624531     -0.481096
  H      -0.267632      1.487768     -0.113864
  H       1.840032     -1.956248      0.135481
  H      -2.287011     -2.193352     -0.677176
  H      -0.076143     -3.305127     -0.290072
18
Coordinates from ORCA-job formamide_uracil_opt_freq E -584.448462354683
  O       1.171402      5.107785      3.000471
  N       1.743908      3.259349      1.775053
  C       1.723107      4.594689      2.038873
  H       2.322542      2.851682      1.052481
  H       1.417406      2.609631      2.478485
  H       2.244222      5.191975      1.266168
  O       1.967379      0.519576      0.349110
  O      -2.522312      0.460056     -0.607256
  N      -0.282486      0.463991     -0.140404
  N       0.945058     -1.498674     -0.016278
  C       0.951067     -0.112547      0.085451
  C      -1.500067     -0.188060     -0.440340
  C      -0.184787     -2.232642     -0.307539
  C      -1.382802     -1.642420     -0.519954
  H      -0.318067      1.475443     -0.054240
  H       1.839159     -1.943732      0.140158
  H      -2.268518     -2.219894     -0.746679
  H      -0.048865     -3.307707     -0.354188
18
Coordinates from ORCA-job formamide_uracil_opt_freq E -584.448681779453
  O       1.250771      5.156664      2.968619
  N       1.744339      3.258729      1.788874
  C       1.753555      4.603243      2.001808
  H       2.296296      2.804397      1.073131
  H       1.437617      2.658027      2.543934
  H       2.242547      5.171609      1.187806
  O       1.927101      0.531363      0.433337
  O      -2.543021      0.434145     -0.604199
  N      -0.314967      0.457124     -0.087099
  N       0.943118     -1.489591     -0.012473
  C       0.926476     -0.108142      0.134672
  C      -1.514866     -0.204126     -0.434914
  C      -0.169935     -2.231474     -0.346782
  C      -1.373055     -1.652851     -0.559665
  H      -0.368451      1.465142      0.017583
  H       1.839914     -1.929229      0.143542
  H      -2.246051     -2.234706     -0.822000
  H      -0.014042     -3.301824     -0.426800
18
Coordinates from ORCA-job formamide_uracil_opt_freq E -584.448884917708
  O       1.329834      5.203352      2.929036
  N       1.741675      3.251057      1.808889
  C       1.776582      4.603097      1.962126
  H       2.257155      2.756306      1.093006
  H       1.451319      2.701036      2.607996
  H       2.228158      5.133639      1.102273
  O       1.893499      0.539959      0.512321
  O      -2.557512      0.417334     -0.596296
  N      -0.341016      0.451035     -0.033590
  N       0.943129     -1.479769     -0.008675
  C       0.906652     -0.104469      0.181930
  C      -1.525679     -0.214731     -0.427442
  C      -0.154591     -2.225731     -0.384174
  C      -1.361640     -1.656143     -0.596183
  H      -0.410041      1.455587      0.091684
  H       1.842214     -1.915398      0.145297
  H      -2.224049     -2.237685     -0.892531
  H       0.021658     -3.289977     -0.496297
18
Coordinates from ORCA-job formamide_uracil_opt_freq E -584.449114186884
  O       1.418591      5.259550      2.870464
  N       1.734302      3.239438      1.840504
  C       1.797401      4.596851      1.915172
  H       2.197847      2.700758      1.121133
  H       1.461253      2.746643      2.681725
  H       2.206493      5.069781      1.001758
  O       1.861208      0.545960      0.596371
  O      -2.570256      0.404292     -0.580765
  N      -0.364788      0.444080      0.023628
  N       0.945399     -1.468096     -0.006427
  C       0.887865     -0.101379      0.231938
  C      -1.534764     -0.222373     -0.417319
  C      -0.136349     -2.214893     -0.425903
  C      -1.347469     -1.653925     -0.635015
  H      -0.449499      1.443611      0.178487
  H       1.847586     -1.898694      0.143683
  H      -2.199268     -2.232172     -0.966876
  H       0.061794     -3.270931     -0.573188
18
Coordinates from ORCA-job formamide_uracil_opt_freq E -584.449413048260
  O       1.518823      5.328941      2.775351
  N       1.718620      3.224950      1.888261
  C       1.818014      4.581545      1.855154
  H       2.107834      2.629286      1.169422
  H       1.460684      2.802274      2.770803
  H       2.184284      4.965557      0.883112
  O       1.830600      0.548097      0.689494
  O      -2.582592      0.393746     -0.551058
  N      -0.386403      0.436482      0.087938
  N       0.951839     -1.452489     -0.008440
  C       0.870442     -0.098496      0.286541
  C      -1.541815     -0.226349     -0.401061
  C      -0.112885     -2.195852     -0.475982
  C      -1.329100     -1.643994     -0.677494
  H      -0.488560      1.427358      0.285358
  H       1.858818     -1.875705      0.134065
  H      -2.169499     -2.216265     -1.047009
  H       0.108244     -3.240587     -0.665084
18
Coordinates from ORCA-job formamide_uracil_opt_freq E -584.449808389575
  O       1.612818      5.401143      2.637213
  N       1.690651      3.212514      1.949243
  C       1.838744      4.554663      1.785037
  H       1.989445      2.544618      1.248213
  H       1.430112      2.871041      2.864587
  H       2.182496      4.818967      0.765318
  O       1.810251      0.544175      0.777532
  O      -2.593646      0.385399     -0.501299
  N      -0.401033      0.430316      0.152576
  N       0.964319     -1.432442     -0.019640
  C       0.859471     -0.095390      0.336747
  C      -1.544871     -0.225458     -0.375441
  C      -0.085633     -2.167900     -0.530955
  C      -1.308417     -1.625499     -0.716228
  H      -0.521607      1.407600      0.401829
  H       1.878068     -1.845604      0.109246
  H      -2.138545     -2.190683     -1.118522
  H       0.154724     -3.198961     -0.766084
18
Coordinates from ORCA-job formamide_uracil_opt_freq E -584.450245270908
  O       1.727167      5.470169      2.456663
  N       1.643944      3.215693      2.019391
  C       1.875804      4.518199      1.705259
  H       1.845017      2.454168      1.373769
  H       1.368056      2.979487      2.962595
  H       2.220653      4.633750      0.658160
  O       1.784733      0.541398      0.865384
  O      -2.614036      0.360543     -0.432792
  N      -0.420241      0.419798      0.218036
  N       0.981507     -1.404765     -0.042245
  C       0.846094     -0.091654      0.383470
  C      -1.551002     -0.231231     -0.341416
  C      -0.051827     -2.132649     -0.595538
  C      -1.285477     -1.606662     -0.756104
  H      -0.563240      1.377089      0.529353
  H       1.905246     -1.800980      0.068198
  H      -2.102429     -2.168383     -1.188814
  H       0.207380     -3.145470     -0.883998
18
Coordinates from ORCA-job formamide_uracil_opt_freq E -584.450507230157
  O       1.816466      5.509861      2.335372
  N       1.604560      3.237236      2.069945
  C       1.909697      4.496376      1.658946
  H       1.748304      2.415349      1.481378
  H       1.322152      3.077573      3.027562
  H       2.260625      4.511861      0.607892
  O       1.767878      0.534934      0.910300
  O      -2.632525      0.330512     -0.384845
  N      -0.434491      0.409585      0.249235
  N       0.992571     -1.388142     -0.064727
  C       0.837027     -0.092830      0.403654
  C      -1.557145     -0.242856     -0.319124
  C      -0.031105     -2.112838     -0.638652
  C      -1.273077     -1.600442     -0.779955
  H      -0.592119      1.351371      0.597589
  H       1.923029     -1.772013      0.032857
  H      -2.080846     -2.163780     -1.227168
  H       0.236344     -3.113258     -0.960888
18
Coordinates from ORCA-job formamide_uracil_opt_freq E -584.450736584335
  O       1.907222      5.530506      2.273656
  N       1.580420      3.265165      2.101939
  C       1.941535      4.488676      1.634646
  H       1.691828      2.410827      1.556821
  H       1.326219      3.162691      3.076744
  H       2.272467      4.453264      0.578222
  O       1.738341      0.534329      0.944383
  O      -2.653258      0.294783     -0.365972
  N      -0.455809      0.394920      0.265060
  N       0.996007     -1.378870     -0.078016
  C       0.821113     -0.097056      0.417421
  C      -1.568251     -0.262612     -0.312114
  C      -0.017090     -2.105679     -0.668238
  C      -1.265899     -1.606404     -0.801471
  H      -0.623604      1.328258      0.632802
  H       1.930433     -1.753651      0.015950
  H      -2.063585     -2.174020     -1.260922
  H       0.259258     -3.096626     -1.011540
18
Coordinates from ORCA-job formamide_uracil_opt_freq E -584.450876597572
  O       1.961077      5.535733      2.207734
  N       1.553776      3.282611      2.136251
  C       1.959905      4.467020      1.611495
  H       1.645263      2.402678      1.640354
  H       1.309616      3.240943      3.115757
  H       2.286994      4.385076      0.557262
  O       1.736236      0.523860      0.956992
  O      -2.663750      0.273889     -0.343946
  N      -0.465801      0.391068      0.278553
  N       1.001959     -1.366666     -0.094808
  C       0.819922     -0.095929      0.423655
  C      -1.572127     -0.272522     -0.300245
  C      -0.007125     -2.095522     -0.689900
  C      -1.260630     -1.605872     -0.809639
  H      -0.645049      1.317548      0.642087
  H       1.938137     -1.738541     -0.008280
  H      -2.052850     -2.177320     -1.273542
  H       0.271794     -3.079554     -1.050408
18
Coordinates from ORCA-job formamide_uracil_opt_freq E -584.446777447333
  O       2.333318      5.458683      1.917355
  N       1.448428      3.345073      2.226126
  C       2.059465      4.327858      1.490604
  H       1.455804      2.350927      1.851074
  H       1.323005      3.584187      3.235774
  H       2.282831      4.038072      0.437449
  O       1.580169      0.586429      1.148216
  O      -2.749921      0.132557     -0.267849
  N      -0.573537      0.334852      0.405233
  N       1.024650     -1.270972     -0.119105
  C       0.739212     -0.076936      0.521918
  C      -1.623882     -0.343475     -0.258770
  C       0.076269     -2.009715     -0.802758
  C      -1.209576     -1.596060     -0.893778
  H      -0.806776      1.223454      0.841113
  H       1.981480     -1.590823     -0.047329
  H      -1.952577     -2.173727     -1.428729
  H       0.428984     -2.931885     -1.257172
18
Coordinates from ORCA-job formamide_uracil_opt_freq E -584.450525455179
  O       2.239617      5.516365      2.013125
  N       1.523135      3.330276      2.223210
  C       2.012331      4.403645      1.530567
  H       1.517212      2.382053      1.841168
  H       1.441036      3.441896      3.231576
  H       2.171474      4.191000      0.449560
  O       1.619800      0.558048      1.075690
  O      -2.723192      0.181491     -0.335825
  N      -0.545837      0.352049      0.341858
  N       1.008452     -1.311867     -0.099879
  C       0.756116     -0.081595      0.488100
  C      -1.612566     -0.325720     -0.302483
  C       0.046163     -2.053263     -0.759653
  C      -1.226790     -1.611936     -0.880077
  H      -0.766604      1.257474      0.752668
  H       1.956116     -1.651959     -0.006482
  H      -1.983927     -2.188627     -1.395369
  H       0.384812     -3.000830     -1.168384
18
Coordinates from ORCA-job formamide_uracil_opt_freq E -584.451038281451
  O       2.202324      5.514848      2.007602
  N       1.521338      3.344498      2.237711
  C       2.011077      4.401192      1.544897
  H       1.533391      2.410511      1.838939
  H       1.403254      3.451875      3.234131
  H       2.207405      4.166597      0.483996
  O       1.650542      0.548510      1.047266
  O      -2.719799      0.182241     -0.327176
  N      -0.534595      0.356104      0.323586
  N       1.008044     -1.315208     -0.112729
  C       0.766907     -0.080515      0.467772
  C      -1.609331     -0.323900     -0.300374
  C       0.037730     -2.056545     -0.755530
  C      -1.234409     -1.614398     -0.868703
  H      -0.751694      1.260742      0.729983
  H       1.955755     -1.655676     -0.023416
  H      -1.996349     -2.194819     -1.370283
  H       0.365757     -3.007558     -1.158300
18
Coordinates from ORCA-job formamide_uracil_opt_freq E -584.451153909746
  O       2.167948      5.512318      2.004588
  N       1.515333      3.324661      2.221709
  C       2.012116      4.391339      1.540084
  H       1.547098      2.386830      1.826926
  H       1.359425      3.431165      3.213816
  H       2.254268      4.152176      0.486864
  O       1.656454      0.557797      1.042604
  O      -2.718249      0.189194     -0.317025
  N      -0.532893      0.362059      0.335326
  N       1.010532     -1.306692     -0.112660
  C       0.770242     -0.070619      0.468670
  C      -1.607641     -0.317004     -0.292061
  C       0.039577     -2.048487     -0.752520
  C      -1.233394     -1.607998     -0.861598
  H      -0.755319      1.264541      0.740666
  H       1.959674     -1.644804     -0.027229
  H      -1.996486     -2.188645     -1.361869
  H       0.368661     -2.999331     -1.156917
18
Coordinates from ORCA-job formamide_uracil_opt_freq E -584.449108139774
  O       2.222460      5.460272      2.012832
  N       1.523792      3.327406      2.200286
  C       2.006974      4.382545      1.522290
  H       1.584130      2.394164      1.828805
  H       1.472861      3.445605      3.222355
  H       2.178890      4.185157      0.434574
  O       1.587173      0.587522      1.103058
  O      -2.735231      0.167844     -0.349989
  N      -0.563707      0.344145      0.364524
  N       1.005781     -1.295577     -0.085695
  C       0.739399     -0.070663      0.507755
  C      -1.622938     -0.334480     -0.310266
  C       0.051791     -2.042504     -0.762185
  C      -1.224823     -1.613189     -0.895236
  H      -0.792231      1.249509      0.789425
  H       1.956297     -1.625079      0.016242
  H      -1.977184     -2.191255     -1.425858
  H       0.403912     -2.982923     -1.173543
18
Coordinates from ORCA-job formamide_uracil_opt_freq E -584.450189297254
  O       2.193990      5.506761      2.007116
  N       1.508832      3.323417      2.196133
  C       2.021861      4.383818      1.541285
  H       1.589345      2.376604      1.831971
  H       1.392831      3.456137      3.182495
  H       2.258063      4.146424      0.511312
  O       1.605847      0.584614      1.064720
  O      -2.737415      0.167257     -0.325696
  N      -0.557932      0.350689      0.345889
  N       1.008363     -1.296908     -0.109386
  C       0.745963     -0.068507      0.478060
  C      -1.622673     -0.330519     -0.295908
  C       0.049548     -2.042887     -0.757969
  C      -1.228370     -1.613007     -0.871513
  H      -0.783691      1.252923      0.764322
  H       1.960891     -1.626768     -0.020485
  H      -1.983050     -2.194998     -1.378348
  H       0.394942     -2.986548     -1.164626
18
Coordinates from ORCA-job formamide_uracil_opt_freq E -584.442870308201
  O       1.886417      5.561869      1.971262
  N       1.522299      3.261960      2.248045
  C       1.950262      4.404445      1.522710
  H       1.673306      2.349150      1.845644
  H       1.258623      3.294436      3.218863
  H       2.322011      4.184691      0.459403
  O       1.782039      0.505811      1.045001
  O      -2.664773      0.281536     -0.313089
  N      -0.465532      0.414566      0.312994
  N       1.009585     -1.332943     -0.122814
  C       0.830628     -0.063963      0.458292
  C      -1.567188     -0.252102     -0.279447
  C       0.004271     -2.058166     -0.736101
  C      -1.250129     -1.580068     -0.826822
  H      -0.665045      1.318602      0.679170
  H       1.944642     -1.704115     -0.048348
  H      -2.035307     -2.159301     -1.300392
  H       0.281240     -3.037909     -1.134999
18
Coordinates from ORCA-job formamide_uracil_opt_freq E -584.449756278914
  O       2.069426      5.521134      2.005570
  N       1.512483      3.309952      2.228074
  C       1.998057      4.388173      1.546954
  H       1.592446      2.360555      1.827972
  H       1.307256      3.403633      3.221328
  H       2.311644      4.132621      0.490103
  O       1.680716      0.538072      0.987243
  O      -2.709481      0.210368     -0.318471
  N      -0.516001      0.375614      0.316172
  N       1.013407     -1.305636     -0.120044
  C       0.780927     -0.067813      0.442222
  C      -1.597864     -0.298101     -0.292493
  C       0.034612     -2.041804     -0.732373
  C      -1.237726     -1.594987     -0.840230
  H      -0.730731      1.277130      0.718946
  H       1.964381     -1.645256     -0.040775
  H      -2.005024     -2.177662     -1.320958
  H       0.348820     -2.997493     -1.119868
18
Coordinates from ORCA-job formamide_uracil_opt_freq E -584.448581403851
  O       2.095561      5.547041      1.957905
  N       1.521653      3.326201      2.213110
  C       2.007111      4.407493      1.553485
  H       1.609114      2.392918      1.838580
  H       1.311445      3.432995      3.197730
  H       2.314317      4.157799      0.570144
  O       1.682400      0.552662      1.027801
  O      -2.708854      0.202378     -0.301807
  N      -0.520915      0.368078      0.336605
  N       1.007187     -1.319432     -0.119301
  C       0.781563     -0.071767      0.464780
  C      -1.604745     -0.315689     -0.288793
  C       0.025774     -2.066382     -0.761466
  C      -1.245990     -1.618243     -0.864973
  H      -0.741906      1.281582      0.751964
  H       1.955133     -1.661015     -0.041801
  H      -2.018972     -2.200465     -1.364388
  H       0.347472     -3.027656     -1.170202
18
Coordinates from ORCA-job formamide_uracil_opt_freq E -584.445927593398
  O       2.182759      5.524006      2.099875
  N       1.527480      3.345641      2.206319
  C       2.018046      4.400464      1.585936
  H       1.602260      2.459631      1.783534
  H       1.385929      3.430154      3.189902
  H       2.264842      4.155322      0.506025
  O       1.634201      0.601703      1.034865
  O      -2.728083      0.167840     -0.342016
  N      -0.545806      0.343595      0.301253
  N       1.002533     -1.312763     -0.121098
  C       0.757566     -0.071544      0.444522
  C      -1.623741     -0.342128     -0.313255
  C       0.031871     -2.065235     -0.746006
  C      -1.242723     -1.632633     -0.855700
  H      -0.766573      1.252713      0.711278
  H       1.952770     -1.640101     -0.026228
  H      -2.010385     -2.212953     -1.334911
  H       0.374402     -3.015212     -1.124925
18
Coordinates from ORCA-job formamide_uracil_opt_freq E -584.449402277605
  O       2.145769      5.524166      2.068423
  N       1.526373      3.330135      2.224348
  C       2.018010      4.428097      1.556027
  H       1.596228      2.387128      1.803390
  H       1.379494      3.413233      3.216783
  H       2.269242      4.221308      0.455477
  O       1.628429      0.556525      1.035026
  O      -2.722802      0.185410     -0.343513
  N      -0.537969      0.350982      0.321726
  N       1.003474     -1.318770     -0.110487
  C       0.757622     -0.083301      0.461145
  C      -1.611170     -0.320991     -0.302946
  C       0.034777     -2.057433     -0.743648
  C      -1.236763     -1.614814     -0.856604
  H      -0.749593      1.247458      0.721649
  H       1.952239     -1.656375     -0.020712
  H      -1.999860     -2.194574     -1.350523
  H       0.363848     -3.009685     -1.136188
18
Coordinates from ORCA-job formamide_uracil_opt_freq E -584.450801393681
  O       2.143061      5.543406      2.072279
  N       1.540420      3.330056      2.204006
  C       2.018229      4.437428      1.562565
  H       1.616072      2.407539      1.780011
  H       1.389514      3.401090      3.222312
  H       2.268506      4.240781      0.513317
  O       1.643506      0.554114      1.022278
  O      -2.725835      0.182285     -0.348478
  N      -0.542560      0.356479      0.315330
  N       1.000580     -1.320647     -0.106994
  C       0.760544     -0.077067      0.457188
  C      -1.616801     -0.327743     -0.309631
  C       0.028621     -2.070355     -0.741120
  C      -1.243863     -1.630023     -0.860482
  H      -0.762449      1.265629      0.716392
  H       1.949764     -1.659969     -0.014853
  H      -2.009596     -2.216004     -1.355240
  H       0.359633     -3.028500     -1.129507
18
Coordinates from ORCA-job formamide_uracil_opt_freq E -584.450791992470
  O       2.156456      5.537527      2.020381
  N       1.533829      3.330536      2.218358
  C       2.019958      4.416598      1.564228
  H       1.601579      2.402056      1.818556
  H       1.376135      3.423479      3.197608
  H       2.272427      4.189658      0.513808
  O       1.636862      0.571124      1.044092
  O      -2.727540      0.179340     -0.335274
  N      -0.544561      0.354044      0.328315
  N       1.004452     -1.313782     -0.111852
  C       0.759122     -0.073468      0.465792
  C      -1.618662     -0.329739     -0.303275
  C       0.034718     -2.062619     -0.753235
  C      -1.240187     -1.625044     -0.866875
  H      -0.767630      1.261476      0.740673
  H       1.954053     -1.648815     -0.024804
  H      -2.005356     -2.207574     -1.365918
  H       0.371692     -3.016294     -1.151206
18
Coordinates from ORCA-job formamide_uracil_opt_freq E -584.451262019044
  O       2.112151      5.551041      2.072564
  N       1.539331      3.334185      2.213351
  C       2.015074      4.435381      1.574373
  H       1.626074      2.409288      1.795854
  H       1.363144      3.403934      3.205077
  H       2.295281      4.223219      0.518666
  O       1.655577      0.555640      1.009454
  O      -2.720705      0.187912     -0.341225
  N      -0.533753      0.358525      0.308951
  N       1.000747     -1.324755     -0.117086
  C       0.766124     -0.077630      0.445658
  C      -1.612878     -0.324156     -0.307067
  C       0.024687     -2.071983     -0.738471
  C      -1.246762     -1.627765     -0.851631
  H      -0.749405      1.265075      0.702113
  H       1.948838     -1.664734     -0.029805
  H      -2.015151     -2.212678     -1.336816
  H       0.348973     -3.031998     -1.124588
18
Coordinates from ORCA-job formamide_uracil_opt_freq E -584.451201768616
  O       2.119571      5.519585      2.019682
  N       1.529945      3.309618      2.213671
  C       2.000298      4.401403      1.542675
  H       1.612592      2.381629      1.818086
  H       1.372735      3.397412      3.214479
  H       2.255001      4.183068      0.491843
  O       1.646572      0.565231      1.034992
  O      -2.715401      0.199259     -0.338410
  N      -0.533772      0.361036      0.324973
  N       1.006932     -1.309879     -0.108272
  C       0.766625     -0.071651      0.461432
  C      -1.608662     -0.314102     -0.304901
  C       0.034902     -2.051695     -0.743005
  C      -1.236528     -1.608874     -0.858453
  H      -0.751839      1.267101      0.733114
  H       1.954918     -1.649564     -0.018192
  H      -2.002748     -2.186541     -1.351436
  H       0.366207     -3.004538     -1.132908
18
Coordinates from ORCA-job formamide_uracil_opt_freq E -584.451211650335
  O       2.104250      5.543440      2.035208
  N       1.537708      3.324711      2.210647
  C       2.013707      4.421171      1.561691
  H       1.638526      2.395099      1.807878
  H       1.354172      3.409841      3.203312
  H       2.303067      4.202816      0.517954
  O       1.650948      0.561679      1.016924
  O      -2.723899      0.187771     -0.331624
  N      -0.538030      0.359506      0.325202
  N       1.003252     -1.316041     -0.106861
  C       0.764815     -0.072766      0.459103
  C      -1.615019     -0.322992     -0.299095
  C       0.028622     -2.064933     -0.745540
  C      -1.244748     -1.623822     -0.861653
  H      -0.757917      1.269062      0.732861
  H       1.953323     -1.654183     -0.020011
  H      -2.012423     -2.209116     -1.363524
  H       0.356993     -3.022744     -1.143097
18
Coordinates from ORCA-job formamide_uracil_opt_freq E -584.451191514944
  O       2.097817      5.546101      2.072798
  N       1.542086      3.326222      2.204741
  C       2.011081      4.431086      1.575640
  H       1.639653      2.395738      1.795450
  H       1.359433      3.400936      3.193468
  H       2.296095      4.226501      0.521025
  O       1.655629      0.561180      1.017382
  O      -2.718487      0.193236     -0.344557
  N      -0.534339      0.361574      0.313751
  N       1.000678     -1.323488     -0.117602
  C       0.766958     -0.074484      0.449531
  C      -1.612274     -0.320842     -0.305160
  C       0.024786     -2.071581     -0.738790
  C      -1.246022     -1.625636     -0.848457
  H      -0.749506      1.269121      0.698071
  H       1.947852     -1.664909     -0.031222
  H      -2.013910     -2.209502     -1.330366
  H       0.349819     -3.032751     -1.126331
18
Coordinates from ORCA-job formamide_uracil_opt_freq E -584.451317209112
  O       2.079657      5.545009      2.024479
  N       1.532139      3.321023      2.221794
  C       2.006074      4.414722      1.560256
  H       1.633844      2.392696      1.825228
  H       1.332386      3.404806      3.206976
  H       2.310822      4.183010      0.521366
  O       1.667882      0.556778      1.003822
  O      -2.715837      0.198255     -0.329600
  N      -0.525959      0.363729      0.314215
  N       1.005210     -1.318646     -0.121494
  C       0.774150     -0.073648      0.444277
  C      -1.607648     -0.315082     -0.302358
  C       0.026269     -2.061825     -0.740723
  C      -1.245049     -1.616183     -0.850684
  H      -0.741666      1.271425      0.719938
  H       1.953459     -1.659615     -0.037671
  H      -2.015698     -2.198251     -1.334102
  H       0.347312     -3.019704     -1.126346
18
Coordinates from ORCA-job formamide_uracil_opt_freq E -584.451333342394
  O       2.083162      5.528935      2.029540
  N       1.534076      3.309741      2.206627
  C       2.000904      4.406990      1.551584
  H       1.644735      2.380716      1.811125
  H       1.347428      3.397752      3.199991
  H       2.290537      4.189860      0.507126
  O       1.654489      0.566446      1.020457
  O      -2.714242      0.202132     -0.329642
  N      -0.531092      0.363045      0.327011
  N       1.005110     -1.313132     -0.105430
  C       0.769282     -0.071031      0.458937
  C      -1.608911     -0.313058     -0.296775
  C       0.029518     -2.057451     -0.741020
  C      -1.241724     -1.612562     -0.854839
  H      -0.745816      1.271161      0.726486
  H       1.953326     -1.653646     -0.019153
  H      -2.010624     -2.192834     -1.354340
  H       0.357191     -3.014564     -1.138314
18
Coordinates from ORCA-job formamide_uracil_opt_freq E -584.451350250199
  O       2.067084      5.549188      2.037383
  N       1.535841      3.322168      2.210939
  C       2.008442      4.423062      1.568246
  H       1.656160      2.389899      1.819760
  H       1.328726      3.408614      3.199398
  H       2.325657      4.203701      0.530667
  O       1.665879      0.557884      1.003162
  O      -2.716880      0.197359     -0.330884
  N      -0.528653      0.363152      0.315145
  N       1.002962     -1.321814     -0.120268
  C       0.772906     -0.074352      0.445897
  C      -1.609683     -0.317227     -0.300408
  C       0.023263     -2.068148     -0.743251
  C      -1.247851     -1.621306     -0.850726
  H      -0.743473      1.273225      0.713425
  H       1.951111     -1.663815     -0.036057
  H      -2.018153     -2.204344     -1.331598
  H       0.344007     -3.028746     -1.131457
18
Coordinates from ORCA-job formamide_uracil_opt_freq E -584.451362867794
  O       2.065094      5.543694      2.034251
  N       1.535640      3.317433      2.215319
  C       2.004787      4.414817      1.562949
  H       1.644962      2.388232      1.816010
  H       1.320951      3.401726      3.195514
  H       2.320123      4.187830      0.525349
  O       1.670431      0.561209      1.001172
  O      -2.713793      0.202049     -0.328518
  N      -0.524663      0.364905      0.318365
  N       1.004737     -1.319626     -0.119281
  C       0.775920     -0.072596      0.445242
  C      -1.607428     -0.313369     -0.298570
  C       0.024586     -2.063361     -0.738453
  C      -1.246263     -1.616061     -0.847012
  H      -0.737652      1.273311      0.715877
  H       1.952478     -1.661420     -0.038195
  H      -2.018360     -2.197562     -1.333541
  H       0.345795     -3.022714     -1.127107
18
Coordinates from ORCA-job formamide_uracil_opt_freq E -584.451406143078
  O       2.059445      5.540769      2.028247
  N       1.534248      3.313726      2.211991
  C       2.002588      4.412282      1.560203
  H       1.653415      2.383320      1.820572
  H       1.321653      3.402342      3.196981
  H       2.319575      4.187975      0.523195
  O       1.668149      0.561788      1.003419
  O      -2.713068      0.204018     -0.326368
  N      -0.525174      0.364860      0.319695
  N       1.004883     -1.318395     -0.116692
  C       0.775444     -0.072462      0.447177
  C      -1.607150     -0.312139     -0.296949
  C       0.024937     -2.062074     -0.740075
  C      -1.245770     -1.614517     -0.848822
  H      -0.737820      1.274152      0.718057
  H       1.952777     -1.660593     -0.034090
  H      -2.017424     -2.195276     -1.336409
  H       0.346637     -3.021276     -1.130760
18
Coordinates from ORCA-job formamide_uracil_opt_freq E -584.451411785953
  O       2.054064      5.542576      2.028953
  N       1.535386      3.314392      2.212122
  C       2.003180      4.413692      1.561779
  H       1.656005      2.383676      1.820285
  H       1.314808      3.403657      3.195172
  H       2.326287      4.189269      0.527431
  O       1.670676      0.561691      0.999712
  O      -2.712531      0.204619     -0.325638
  N      -0.524029      0.364831      0.319671
  N       1.004691     -1.319676     -0.117631
  C       0.776795     -0.072775      0.446093
  C      -1.606943     -0.312219     -0.296338
  C       0.023666     -2.063584     -0.740585
  C      -1.246852     -1.615260     -0.847946
  H      -0.735769      1.274789      0.717013
  H       1.952511     -1.662172     -0.036198
  H      -2.019174     -2.195650     -1.333384
  H       0.344577     -3.023356     -1.131141
18
Coordinates from ORCA-job formamide_uracil_opt_freq E -584.451431983034
  O       2.029446      5.546730      2.026942
  N       1.537436      3.312995      2.212360
  C       2.002340      4.414985      1.565703
  H       1.669210      2.381168      1.825288
  H       1.292149      3.405902      3.189357
  H       2.347941      4.189311      0.538806
  O       1.679563      0.561568      0.987097
  O      -2.710168      0.208975     -0.321310
  N      -0.519398      0.366064      0.318250
  N       1.004584     -1.322943     -0.121695
  C       0.781786     -0.073252      0.439864
  C      -1.605447     -0.310188     -0.293483
  C       0.020148     -2.066284     -0.739035
  C      -1.249696     -1.615254     -0.843159
  H      -0.727772      1.278262      0.712705
  H       1.952112     -1.666990     -0.043931
  H      -2.024781     -2.194963     -1.325886
  H       0.337893     -3.027585     -1.128500
18
Coordinates from ORCA-job formamide_uracil_opt_freq E -584.451445655728
  O       1.984487      5.548163      2.016736
  N       1.540639      3.305772      2.214523
  C       1.997227      4.410998      1.567590
  H       1.688483      2.373820      1.834796
  H       1.251901      3.404999      3.178643
  H       2.378743      4.181411      0.553628
  O       1.695038      0.563393      0.965802
  O      -2.703664      0.220578     -0.310390
  N      -0.509559      0.368790      0.317545
  N       1.005529     -1.326355     -0.124923
  C       0.791363     -0.073082      0.430135
  C      -1.601477     -0.303901     -0.287110
  C       0.014980     -2.067660     -0.737056
  C      -1.253466     -1.611600     -0.836752
  H      -0.710546      1.284416      0.706891
  H       1.952753     -1.672751     -0.052434
  H      -2.033143     -2.187820     -1.313096
  H       0.328059     -3.030672     -1.125155
18
Coordinates from ORCA-job formamide_uracil_opt_freq E -584.451456218832
  O       1.975916      5.548497      2.015309
  N       1.542688      3.304357      2.216239
  C       1.995765      4.410689      1.568010
  H       1.691309      2.373157      1.836729
  H       1.245852      3.404490      3.178063
  H       2.382133      4.181198      0.556448
  O       1.697857      0.563800      0.960939
  O      -2.702126      0.222948     -0.310649
  N      -0.507193      0.369119      0.316540
  N       1.005527     -1.327811     -0.125664
  C       0.793379     -0.073423      0.427734
  C      -1.600444     -0.302605     -0.286311
  C       0.013783     -2.068115     -0.734545
  C      -1.254090     -1.610716     -0.832989
  H      -0.706083      1.285978      0.704089
  H       1.952355     -1.674939     -0.055806
  H      -2.035185     -2.186443     -1.311078
  H       0.325904     -3.031682     -1.123685
18
Coordinates from ORCA-job formamide_uracil_opt_freq E -584.451462216819
  O       1.976188      5.547684      2.018048
  N       1.544144      3.303695      2.215749
  C       1.994832      4.410866      1.567353
  H       1.692470      2.372736      1.835777
  H       1.251890      3.403076      3.179039
  H       2.377470      4.183656      0.553429
  O       1.696073      0.563896      0.962930
  O      -2.702504      0.223105     -0.311551
  N      -0.507883      0.369384      0.316040
  N       1.005428     -1.327932     -0.124606
  C       0.792549     -0.073441      0.427958
  C      -1.600803     -0.302466     -0.287490
  C       0.014047     -2.068136     -0.734123
  C      -1.253923     -1.610878     -0.834486
  H      -0.706621      1.286598      0.703631
  H       1.952414     -1.674970     -0.053369
  H      -2.034618     -2.186986     -1.313340
  H       0.326192     -3.031387     -1.121617
