23
Coordinates from ORCA-job methylurea_uracil_opt_freq E -678.976284058304
  O       0.077964      4.035305      1.500097
  N       1.444605      2.184315      1.500097
  N       2.364804      4.288722      1.500097
  C       1.204249      3.542699      1.499697
  H       2.387983      1.811244      1.499797
  H       0.682178      1.514991      1.500097
  H       2.338481      5.302794      1.500197
  C       3.689816      3.652136      1.499952
  H       4.017426      3.494794      2.527578
  H       3.631850      2.692592      0.986127
  H       4.402666      4.296995      0.986043
  O       2.326400      0.965100      0.000100
  O      -2.297200      1.023200      0.000500
  N       0.018000      1.019900     -0.000200
  N       1.163700     -1.022100      0.000100
  C       1.252400      0.362900      0.000000
  C      -1.231500      0.414100     -0.000400
  C      -0.026800     -1.695500      0.000200
  C      -1.204900     -1.067600     -0.000200
  H       0.038200      2.035700     -0.000100
  H       2.018700     -1.570200      0.000400
  H      -2.144300     -1.606300     -0.000200
  H       0.046900     -2.776100      0.000400
23
Coordinates from ORCA-job methylurea_uracil_opt_freq E -679.004577348715
  O       0.129477      4.019873      1.557278
  N       1.469600      2.175785      1.508749
  N       2.403077      4.328434      1.555291
  C       1.264083      3.535638      1.543556
  H       2.383280      1.769187      1.480323
  H       0.692643      1.530166      1.477044
  H       2.291557      5.331274      1.585632
  C       3.788502      3.833445      1.528386
  H       4.153365      3.674361      2.548475
  H       3.847628      2.899133      0.975944
  H       4.423156      4.571071      1.033818
  O       2.307211      0.833444     -0.022348
  O      -2.303539      1.025999     -0.061719
  N       0.003190      0.938898     -0.037771
  N       1.096672     -1.119317     -0.005395
  C       1.219011      0.260405     -0.022182
  C      -1.272470      0.366444     -0.045661
  C      -0.115862     -1.772686     -0.008103
  C      -1.283549     -1.109539     -0.027906
  H       0.063378      1.956385     -0.044044
  H       1.943434     -1.673164      0.007426
  H      -2.237371     -1.619593     -0.031319
  H      -0.064851     -2.855959      0.004906
23
Coordinates from ORCA-job methylurea_uracil_opt_freq E -679.023038107689
  O       0.153826      4.069238      1.621590
  N       1.488027      2.226075      1.513581
  N       2.423236      4.358806      1.597724
  C       1.288419      3.576891      1.586586
  H       2.395782      1.805293      1.443615
  H       0.708094      1.588779      1.457944
  H       2.287091      5.356099      1.652453
  C       3.806256      3.881113      1.542219
  H       4.202581      3.699138      2.549668
  H       3.869709      2.957757      0.962702
  H       4.425023      4.635407      1.050451
  O       2.297902      0.770534     -0.055974
  O      -2.298214      1.021029     -0.103059
  N      -0.001143      0.890478     -0.068800
  N       1.072763     -1.169062     -0.008242
  C       1.206939      0.208750     -0.046034
  C      -1.292303      0.329609     -0.074074
  C      -0.147907     -1.817873     -0.003245
  C      -1.312751     -1.139810     -0.035693
  H       0.079539      1.906663     -0.084293
  H       1.922687     -1.715374      0.011557
  H      -2.272025     -1.638460     -0.034923
  H      -0.101908     -2.901392      0.024624
23
Coordinates from ORCA-job methylurea_uracil_opt_freq E -679.041392176566
  O       0.191491      4.108292      1.740023
  N       1.526297      2.274119      1.513871
  N       2.449891      4.408573      1.667257
  C       1.326598      3.618783      1.650572
  H       2.420962      1.836377      1.376385
  H       0.739189      1.649406      1.437716
  H       2.258890      5.392534      1.782735
  C       3.838150      3.987692      1.554402
  H       4.285520      3.754450      2.531156
  H       3.926455      3.107330      0.910899
  H       4.417829      4.790733      1.091012
  O       2.294942      0.644077     -0.095794
  O      -2.277254      1.029287     -0.187797
  N       0.004423      0.816085     -0.118858
  N       1.023303     -1.263532     -0.002458
  C       1.192425      0.111298     -0.075894
  C      -1.313333      0.287424     -0.125778
  C      -0.213218     -1.883387      0.008947
  C      -1.361338     -1.172440     -0.051390
  H       0.121559      1.826802     -0.155091
  H       1.871925     -1.811793      0.033765
  H      -2.333477     -1.646374     -0.048595
  H      -0.189608     -2.966046      0.063292
23
Coordinates from ORCA-job methylurea_uracil_opt_freq E -679.055244021282
  O       0.234891      4.172956      1.887759
  N       1.561264      2.347971      1.519467
  N       2.486066      4.477519      1.739890
  C       1.361381      3.688488      1.727249
  H       2.439805      1.900519      1.299628
  H       0.759065      1.742164      1.439727
  H       2.273047      5.447136      1.927219
  C       3.865285      4.072799      1.556154
  H       4.352568      3.765829      2.492150
  H       3.937607      3.245417      0.842574
  H       4.431949      4.907532      1.133591
  O       2.291549      0.521328     -0.128111
  O      -2.270695      1.004108     -0.292814
  N       0.002853      0.741383     -0.170173
  N       0.978191     -1.356904      0.007487
  C       1.175519      0.015481     -0.101647
  C      -1.331102      0.236599     -0.188344
  C      -0.267124     -1.947698      0.019921
  C      -1.399173     -1.216596     -0.073064
  H       0.138116      1.747557     -0.233329
  H       1.823829     -1.909403      0.063053
  H      -2.379052     -1.676018     -0.070769
  H      -0.264217     -3.028480      0.102761
23
Coordinates from ORCA-job methylurea_uracil_opt_freq E -679.063232691878
  O       0.272396      4.197982      2.046113
  N       1.596857      2.405110      1.537444
  N       2.510184      4.539261      1.796914
  C       1.390745      3.737501      1.806174
  H       2.454245      1.962000      1.237435
  H       0.783352      1.813571      1.478571
  H       2.289826      5.491663      2.050121
  C       3.881198      4.153468      1.536452
  H       4.403576      3.776681      2.427539
  H       3.929813      3.383884      0.758537
  H       4.434726      5.017869      1.158052
  O       2.296420      0.403212     -0.128122
  O      -2.249139      0.988154     -0.401666
  N       0.013892      0.677070     -0.208517
  N       0.937952     -1.439893      0.024684
  C       1.167226     -0.073727     -0.108943
  C      -1.331397      0.201510     -0.251988
  C      -0.319511     -1.999443      0.024481
  C      -1.433126     -1.246019     -0.104700
  H       0.165230      1.678946     -0.299002
  H       1.773490     -2.003908      0.103220
  H      -2.421392     -1.686694     -0.112268
  H      -0.344942     -3.078511      0.129848
23
Coordinates from ORCA-job methylurea_uracil_opt_freq E -679.068043586026
  O       0.314331      4.217478      2.199385
  N       1.629184      2.459390      1.566641
  N       2.532463      4.599034      1.837177
  C       1.422112      3.783028      1.885008
  H       2.463778      2.025669      1.194840
  H       0.803596      1.880544      1.543083
  H       2.323971      5.539382      2.140517
  C       3.891719      4.221852      1.506691
  H       4.436522      3.781241      2.354048
  H       3.908610      3.507827      0.676267
  H       4.440713      5.106619      1.172334
  O       2.298385      0.302925     -0.104510
  O      -2.228638      0.965263     -0.501857
  N       0.021810      0.620137     -0.233131
  N       0.902532     -1.510559      0.042163
  C       1.158882     -0.150779     -0.102503
  C      -1.326728      0.167691     -0.312505
  C      -0.364873     -2.046665      0.018187
  C      -1.462028     -1.276000     -0.146543
  H       0.181536      1.618151     -0.343310
  H       1.726307     -2.088128      0.143985
  H      -2.456671     -1.700796     -0.172272
  H      -0.415891     -3.123616      0.136685
23
Coordinates from ORCA-job methylurea_uracil_opt_freq E -679.070827031612
  O       0.360792      4.223626      2.350538
  N       1.660832      2.501611      1.606792
  N       2.546920      4.652160      1.858946
  C       1.454621      3.817644      1.958955
  H       2.471291      2.082628      1.172466
  H       0.832099      1.928364      1.633334
  H       2.355861      5.582282      2.200584
  C       3.894575      4.286558      1.466768
  H       4.455279      3.787136      2.270083
  H       3.883150      3.629858      0.589903
  H       4.440294      5.189321      1.179870
  O       2.299067      0.213072     -0.059071
  O      -2.200175      0.950128     -0.593988
  N       0.032249      0.569698     -0.247409
  N       0.867942     -1.573286      0.061019
  C       1.152268     -0.220396     -0.084494
  C      -1.316791      0.140426     -0.367099
  C      -0.408584     -2.088641      0.003881
  C      -1.487600     -1.299870     -0.196202
  H       0.203225      1.564269     -0.370893
  H       1.676762     -2.166388      0.187116
  H      -2.488323     -1.706839     -0.248086
  H      -0.484134     -3.163673      0.127368
23
Coordinates from ORCA-job methylurea_uracil_opt_freq E -679.072449206104
  O       0.411323      4.236631      2.489418
  N       1.687490      2.537541      1.660757
  N       2.556716      4.699913      1.863284
  C       1.486943      3.849937      2.030931
  H       2.475562      2.135273      1.174758
  H       0.862618      1.963654      1.742327
  H       2.388378      5.625966      2.226829
  C       3.891240      4.337181      1.420582
  H       4.458191      3.784029      2.182965
  H       3.852338      3.733875      0.506444
  H       4.442109      5.249412      1.178814
  O       2.295101      0.142164      0.003029
  O      -2.174683      0.936495     -0.670044
  N       0.039176      0.527614     -0.253680
  N       0.837430     -1.625173      0.076894
  C       1.144702     -0.277083     -0.058076
  C      -1.306972      0.115752     -0.418560
  C      -0.443972     -2.125326     -0.019886
  C      -1.506096     -1.322193     -0.251830
  H       0.220583      1.519780     -0.378672
  H       1.631669     -2.232451      0.226530
  H      -2.510673     -1.714181     -0.333560
  H      -0.537552     -3.199123      0.101127
23
Coordinates from ORCA-job methylurea_uracil_opt_freq E -679.073460129706
  O       0.468921      4.261375      2.622603
  N       1.708611      2.571110      1.724216
  N       2.563997      4.743268      1.853391
  C       1.517612      3.884444      2.096111
  H       2.474403      2.185376      1.193607
  H       0.897280      1.990300      1.865249
  H       2.421298      5.667907      2.230456
  C       3.884249      4.374872      1.369877
  H       4.447765      3.768591      2.093185
  H       3.820342      3.824300      0.423648
  H       4.449962      5.288492      1.173577
  O       2.283768      0.088802      0.076934
  O      -2.154129      0.920789     -0.739970
  N       0.040079      0.492114     -0.252110
  N       0.810477     -1.667393      0.092646
  C       1.133655     -0.321816     -0.024368
  C      -1.302184      0.092385     -0.458652
  C      -0.470995     -2.158465     -0.050465
  C      -1.518586     -1.345539     -0.312746
  H       0.231122      1.483270     -0.369402
  H       1.592084     -2.284799      0.264838
  H      -2.523288     -1.727270     -0.432228
  H      -0.574819     -3.232425      0.059982
23
Coordinates from ORCA-job methylurea_uracil_opt_freq E -679.074161352086
  O       0.530253      4.302059      2.746421
  N       1.724351      2.602091      1.802975
  N       2.567852      4.780640      1.831585
  C       1.547495      3.920368      2.163564
  H       2.467484      2.230550      1.232957
  H       0.934118      2.010525      2.003933
  H       2.450456      5.709356      2.207385
  C       3.872215      4.397401      1.314594
  H       4.426992      3.747705      2.005915
  H       3.784513      3.888190      0.346631
  H       4.458551      5.304231      1.151515
  O       2.266760      0.050371      0.163614
  O      -2.139905      0.907622     -0.790089
  N       0.038061      0.463254     -0.248650
  N       0.788798     -1.701393      0.102452
  C       1.120786     -0.355697      0.013466
  C      -1.296534      0.070246     -0.508415
  C      -0.488575     -2.187024     -0.090147
  C      -1.523692     -1.367436     -0.379132
  H       0.235796      1.455567     -0.341373
  H       1.559728     -2.325453      0.297333
  H      -2.526499     -1.741778     -0.533432
  H      -0.597382     -3.261708      0.007277
23
Coordinates from ORCA-job methylurea_uracil_opt_freq E -679.074633645001
  O       0.599257      4.360731      2.860741
  N       1.734409      2.635101      1.887201
  N       2.574085      4.812162      1.803614
  C       1.577154      3.961304      2.225080
  H       2.452811      2.270768      1.282598
  H       0.971492      2.032176      2.148995
  H       2.481437      5.747185      2.170941
  C       3.861197      4.407157      1.258879
  H       4.404744      3.723779      1.925934
  H       3.750509      3.927254      0.277802
  H       4.471395      5.301461      1.115680
  O       2.239211      0.028920      0.255117
  O      -2.134257      0.887511     -0.842462
  N       0.025459      0.440448     -0.234405
  N       0.770970     -1.726310      0.112257
  C       1.101113     -0.377932      0.056391
  C      -1.302299      0.048778     -0.532873
  C      -0.496065     -2.213460     -0.136214
  C      -1.523201     -1.392898     -0.449486
  H       0.224426      1.434747     -0.297191
  H       1.536004     -2.351379      0.326120
  H      -2.517633     -1.767300     -0.651109
  H      -0.600597     -3.290514     -0.063233
23
Coordinates from ORCA-job methylurea_uracil_opt_freq E -679.074913215270
  O       0.654444      4.419469      2.937181
  N       1.735867      2.662459      1.954371
  N       2.581544      4.831138      1.780376
  C       1.598428      3.996093      2.267762
  H       2.434050      2.294184      1.328539
  H       0.996915      2.052776      2.263286
  H       2.504741      5.772662      2.134978
  C       3.854921      4.405941      1.218620
  H       4.392254      3.708597      1.875985
  H       3.726772      3.934028      0.235534
  H       4.482030      5.288605      1.075294
  O       2.210947      0.022803      0.330621
  O      -2.140391      0.870338     -0.863723
  N       0.011200      0.425904     -0.224817
  N       0.761933     -1.740463      0.112937
  C       1.082608     -0.388273      0.088987
  C      -1.306935      0.030237     -0.563327
  C      -0.494154     -2.231997     -0.177318
  C      -1.518576     -1.413648     -0.505159
  H       0.204801      1.422959     -0.251984
  H       1.525578     -2.362054      0.341174
  H      -2.505383     -1.791271     -0.736339
  H      -0.591970     -3.310800     -0.122599
23
Coordinates from ORCA-job methylurea_uracil_opt_freq E -679.075107013788
  O       0.703559      4.486245      2.991371
  N       1.731730      2.689305      2.019496
  N       2.594066      4.842386      1.759308
  C       1.619415      4.030455      2.305751
  H       2.411352      2.304484      1.382676
  H       1.013009      2.079074      2.371715
  H       2.528303      5.793034      2.091933
  C       3.852540      4.394408      1.182607
  H       4.393627      3.702987      1.842991
  H       3.703605      3.906723      0.210288
  H       4.488520      5.266231      1.013346
  O       2.177045      0.029705      0.405904
  O      -2.155927      0.849957     -0.875027
  N      -0.010004      0.417563     -0.207607
  N       0.758494     -1.746429      0.109180
  C       1.060927     -0.389301      0.122442
  C      -1.317288      0.013470     -0.580159
  C      -0.483150     -2.246294     -0.222872
  C      -1.509625     -1.433964     -0.559197
  H       0.170850      1.417330     -0.195860
  H       1.525051     -2.360837      0.347108
  H      -2.485402     -1.819733     -0.821839
  H      -0.569073     -3.327111     -0.193174
23
Coordinates from ORCA-job methylurea_uracil_opt_freq E -679.075419333815
  O       0.757629      4.579100      3.034018
  N       1.715066      2.727796      2.087772
  N       2.617975      4.850024      1.737878
  C       1.639208      4.077590      2.336823
  H       2.375501      2.307541      1.452165
  H       1.015756      2.126969      2.491439
  H       2.570551      5.811485      2.042265
  C       3.853651      4.362415      1.146436
  H       4.402800      3.689444      1.819188
  H       3.672504      3.839344      0.198495
  H       4.498599      5.216175      0.926215
  O       2.128351      0.057597      0.493821
  O      -2.190926      0.816113     -0.871036
  N      -0.045999      0.413937     -0.179344
  N       0.764558     -1.741487      0.097441
  C       1.031368     -0.377926      0.161714
  C      -1.336437     -0.008607     -0.589396
  C      -0.455298     -2.258421     -0.282092
  C      -1.492393     -1.460346     -0.619977
  H       0.108029      1.416466     -0.118062
  H       1.540627     -2.341620      0.341207
  H      -2.451110     -1.862660     -0.918236
  H      -0.518390     -3.341243     -0.288355
23
Coordinates from ORCA-job methylurea_uracil_opt_freq E -679.075814373106
  O       0.815904      4.694877      3.063560
  N       1.684784      2.774363      2.168414
  N       2.649733      4.846891      1.713025
  C       1.661876      4.132760      2.369093
  H       2.323946      2.295943      1.551139
  H       1.001317      2.200867      2.634464
  H       2.630819      5.822152      1.973871
  C       3.847718      4.298750      1.100842
  H       4.420862      3.666525      1.793328
  H       3.613009      3.712211      0.203429
  H       4.492572      5.123209      0.788176
  O       2.064913      0.106721      0.607000
  O      -2.237883      0.775144     -0.851469
  N      -0.093438      0.418836     -0.131362
  N       0.784171     -1.719312      0.079340
  C       0.996789     -0.351529      0.214690
  C      -1.358304     -0.029349     -0.588552
  C      -0.404610     -2.259182     -0.359403
  C      -1.459879     -1.482966     -0.692110
  H       0.018991      1.421479     -0.009147
  H       1.574692     -2.299519      0.325030
  H      -2.393673     -1.907218     -1.035475
  H      -0.432687     -3.341966     -0.417503
23
Coordinates from ORCA-job methylurea_uracil_opt_freq E -679.076306172040
  O       0.879913      4.816185      3.084949
  N       1.640708      2.824382      2.250096
  N       2.682928      4.829751      1.685797
  C       1.682405      4.188626      2.394166
  H       2.255568      2.273353      1.668007
  H       0.968798      2.300406      2.786674
  H       2.711575      5.816211      1.898928
  C       3.823301      4.200670      1.044993
  H       4.431707      3.613869      1.747991
  H       3.512054      3.546717      0.220762
  H       4.459485      4.978990      0.617467
  O       1.995798      0.170375      0.737567
  O      -2.283994      0.734212     -0.821995
  N      -0.143765      0.432262     -0.064917
  N       0.818988     -1.676850      0.061475
  C       0.964693     -0.311961      0.280032
  C      -1.374421     -0.043304     -0.578666
  C      -0.331440     -2.240689     -0.444069
  C      -1.409358     -1.492051     -0.767706
  H      -0.082672      1.429940      0.119517
  H       1.625777     -2.234945      0.305684
  H      -2.312089     -1.937825     -1.162684
  H      -0.314337     -3.318639     -0.563691
23
Coordinates from ORCA-job methylurea_uracil_opt_freq E -679.076805776153
  O       0.948117      4.914458      3.109183
  N       1.594865      2.862270      2.333094
  N       2.702779      4.796358      1.654285
  C       1.703804      4.227943      2.419580
  H       2.181828      2.240883      1.793232
  H       0.932507      2.406756      2.940235
  H       2.788294      5.788597      1.817623
  C       3.770337      4.086071      0.974156
  H       4.426099      3.538467      1.666703
  H       3.371597      3.378694      0.236860
  H       4.379861      4.811506      0.430517
  O       1.936368      0.223327      0.881282
  O      -2.301711      0.715975     -0.803868
  N      -0.178906      0.451249      0.011787
  N       0.859577     -1.624914      0.056993
  C       0.944273     -0.272056      0.357475
  C      -1.370658     -0.039412     -0.569587
  C      -0.250571     -2.201813     -0.521301
  C      -1.344477     -1.475374     -0.842220
  H      -0.164455      1.439533      0.247424
  H       1.676130     -2.168286      0.301847
  H      -2.214965     -1.930793     -1.294205
  H      -0.189071     -3.269751     -0.700717
23
Coordinates from ORCA-job methylurea_uracil_opt_freq E -679.077295244756
  O       1.037373      4.997022      3.152955
  N       1.551352      2.894661      2.421623
  N       2.705425      4.753794      1.613517
  C       1.727902      4.257020      2.448258
  H       2.105690      2.216504      1.916436
  H       0.910048      2.517456      3.101244
  H       2.855462      5.744569      1.730505
  C       3.689356      3.967122      0.890017
  H       4.382606      3.431395      1.554850
  H       3.204736      3.237700      0.230139
  H       4.272495      4.640359      0.257307
  O       1.884346      0.255978      1.032094
  O      -2.290710      0.719432     -0.805412
  N      -0.198960      0.468270      0.087996
  N       0.898960     -1.575890      0.066873
  C       0.931664     -0.240912      0.441903
  C      -1.348846     -0.022610     -0.569995
  C      -0.169215     -2.153188     -0.588352
  C      -1.269851     -1.440559     -0.916930
  H      -0.222184      1.445112      0.367337
  H       1.717790     -2.113251      0.317271
  H      -2.108040     -1.892643     -1.429313
  H      -0.065777     -3.207653     -0.819947
23
Coordinates from ORCA-job methylurea_uracil_opt_freq E -679.077701158726
  O       1.161140      5.080720      3.207926
  N       1.503129      2.928221      2.528617
  N       2.690552      4.690475      1.557835
  C       1.759136      4.279643      2.484305
  H       2.017829      2.199621      2.052754
  H       0.900591      2.640967      3.284374
  H       2.914581      5.672111      1.618651
  C       3.565500      3.820400      0.788103
  H       4.287167      3.275202      1.413469
  H       2.985788      3.091714      0.210108
  H       4.122069      4.433747      0.075466
  O       1.835951      0.279680      1.198590
  O      -2.253519      0.745933     -0.819711
  N      -0.206144      0.490804      0.168628
  N       0.946406     -1.519580      0.087665
  C       0.926480     -0.208425      0.537218
  C      -1.307088      0.012210     -0.576779
  C      -0.072858     -2.085723     -0.652197
  C      -1.174033     -1.381858     -0.996085
  H      -0.264245      1.452457      0.493143
  H       1.763264     -2.055722      0.347014
  H      -1.975373     -1.820440     -1.575048
  H       0.075296     -3.122470     -0.933668
23
Coordinates from ORCA-job methylurea_uracil_opt_freq E -679.077986415947
  O       1.243635      5.122577      3.238366
  N       1.473086      2.943946      2.593085
  N       2.664834      4.645389      1.516652
  C       1.773155      4.285931      2.502024
  H       1.967556      2.195036      2.127888
  H       0.903709      2.706235      3.391041
  H       2.928718      5.618538      1.545679
  C       3.478387      3.732667      0.727802
  H       4.203109      3.170953      1.334512
  H       2.852438      3.016258      0.183991
  H       4.030189      4.314259     -0.014570
  O       1.823855      0.279026      1.288564
  O      -2.214510      0.779056     -0.831870
  N      -0.197859      0.506996      0.213232
  N       0.974505     -1.489459      0.103276
  C       0.932585     -0.192056      0.590529
  C      -1.272043      0.043323     -0.582234
  C      -0.018810     -2.041832     -0.681490
  C      -1.115482     -1.337036     -1.035583
  H      -0.269743      1.459340      0.558050
  H       1.787462     -2.029075      0.367403
  H      -1.897881     -1.761636     -1.649965
  H       0.150726     -3.068750     -0.986005
23
Coordinates from ORCA-job methylurea_uracil_opt_freq E -679.078200154175
  O       1.396416      5.203437      3.260392
  N       1.414264      2.990890      2.682431
  N       2.641405      4.565678      1.458193
  C       1.805213      4.304275      2.522378
  H       1.862737      2.200356      2.233381
  H       0.906813      2.828431      3.540905
  H       2.972688      5.518542      1.439532
  C       3.342152      3.577581      0.653080
  H       4.062939      2.984603      1.234379
  H       2.639153      2.889703      0.170634
  H       3.887721      4.096742     -0.138474
  O       1.792220      0.305281      1.408151
  O      -2.185927      0.802305     -0.822300
  N      -0.198059      0.528693      0.277604
  N       1.031860     -1.427734      0.110625
  C       0.936659     -0.156215      0.657285
  C      -1.233252      0.078855     -0.578981
  C       0.081204     -1.965661     -0.734068
  C      -1.022231     -1.272985     -1.091783
  H      -0.302411      1.461505      0.673048
  H       1.850457     -1.957549      0.377035
  H      -1.772409     -1.685355     -1.753047
  H       0.292008     -2.971691     -1.080021
23
Coordinates from ORCA-job methylurea_uracil_opt_freq E -679.078352974189
  O       1.362636      5.195405      3.232026
  N       1.394373      2.972979      2.680479
  N       2.609451      4.546181      1.437600
  C       1.776111      4.289144      2.507564
  H       1.861627      2.192337      2.235818
  H       0.884062      2.802227      3.532342
  H       2.925601      5.504610      1.419005
  C       3.336851      3.564185      0.651129
  H       4.048438      2.978098      1.250517
  H       2.653488      2.868567      0.152106
  H       3.898868      4.085843     -0.127054
  O       1.849244      0.278729      1.394321
  O      -2.155547      0.843144     -0.802722
  N      -0.168072      0.545205      0.292601
  N       1.038513     -1.425662      0.109290
  C       0.966763     -0.151186      0.657585
  C      -1.213285      0.106371     -0.562640
  C       0.074934     -1.951954     -0.725472
  C      -1.023205     -1.248236     -1.073220
  H      -0.263704      1.477714      0.673968
  H       1.856260     -1.961853      0.365440
  H      -1.783795     -1.651528     -1.728215
  H       0.272012     -2.960633     -1.072088
23
Coordinates from ORCA-job methylurea_uracil_opt_freq E -679.078511166118
  O       1.347673      5.206028      3.212590
  N       1.379644      2.984240      2.658896
  N       2.625942      4.552307      1.442360
  C       1.769383      4.298390      2.494632
  H       1.846725      2.198271      2.220091
  H       0.865303      2.809956      3.508620
  H       2.941775      5.511016      1.432598
  C       3.366013      3.567924      0.671876
  H       4.069507      2.984762      1.283679
  H       2.691016      2.869343      0.165275
  H       3.938433      4.087601     -0.100093
  O       1.851102      0.291004      1.369225
  O      -2.186940      0.817155     -0.766046
  N      -0.177881      0.536845      0.293944
  N       1.043498     -1.422995      0.088817
  C       0.966129     -0.150369      0.640841
  C      -1.232504      0.089939     -0.544254
  C       0.073252     -1.955671     -0.733550
  C      -1.036996     -1.260872     -1.063435
  H      -0.279430      1.467044      0.686473
  H       1.871016     -1.949331      0.333810
  H      -1.802347     -1.671370     -1.708195
  H       0.271308     -2.961531     -1.087774
23
Coordinates from ORCA-job methylurea_uracil_opt_freq E -679.078723634025
  O       1.308669      5.227602      3.149006
  N       1.324260      3.002733      2.609800
  N       2.647147      4.540161      1.436801
  C       1.744690      4.308327      2.454446
  H       1.796314      2.201891      2.199727
  H       0.800339      2.841429      3.458172
  H       2.972632      5.495840      1.433843
  C       3.402053      3.536399      0.707555
  H       4.088349      2.963633      1.348028
  H       2.736409      2.829185      0.200869
  H       3.993605      4.038471     -0.061797
  O       1.880080      0.315904      1.329006
  O      -2.232966      0.785083     -0.661522
  N      -0.183371      0.531677      0.324697
  N       1.070952     -1.398302      0.043492
  C       0.983555     -0.137144      0.619848
  C      -1.255002      0.076025     -0.484781
  C       0.086780     -1.936731     -0.756998
  C      -1.048999     -1.260002     -1.037713
  H      -0.298032      1.452734      0.739687
  H       1.919965     -1.905725      0.252664
  H      -1.824478     -1.678065     -1.665072
  H       0.288671     -2.931435     -1.139377
23
Coordinates from ORCA-job methylurea_uracil_opt_freq E -679.078892784891
  O       1.227769      5.220543      3.081530
  N       1.285816      2.997432      2.541938
  N       2.656921      4.545433      1.438599
  C       1.706162      4.306126      2.408141
  H       1.784298      2.200617      2.159561
  H       0.739074      2.829329      3.374235
  H       2.972200      5.504424      1.452283
  C       3.458956      3.545904      0.754668
  H       4.123016      2.988703      1.431177
  H       2.826780      2.824691      0.225824
  H       4.076912      4.050779      0.008128
  O       1.928656      0.317419      1.263270
  O      -2.258015      0.773281     -0.567227
  N      -0.172274      0.526184      0.340264
  N       1.078542     -1.396706      0.004865
  C       1.007394     -0.137959      0.588331
  C      -1.270445      0.068068     -0.430175
  C       0.068961     -1.936614     -0.761965
  C      -1.079930     -1.263798     -0.997882
  H      -0.281676      1.445857      0.762278
  H       1.939447     -1.897247      0.179076
  H      -1.874827     -1.684230     -1.598617
  H       0.257884     -2.928549     -1.157926
23
Coordinates from ORCA-job methylurea_uracil_opt_freq E -679.079125040813
  O       1.148936      5.210381      2.999285
  N       1.219103      2.986700      2.467050
  N       2.651692      4.526703      1.426557
  C       1.656941      4.293887      2.350280
  H       1.750478      2.191126      2.133079
  H       0.653935      2.831958      3.289953
  H       2.972314      5.483646      1.452125
  C       3.483879      3.519848      0.788238
  H       4.120451      2.973113      1.498735
  H       2.874309      2.790632      0.245146
  H       4.129880      4.017645      0.060939
  O       1.997286      0.317338      1.215091
  O      -2.257082      0.786918     -0.448284
  N      -0.139728      0.532169      0.378524
  N       1.102400     -1.380518     -0.032085
  C       1.050820     -0.130640      0.571528
  C      -1.263516      0.082109     -0.358697
  C       0.067813     -1.912280     -0.771205
  C      -1.091028     -1.239548     -0.954591
  H      -0.238218      1.447474      0.812852
  H       1.972281     -1.878613      0.099200
  H      -1.905531     -1.653332     -1.533196
  H       0.244205     -2.897030     -1.190143
23
Coordinates from ORCA-job methylurea_uracil_opt_freq E -679.079429244430
  O       1.030319      5.160371      2.920060
  N       1.179817      2.942293      2.384474
  N       2.628375      4.523481      1.422907
  C       1.596815      4.262005      2.294169
  H       1.765739      2.168140      2.107732
  H       0.589721      2.778501      3.187090
  H       2.930339      5.485731      1.465296
  C       3.518888      3.538563      0.825584
  H       4.131528      3.007986      1.568444
  H       2.955967      2.795577      0.252735
  H       4.187786      4.055049      0.133027
  O       2.078336      0.287984      1.149497
  O      -2.224741      0.837834     -0.363215
  N      -0.084987      0.545814      0.388230
  N       1.103644     -1.392453     -0.053258
  C       1.099928     -0.139391      0.545204
  C      -1.242679      0.113728     -0.305870
  C       0.034064     -1.907650     -0.754888
  C      -1.116898     -1.213235     -0.900997
  H      -0.147372      1.467516      0.811744
  H       1.967226     -1.908437      0.046125
  H      -1.959210     -1.612522     -1.449259
  H       0.179018     -2.897197     -1.174452
23
Coordinates from ORCA-job methylurea_uracil_opt_freq E -679.079727181606
  O       0.951598      5.115186      2.873687
  N       1.151038      2.898800      2.340536
  N       2.593716      4.508340      1.412445
  C       1.549471      4.229257      2.260868
  H       1.785281      2.144781      2.119736
  H       0.552757      2.734191      3.136314
  H       2.885019      5.473745      1.457904
  C       3.515215      3.539739      0.831398
  H       4.118345      3.018708      1.588390
  H       2.978799      2.789592      0.243244
  H       4.192332      4.069725      0.157615
  O       2.138534      0.258253      1.128854
  O      -2.176123      0.901829     -0.323342
  N      -0.030038      0.566707      0.392773
  N       1.107765     -1.400482     -0.055118
  C       1.142019     -0.145573      0.539140
  C      -1.208859      0.157579     -0.279584
  C       0.015693     -1.894147     -0.738611
  C      -1.120879     -1.175079     -0.869610
  H      -0.053216      1.493598      0.808398
  H       1.957849     -1.940437      0.031965
  H      -1.981539     -1.556068     -1.402480
  H       0.136844     -2.888556     -1.154142
23
Coordinates from ORCA-job methylurea_uracil_opt_freq E -679.080002256397
  O       0.882809      5.059671      2.856765
  N       1.156071      2.844593      2.334500
  N       2.548079      4.496911      1.404618
  C       1.511521      4.191546      2.252361
  H       1.843519      2.119578      2.164840
  H       0.556840      2.669174      3.127906
  H       2.815070      5.469772      1.439009
  C       3.493440      3.555213      0.815695
  H       4.111386      3.048440      1.570233
  H       2.976629      2.794295      0.223918
  H       4.156505      4.105758      0.144717
  O       2.176338      0.214225      1.140963
  O      -2.106447      0.986674     -0.347946
  N       0.027781      0.590625      0.377130
  N       1.098847     -1.423081     -0.034141
  C       1.172208     -0.162496      0.545139
  C      -1.163601      0.213179     -0.290429
  C      -0.008749     -1.887610     -0.714267
  C      -1.118159     -1.131729     -0.859701
  H       0.054651      1.523928      0.783555
  H       1.923570     -1.998472      0.067310
  H      -1.991410     -1.488449     -1.389228
  H       0.084725     -2.892057     -1.112567
23
Coordinates from ORCA-job methylurea_uracil_opt_freq E -679.080124185003
  O       0.851165      5.041456      2.832980
  N       1.144859      2.823377      2.322319
  N       2.533124      4.481315      1.399948
  C       1.490134      4.174810      2.239203
  H       1.852221      2.106076      2.182771
  H       0.542712      2.650162      3.116659
  H       2.788858      5.457476      1.428397
  C       3.479874      3.543702      0.809550
  H       4.110261      3.047085      1.560685
  H       2.964049      2.774124      0.228085
  H       4.131763      4.095039      0.128227
  O       2.197600      0.206389      1.147048
  O      -2.076344      1.022161     -0.339125
  N       0.055096      0.603770      0.384259
  N       1.104608     -1.422400     -0.031206
  C       1.189587     -0.162674      0.548956
  C      -1.140337      0.240278     -0.282316
  C      -0.009257     -1.873832     -0.709163
  C      -1.110271     -1.105191     -0.852969
  H       0.096040      1.534760      0.803133
  H       1.922562     -2.006877      0.072687
  H      -1.988103     -1.452237     -1.381297
  H       0.071421     -2.879080     -1.108452
23
Coordinates from ORCA-job methylurea_uracil_opt_freq E -679.080190777313
  O       0.877884      5.038818      2.875167
  N       1.176079      2.813956      2.382113
  N       2.515710      4.470885      1.395657
  C       1.501728      4.168622      2.272319
  H       1.891092      2.103442      2.229675
  H       0.591607      2.643126      3.193415
  H       2.754558      5.451786      1.399798
  C       3.433015      3.533959      0.765379
  H       4.107272      3.046078      1.483769
  H       2.891591      2.755846      0.218740
  H       4.044331      4.082129      0.044735
  O       2.168678      0.187343      1.217623
  O      -2.033529      1.060554     -0.420887
  N       0.064044      0.612443      0.381950
  N       1.098177     -1.432131      0.002593
  C       1.177908     -0.172648      0.583622
  C      -1.111160      0.265927     -0.326227
  C       0.000515     -1.867874     -0.710040
  C      -1.082614     -1.081880     -0.893209
  H       0.102869      1.539094      0.817224
  H       1.902557     -2.027782      0.142511
  H      -1.947140     -1.416774     -1.450378
  H       0.076449     -2.875233     -1.105171
23
Coordinates from ORCA-job methylurea_uracil_opt_freq E -679.080239891960
  O       0.851762      5.028607      2.845056
  N       1.162070      2.804524      2.361200
  N       2.513943      4.463852      1.391860
  C       1.487930      4.159403      2.252826
  H       1.878023      2.094006      2.223199
  H       0.572224      2.639107      3.168965
  H       2.745922      5.446353      1.397367
  C       3.440811      3.529099      0.772776
  H       4.114783      3.049752      1.497250
  H       2.907040      2.743719      0.229252
  H       4.051571      4.076649      0.051084
  O       2.186673      0.184266      1.208010
  O      -2.027133      1.070617     -0.390864
  N       0.074281      0.615009      0.395822
  N       1.103087     -1.427874     -0.003525
  C       1.189439     -0.171393      0.582514
  C      -1.105765      0.273310     -0.306565
  C      -0.000031     -1.859419     -0.710364
  C      -1.083920     -1.070949     -0.881187
  H       0.111718      1.540131      0.835299
  H       1.910095     -2.022159      0.126618
  H      -1.952514     -1.402400     -1.433929
  H       0.069611     -2.864524     -1.112284
23
Coordinates from ORCA-job methylurea_uracil_opt_freq E -679.080257135608
  O       0.846067      5.023951      2.842425
  N       1.163708      2.800111      2.365461
  N       2.508100      4.461992      1.387885
  C       1.484950      4.155679      2.251229
  H       1.881135      2.092634      2.227300
  H       0.577124      2.637239      3.175055
  H       2.735335      5.445663      1.388981
  C       3.436470      3.528596      0.768483
  H       4.112385      3.052279      1.492993
  H       2.903654      2.740851      0.227584
  H       4.044835      4.076046      0.044759
  O       2.189466      0.174640      1.216951
  O      -2.016594      1.081066     -0.392750
  N       0.079973      0.615391      0.400203
  N       1.101820     -1.430465      0.000151
  C       1.192027     -0.175525      0.588941
  C      -1.098917      0.279446     -0.306803
  C      -0.000511     -1.856721     -0.711097
  C      -1.080844     -1.063742     -0.883639
  H       0.117384      1.539821      0.839995
  H       1.906986     -2.027230      0.130946
  H      -1.948945     -1.390794     -1.439818
  H       0.066015     -2.861239     -1.114855
23
Coordinates from ORCA-job methylurea_uracil_opt_freq E -679.080266533721
  O       0.837996      5.018614      2.838939
  N       1.169805      2.794994      2.372471
  N       2.501670      4.461501      1.384403
  C       1.482055      4.152113      2.250422
  H       1.890860      2.092225      2.233287
  H       0.587092      2.632614      3.184294
  H       2.720030      5.447138      1.377788
  C       3.431792      3.530640      0.763732
  H       4.112046      3.059494      1.487441
  H       2.900208      2.738961      0.227374
  H       4.035263      4.078169      0.036061
  O       2.189783      0.161306      1.229494
  O      -2.003736      1.093582     -0.398365
  N       0.086310      0.615046      0.403618
  N       1.098415     -1.435928      0.005291
  C       1.193104     -0.182608      0.596770
  C      -1.090803      0.286647     -0.309461
  C      -0.002479     -1.854898     -0.712196
  C      -1.077534     -1.055548     -0.888586
  H       0.124140      1.537963      0.846286
  H       1.900592     -2.036252      0.138631
  H      -1.944556     -1.377112     -1.449645
  H       0.059566     -2.858974     -1.117671
23
Coordinates from ORCA-job methylurea_uracil_opt_freq E -679.080272157652
  O       0.834606      5.017820      2.835868
  N       1.172060      2.793167      2.378414
  N       2.497504      4.459343      1.381055
  C       1.480173      4.150791      2.249771
  H       1.895824      2.092997      2.239927
  H       0.593216      2.632522      3.193422
  H       2.711510      5.445817      1.367259
  C       3.426302      3.528077      0.758968
  H       4.109319      3.059484      1.481705
  H       2.893540      2.734669      0.226252
  H       4.026880      4.074255      0.027951
  O       2.188551      0.152875      1.241757
  O      -1.996338      1.100963     -0.399206
  N       0.089942      0.615054      0.408065
  N       1.097912     -1.437743      0.008184
  C       1.193633     -0.186494      0.603843
  C      -1.085564      0.291641     -0.309849
  C      -0.001095     -1.851465     -0.715038
  C      -1.073335     -1.048742     -0.893215
  H       0.127817      1.535830      0.854698
  H       1.898382     -2.040127      0.142548
  H      -1.938908     -1.366588     -1.458620
  H       0.059689     -2.854457     -1.123381
23
Coordinates from ORCA-job methylurea_uracil_opt_freq E -679.080277822980
  O       0.827726      5.018230      2.827326
  N       1.175253      2.792386      2.382535
  N       2.495382      4.458415      1.378569
  C       1.477752      4.150807      2.246826
  H       1.902661      2.095128      2.246404
  H       0.599224      2.632359      3.199693
  H       2.703386      5.445932      1.355097
  C       3.423858      3.526798      0.756490
  H       4.108543      3.060909      1.479346
  H       2.890856      2.731777      0.226275
  H       4.022634      4.071851      0.023201
  O       2.185976      0.142705      1.254723
  O      -1.992234      1.105581     -0.394902
  N       0.091888      0.613346      0.414181
  N       1.097009     -1.440072      0.009386
  C       1.193004     -0.191730      0.611147
  C      -1.082574      0.294851     -0.307698
  C      -0.000116     -1.848070     -0.719764
  C      -1.070323     -1.042627     -0.897796
  H       0.129667      1.531317      0.866440
  H       1.896311     -2.044175      0.142993
  H      -1.934445     -1.356771     -1.467482
  H       0.060183     -2.849258     -1.132609
23
Coordinates from ORCA-job methylurea_uracil_opt_freq E -679.080265331950
  O       0.825526      5.021075      2.820877
  N       1.175214      2.793299      2.386059
  N       2.494751      4.455662      1.376216
  C       1.476484      4.151598      2.244708
  H       1.904263      2.096690      2.253585
  H       0.601059      2.635524      3.205198
  H       2.700702      5.443325      1.344920
  C       3.420058      3.521872      0.752791
  H       4.105693      3.055691      1.474535
  H       2.884656      2.727350      0.224111
  H       4.018132      4.065446      0.017822
  O       2.182913      0.136678      1.267542
  O      -1.990927      1.107376     -0.388907
  N       0.091909      0.612176      0.421848
  N       1.098536     -1.439121      0.009680
  C       1.192314     -0.193904      0.618432
  C      -1.080978      0.296830     -0.304307
  C       0.003691     -1.843318     -0.725045
  C      -1.066261     -1.037318     -0.901853
  H       0.129103      1.527802      0.878709
  H       1.897494     -2.043901      0.142001
  H      -1.928641     -1.348827     -1.475613
  H       0.065931     -2.842317     -1.142929
23
Coordinates from ORCA-job methylurea_uracil_opt_freq E -679.080280132580
  O       0.825148      5.023889      2.817210
  N       1.174936      2.795499      2.384666
  N       2.497705      4.456145      1.377261
  C       1.476888      4.153626      2.243259
  H       1.903601      2.097991      2.254461
  H       0.598836      2.637500      3.202334
  H       2.704120      5.443635      1.344221
  C       3.421710      3.521310      0.753606
  H       4.105229      3.052130      1.475379
  H       2.885513      2.729064      0.222267
  H       4.022215      4.065246      0.020863
  O       2.181088      0.136237      1.269526
  O      -1.995015      1.103390     -0.383808
  N       0.089010      0.610228      0.425271
  N       1.099417     -1.438087      0.007687
  C       1.190991     -0.194079      0.619497
  C      -1.083590      0.294320     -0.301323
  C       0.004955     -1.842717     -0.727458
  C      -1.066647     -1.038429     -0.901896
  H       0.125761      1.525774      0.882574
  H       1.899180     -2.042158      0.138255
  H      -1.928758     -1.350156     -1.475940
  H       0.069327     -2.840671     -1.147533
23
Coordinates from ORCA-job methylurea_uracil_opt_freq E -679.080281369589
  O       0.827957      5.027497      2.815662
  N       1.173756      2.797322      2.387942
  N       2.498431      4.453136      1.375935
  C       1.477627      4.154720      2.243351
  H       1.901568      2.098371      2.261147
  H       0.597256      2.642248      3.205954
  H       2.705766      5.440253      1.338509
  C       3.416503      3.515363      0.748301
  H       4.099888      3.041589      1.467169
  H       2.875791      2.726425      0.216541
  H       4.017679      4.058418      0.015426
  O       2.178024      0.133667      1.280925
  O      -1.994105      1.103901     -0.380798
  N       0.087496      0.609024      0.433509
  N       1.102129     -1.435477      0.008117
  C       1.190124     -0.194311      0.626449
  C      -1.082265      0.295246     -0.298708
  C       0.010086     -1.838339     -0.731705
  C      -1.062177     -1.034728     -0.905188
  H       0.123359      1.523851      0.892539
  H       1.901771     -2.039719      0.138489
  H      -1.922441     -1.344523     -1.483021
  H       0.077399     -2.834246     -1.156167
23
Coordinates from ORCA-job methylurea_uracil_opt_freq E -679.080278140457
  O       0.829609      5.028160      2.816843
  N       1.174138      2.797701      2.389693
  N       2.498345      4.452580      1.375555
  C       1.478290      4.154896      2.244118
  H       1.901445      2.098312      2.263245
  H       0.597252      2.643406      3.207501
  H       2.705753      5.439645      1.337166
  C       3.413967      3.513964      0.745703
  H       4.096833      3.037522      1.463279
  H       2.871279      2.726902      0.213154
  H       4.015837      4.056960      0.013373
  O       2.177051      0.132319      1.285092
  O      -1.992392      1.105086     -0.381867
  N       0.087283      0.608451      0.436195
  N       1.102692     -1.435226      0.008978
  C       1.189868     -0.194915      0.629171
  C      -1.081011      0.295942     -0.298727
  C       0.011576     -1.837294     -0.732621
  C      -1.060431     -1.033409     -0.906532
  H       0.122942      1.523428      0.895102
  H       1.901924     -2.039844      0.140181
  H      -1.919965     -1.342239     -1.485964
  H       0.079335     -2.832661     -1.158260
