23
Coordinates from ORCA-job methylurea_uracil_opt_freq E -679.080278140457
  O           0.82960882082436      5.02815957227430      2.81684283732188
  N           1.17413825356446      2.79770064890073      2.38969314796821
  N           2.49834549548487      4.45257971608854      1.37555519840335
  C           1.47829029753583      4.15489600357786      2.24411801429462
  H           1.90144489296763      2.09831240777140      2.26324488035329
  H           0.59725158540039      2.64340597134043      3.20750136816819
  H           2.70575342414943      5.43964474940569      1.33716585616650
  C           3.41396723751582      3.51396412592915      0.74570346253017
  H           4.09683341770212      3.03752229123737      1.46327911632467
  H           2.87127925466078      2.72690230286495      0.21315431209128
  H           4.01583735795627      4.05695996754272      0.01337310598811
  O           2.17705096486257      0.13231901953806      1.28509179277973
  O          -1.99239171705848      1.10508629153170     -0.38186666310678
  N           0.08728252097081      0.60845142642406      0.43619475828242
  N           1.10269161153982     -1.43522612377073      0.00897783076290
  C           1.18986836517002     -0.19491481684597      0.62917101134923
  C          -1.08101121853385      0.29594171912928     -0.29872714726014
  C           0.01157600582009     -1.83729363025891     -0.73262053966091
  C          -1.06043128130383     -1.03340930211466     -0.90653226024691
  H           0.12294242712037      1.52342849072110      0.89510169968272
  H           1.90192435955511     -2.03984435175243      0.14018145020021
  H          -1.91996536425443     -1.34223866072878     -1.48596418978632
  H           0.07933528834981     -2.83266081880594     -1.15826004260643
