30
Coordinates from ORCA-job phenylurea_uracil_opt_freq E -870.176808461126
  N       2.329856      4.315981      1.494537
  C       1.237511      3.526875      1.517724
  O       0.116262      4.025325      1.493193
  N       1.407993      2.182860      1.494535
  C       2.532556      1.366416      1.714749
  C       2.419325      0.018539      1.349822
  C       3.485522     -0.864905      1.537184
  C       4.670959     -0.412762      2.109434
  C       4.783938      0.918266      2.503170
  C       3.717350      1.803044      2.311926
  H       2.104667      5.295009      1.371682
  H       3.088630      3.988345      0.913242
  H       0.533604      1.706421      1.309844
  H       1.504705     -0.358917      0.898997
  H       3.387940     -1.905378      1.238056
  H       5.500242     -1.098794      2.261398
  H       5.698417      1.268304      2.975832
  H       3.827922      2.814736      2.688077
  O       2.326400      0.965100      0.000100
  O      -2.297200      1.023200      0.000500
  N       0.018000      1.019900     -0.000200
  N       1.163700     -1.022100      0.000100
  C       1.252400      0.362900      0.000000
  C      -1.231500      0.414100     -0.000400
  C      -0.026800     -1.695500      0.000200
  C      -1.204900     -1.067600     -0.000200
  H       0.038200      2.035700     -0.000100
  H       2.018700     -1.570200      0.000400
  H      -2.144300     -1.606300     -0.000200
  H       0.046900     -2.776100      0.000400
30
Coordinates from ORCA-job phenylurea_uracil_opt_freq E -870.257470811676
  N       2.318231      4.360114      1.507761
  C       1.229928      3.541344      1.528834
  O       0.087752      4.006345      1.497064
  N       1.424566      2.195122      1.512031
  C       2.558574      1.377260      1.729328
  C       2.446003      0.010267      1.367300
  C       3.513242     -0.869528      1.565262
  C       4.705834     -0.403075      2.131913
  C       4.815965      0.929881      2.513667
  C       3.741496      1.816988      2.320100
  H       2.071941      5.332979      1.379052
  H       3.093178      4.048978      0.936457
  H       0.562323      1.695521      1.323883
  H       1.510249     -0.376755      0.906577
  H       3.419731     -1.914758      1.275638
  H       5.538109     -1.084768      2.286897
  H       5.730592      1.285475      2.980537
  H       3.848351      2.831238      2.688759
  O       2.327946      0.947445     -0.043468
  O      -2.288778      1.053158      0.004794
  N       0.020906      1.004102     -0.019959
  N       1.129873     -1.071919     -0.036238
  C       1.246383      0.345492     -0.031456
  C      -1.245566      0.411397     -0.006808
  C      -0.076198     -1.726943     -0.026001
  C      -1.245952     -1.068377     -0.010125
  H       0.064803      2.020764     -0.021826
  H       1.975539     -1.630780     -0.047746
  H      -2.196556     -1.585117     -0.000304
  H      -0.021466     -2.809386     -0.027921
30
Coordinates from ORCA-job phenylurea_uracil_opt_freq E -870.322768386824
  N       2.315355      4.385675      1.522574
  C       1.226754      3.550169      1.538516
  O       0.072172      3.991471      1.499578
  N       1.437524      2.202764      1.526497
  C       2.577435      1.385988      1.741495
  C       2.467106      0.004946      1.383765
  C       3.533321     -0.869066      1.591445
  C       4.732314     -0.390562      2.151840
  C       4.839008      0.942906      2.521912
  C       3.756922      1.829441      2.326261
  H       2.056792      5.354527      1.388845
  H       3.102818      4.084520      0.961845
  H       0.586080      1.686384      1.335138
  H       1.520961     -0.387286      0.917084
  H       3.443592     -1.917883      1.311044
  H       5.567056     -1.068618      2.309324
  H       5.753223      1.305312      2.983399
  H       3.858261      2.846907      2.687173
  O       2.318610      0.932795     -0.094118
  O      -2.281528      1.076599      0.013427
  N       0.020611      0.988327     -0.039831
  N       1.102219     -1.110102     -0.070426
  C       1.238200      0.332410     -0.065828
  C      -1.260905      0.405683     -0.010233
  C      -0.115106     -1.750082     -0.048452
  C      -1.278501     -1.069185     -0.015883
  H       0.084378      2.005561     -0.043368
  H       1.942744     -1.673729     -0.092308
  H      -2.236821     -1.569840      0.005313
  H      -0.073597     -2.833567     -0.052025
30
Coordinates from ORCA-job phenylurea_uracil_opt_freq E -870.401303967730
  N       2.318092      4.404464      1.543479
  C       1.227927      3.556506      1.550240
  O       0.065041      3.976188      1.501413
  N       1.454005      2.207631      1.544756
  C       2.598759      1.394712      1.756982
  C       2.492494      0.002038      1.408922
  C       3.556194     -0.862504      1.630362
  C       4.762909     -0.372273      2.179421
  C       4.865584      0.961881      2.532832
  C       3.775193      1.844190      2.334578
  H       2.049420      5.369542      1.402446
  H       3.119884      4.111255      0.998409
  H       0.615248      1.675392      1.349357
  H       1.542636     -0.392412      0.936984
  H       3.470563     -1.915573      1.363323
  H       5.599754     -1.046976      2.339776
  H       5.779144      1.334756      2.986539
  H       3.869079      2.866190      2.684159
  O       2.293619      0.913099     -0.174213
  O      -2.280539      1.099310      0.029135
  N       0.011520      0.967138     -0.069854
  N       1.068157     -1.149074     -0.117969
  C       1.222225      0.317228     -0.119357
  C      -1.286680      0.395581     -0.013026
  C      -0.159144     -1.771142     -0.078106
  C      -1.315975     -1.070920     -0.020878
  H       0.096701      1.984287     -0.075051
  H       1.905418     -1.714765     -0.154749
  H      -2.280355     -1.557867      0.018107
  H      -0.129877     -2.855415     -0.084016
30
Coordinates from ORCA-job phenylurea_uracil_opt_freq E -870.490188063723
  N       2.335069      4.412041      1.566946
  C       1.240577      3.559864      1.559777
  O       0.075733      3.966803      1.497102
  N       1.476702      2.207787      1.566968
  C       2.622782      1.401472      1.778296
  C       2.520586      0.005815      1.448453
  C       3.581509     -0.847065      1.687689
  C       4.796863     -0.350421      2.218990
  C       4.896313      0.986571      2.550501
  C       3.799579      1.860078      2.348762
  H       2.062431      5.374174      1.413054
  H       3.153097      4.120334      1.045791
  H       0.648202      1.664812      1.367529
  H       1.582769     -0.382428      0.974119
  H       3.498257     -1.904914      1.438773
  H       5.633958     -1.023782      2.382617
  H       5.809187      1.373601      2.993546
  H       3.885608      2.887780      2.682737
  O       2.242900      0.888772     -0.291586
  O      -2.302095      1.107207      0.059631
  N      -0.021214      0.940839     -0.110646
  N       1.028183     -1.176068     -0.184381
  C       1.189355      0.301856     -0.199572
  C      -1.332400      0.376097     -0.012097
  C      -0.202935     -1.785122     -0.120029
  C      -1.357735     -1.079826     -0.025933
  H       0.077165      1.957582     -0.113474
  H       1.866700     -1.736858     -0.244719
  H      -2.321913     -1.564668      0.037777
  H      -0.178234     -2.869866     -0.132616
30
Coordinates from ORCA-job phenylurea_uracil_opt_freq E -870.556968659392
  N       2.359637      4.409714      1.576640
  C       1.262405      3.559743      1.559510
  O       0.101051      3.966025      1.481853
  N       1.501043      2.203825      1.586911
  C       2.645316      1.404470      1.802217
  C       2.544536      0.015956      1.490711
  C       3.605478     -0.830544      1.744682
  C       4.824795     -0.335887      2.261250
  C       4.922886      1.007023      2.575342
  C       3.826418      1.872172      2.369612
  H       2.088732      5.369294      1.403987
  H       3.190902      4.112010      1.081065
  H       0.674992      1.658706      1.385376
  H       1.629975     -0.358679      1.017445
  H       3.521409     -1.891586      1.510549
  H       5.659918     -1.010279      2.428225
  H       5.835110      1.405395      3.010090
  H       3.908065      2.903909      2.690843
  O       2.186456      0.869029     -0.403487
  O      -2.344626      1.092887      0.103084
  N      -0.071932      0.919958     -0.144593
  N       0.992559     -1.175773     -0.252824
  C       1.144330      0.289740     -0.280069
  C      -1.384611      0.353526     -0.003542
  C      -0.233336     -1.787404     -0.164897
  C      -1.392217     -1.096372     -0.029822
  H       0.022137      1.936900     -0.139674
  H       1.836212     -1.724888     -0.342363
  H      -2.348327     -1.594325      0.056461
  H      -0.202312     -2.872082     -0.190577
30
Coordinates from ORCA-job phenylurea_uracil_opt_freq E -870.604752328939
  N       2.389211      4.403693      1.571860
  C       1.290925      3.558818      1.550911
  O       0.134997      3.971070      1.454855
  N       1.526511      2.199992      1.608347
  C       2.668678      1.407359      1.832339
  C       2.568797      0.028851      1.534581
  C       3.632954     -0.816385      1.798135
  C       4.850267     -0.325464      2.305522
  C       4.946886      1.025408      2.608131
  C       3.855019      1.884379      2.398718
  H       2.124315      5.359781      1.372408
  H       3.231946      4.093414      1.104863
  H       0.697230      1.658903      1.406830
  H       1.675198     -0.331845      1.060926
  H       3.546882     -1.878916      1.573417
  H       5.683761     -1.000263      2.475925
  H       5.858662      1.431486      3.037379
  H       3.934574      2.918718      2.710910
  O       2.129311      0.854632     -0.502472
  O      -2.397436      1.061583      0.157447
  N      -0.132393      0.903750     -0.168550
  N       0.955214     -1.157558     -0.324516
  C       1.086742      0.276447     -0.355015
  C      -1.436820      0.329225      0.010886
  C      -0.259076     -1.786952     -0.214182
  C      -1.423716     -1.120364     -0.034714
  H      -0.054934      1.921476     -0.152034
  H       1.805779     -1.689110     -0.449786
  H      -2.367227     -1.639018      0.070488
  H      -0.215258     -2.870642     -0.259604
30
Coordinates from ORCA-job phenylurea_uracil_opt_freq E -870.637571107343
  N       2.419016      4.396919      1.547455
  C       1.321839      3.555051      1.536034
  O       0.169617      3.971303      1.417936
  N       1.553019      2.196411      1.638623
  C       2.695172      1.411729      1.873542
  C       2.597580      0.040922      1.583020
  C       3.666988     -0.805547      1.846909
  C       4.878235     -0.315609      2.351425
  C       4.972300      1.042564      2.649331
  C       3.885972      1.898256      2.437929
  H       2.160743      5.345777      1.309036
  H       3.271962      4.068975      1.112655
  H       0.718259      1.660737      1.443517
  H       1.712797     -0.310118      1.103745
  H       3.578974     -1.867963      1.624342
  H       5.712586     -0.988256      2.524179
  H       5.884208      1.452262      3.075493
  H       3.964049      2.933924      2.745423
  O       2.065692      0.847194     -0.584964
  O      -2.451240      1.020545      0.217695
  N      -0.194899      0.894899     -0.180386
  N       0.912655     -1.130568     -0.399902
  C       1.019313      0.265167     -0.420751
  C      -1.484252      0.306375      0.027472
  C      -0.286601     -1.789024     -0.269639
  C      -1.454644     -1.147097     -0.045013
  H      -0.140051      1.913317     -0.149064
  H       1.770742     -1.639273     -0.565375
  H      -2.385220     -1.686011      0.073793
  H      -0.227810     -2.870397     -0.340457
30
Coordinates from ORCA-job phenylurea_uracil_opt_freq E -870.659312763596
  N       2.455072      4.386614      1.506101
  C       1.357142      3.549019      1.513893
  O       0.207845      3.966076      1.364769
  N       1.579849      2.195239      1.679400
  C       2.722914      1.418665      1.925800
  C       2.631050      0.051913      1.632561
  C       3.707738     -0.794434      1.885766
  C       4.910189     -0.301288      2.397033
  C       4.998182      1.060559      2.699985
  C       3.914805      1.914394      2.488774
  H       2.207875      5.323187      1.214146
  H       3.318467      4.034084      1.113357
  H       0.738460      1.665258      1.496831
  H       1.745285     -0.295144      1.145250
  H       3.620505     -1.854963      1.657023
  H       5.748792     -0.968322      2.570558
  H       5.909539      1.470492      3.127475
  H       3.988906      2.950388      2.796923
  O       1.992292      0.856866     -0.652374
  O      -2.508243      0.966647      0.279506
  N      -0.261049      0.892708     -0.178693
  N       0.864312     -1.104446     -0.478090
  C       0.944976      0.265189     -0.477433
  C      -1.530149      0.281000      0.043571
  C      -0.318015     -1.797728     -0.329705
  C      -1.486554     -1.176804     -0.062517
  H      -0.232968      1.911251     -0.126726
  H       1.729022     -1.586130     -0.686461
  H      -2.406018     -1.732377      0.065313
  H      -0.243220     -2.875446     -0.428033
30
Coordinates from ORCA-job phenylurea_uracil_opt_freq E -870.673980023360
  N       2.488565      4.371185      1.447919
  C       1.391011      3.535731      1.483200
  O       0.243316      3.944101      1.292437
  N       1.605970      2.193956      1.729844
  C       2.752246      1.426391      1.985532
  C       2.669626      0.061657      1.678553
  C       3.754478     -0.781916      1.912835
  C       4.947266     -0.283480      2.439368
  C       5.025208      1.076796      2.758896
  C       3.940576      1.929046      2.551363
  H       2.253322      5.286881      1.088344
  H       3.363852      3.993045      1.109213
  H       0.759882      1.665778      1.565679
  H       1.779528     -0.284624      1.185045
  H       3.672065     -1.838742      1.668851
  H       5.792755     -0.942597      2.610279
  H       5.934453      1.484141      3.193363
  H       4.006746      2.963461      2.867611
  O       1.915095      0.889028     -0.705327
  O      -2.565155      0.910124      0.335262
  N      -0.326405      0.896552     -0.165570
  N       0.813670     -1.082983     -0.553534
  C       0.871662      0.283212     -0.523528
  C      -1.574399      0.257018      0.058215
  C      -0.352524     -1.807105     -0.388952
  C      -1.519195     -1.201881     -0.084176
  H      -0.324310      1.914598     -0.089941
  H       1.681749     -1.538016     -0.804211
  H      -2.430975     -1.768297      0.050273
  H      -0.263079     -2.880594     -0.512844
30
Coordinates from ORCA-job phenylurea_uracil_opt_freq E -870.684474959204
  N       2.517801      4.344858      1.383022
  C       1.421890      3.510131      1.442241
  O       0.276708      3.898962      1.194353
  N       1.629382      2.190279      1.787979
  C       2.782571      1.433269      2.049187
  C       2.713643      0.069964      1.722028
  C       3.807481     -0.766819      1.935425
  C       4.990673     -0.259823      2.479530
  C       5.053964      1.095193      2.821546
  C       3.962395      1.942954      2.621310
  H       2.299301      5.229452      0.944402
  H       3.408857      3.944714      1.118726
  H       0.781664      1.658608      1.644444
  H       1.819153     -0.276384      1.224545
  H       3.735647     -1.818786      1.670012
  H       5.845949     -0.908228      2.643603
  H       5.959652      1.500779      3.264789
  H       4.016142      2.975549      2.947977
  O       1.833877      0.934825     -0.748887
  O      -2.621818      0.859245      0.384335
  N      -0.390743      0.901020     -0.147384
  N       0.760278     -1.062117     -0.626388
  C       0.799809      0.313428     -0.560938
  C      -1.620854      0.235710      0.071533
  C      -0.391060     -1.809744     -0.448120
  C      -1.555403     -1.219386     -0.106771
  H      -0.408106      1.918473     -0.048433
  H       1.627563     -1.492112     -0.919394
  H      -2.461574     -1.792746      0.035360
  H      -0.287844     -2.878801     -0.596030
30
Coordinates from ORCA-job phenylurea_uracil_opt_freq E -870.691862334486
  N       2.530912      4.303197      1.301700
  C       1.443474      3.462340      1.391356
  O       0.300959      3.813689      1.077602
  N       1.650356      2.179027      1.855186
  C       2.815781      1.436354      2.115618
  C       2.765005      0.076073      1.764100
  C       3.868289     -0.750460      1.959632
  C       5.041827     -0.232730      2.520455
  C       5.086595      1.114851      2.887736
  C       3.983330      1.953698      2.698312
  H       2.327375      5.141174      0.773910
  H       3.439582      3.894154      1.126623
  H       0.806717      1.634645      1.734463
  H       1.867199     -0.268329      1.263522
  H       3.812548     -1.796911      1.670925
  H       5.908070     -0.868984      2.675250
  H       5.986690      1.520955      3.341483
  H       4.020031      2.982858      3.039568
  O       1.755237      0.988276     -0.784303
  O      -2.673188      0.827304      0.432909
  N      -0.450096      0.909350     -0.126556
  N       0.705591     -1.031961     -0.696963
  C       0.732970      0.351825     -0.589907
  C      -1.668299      0.224858      0.087443
  C      -0.432882     -1.795327     -0.509038
  C      -1.594673     -1.222671     -0.128146
  H      -0.475909      1.926178     -0.004757
  H       1.567541     -1.439517     -1.033548
  H      -2.495583     -1.802000      0.022536
  H      -0.318449     -2.859453     -0.683111
30
Coordinates from ORCA-job phenylurea_uracil_opt_freq E -870.696939625674
  N       2.542040      4.240922      1.214029
  C       1.462442      3.397779      1.335761
  O       0.326154      3.708195      0.958762
  N       1.665093      2.166579      1.928872
  C       2.845787      1.436868      2.180012
  C       2.818787      0.081483      1.802224
  C       3.933129     -0.730715      1.985748
  C       5.095412     -0.199027      2.561485
  C       5.117616      1.141380      2.952109
  C       3.998839      1.965119      2.774722
  H       2.360605      5.020556      0.596779
  H       3.464821      3.833309      1.138415
  H       0.827739      1.606781      1.828647
  H       1.919449     -0.260777      1.298789
  H       3.898984     -1.771851      1.676115
  H       5.973228     -0.821559      2.707293
  H       6.010249      1.552916      3.415386
  H       4.014941      2.990882      3.129962
  O       1.679345      1.044584     -0.815299
  O      -2.719636      0.806017      0.485817
  N      -0.506760      0.918916     -0.105960
  N       0.650014     -0.994781     -0.766086
  C       0.668906      0.391717     -0.613683
  C      -1.716808      0.219402      0.105709
  C      -0.476849     -1.770005     -0.572522
  C      -1.635710     -1.219424     -0.149811
  H      -0.530253      1.934530      0.043595
  H       1.503750     -1.381705     -1.145064
  H      -2.529733     -1.807356      0.008414
  H      -0.354583     -2.828271     -0.776218
30
Coordinates from ORCA-job phenylurea_uracil_opt_freq E -870.700175716508
  N       2.551006      4.160728      1.113750
  C       1.475753      3.326372      1.290956
  O       0.343099      3.602721      0.877151
  N       1.675353      2.157792      2.007845
  C       2.873002      1.435990      2.237343
  C       2.873148      0.087073      1.834857
  C       3.999307     -0.708756      2.013256
  C       5.148395     -0.162415      2.603332
  C       5.145850      1.171525      3.014586
  C       4.010897      1.976210      2.846527
  H       2.386994      4.874851      0.417677
  H       3.479807      3.760728      1.119120
  H       0.844443      1.583711      1.929259
  H       1.974360     -0.253677      1.328845
  H       3.989142     -1.745244      1.687330
  H       6.036387     -0.771681      2.743942
  H       6.028723      1.591471      3.488765
  H       4.003622      2.996817      3.217826
  O       1.610178      1.097671     -0.845195
  O      -2.755467      0.793592      0.542126
  N      -0.555603      0.929998     -0.088552
  N       0.596975     -0.954380     -0.833374
  C       0.610872      0.428999     -0.635370
  C      -1.759398      0.219645      0.125685
  C      -0.520986     -1.738237     -0.637799
  C      -1.675060     -1.210122     -0.173790
  H      -0.565418      1.942538      0.094259
  H       1.440526     -1.323559     -1.250727
  H      -2.561772     -1.808056     -0.011706
  H      -0.397136     -2.789838     -0.873926
30
Coordinates from ORCA-job phenylurea_uracil_opt_freq E -870.702067166543
  N       2.579884      4.092413      1.042014
  C       1.494573      3.289944      1.276297
  O       0.361097      3.574856      0.873833
  N       1.684458      2.165163      2.070385
  C       2.891992      1.436846      2.270886
  C       2.916048      0.092553      1.855128
  C       4.051990     -0.688509      2.038757
  C       5.188169     -0.128849      2.640010
  C       5.164434      1.202059      3.060897
  C       4.016939      1.988268      2.893167
  H       2.428027      4.765954      0.304358
  H       3.504432      3.685156      1.083015
  H       0.850001      1.593061      2.013647
  H       2.020067     -0.251198      1.348639
  H       4.062217     -1.723160      1.707360
  H       6.082713     -0.728023      2.782782
  H       6.037567      1.632310      3.543739
  H       3.989522      3.006228      3.271551
  O       1.551371      1.126312     -0.883042
  O      -2.781519      0.771622      0.590486
  N      -0.597064      0.927441     -0.085148
  N       0.550134     -0.933020     -0.893757
  C       0.560726      0.445053     -0.661415
  C      -1.794734      0.209463      0.137534
  C      -0.561923     -1.722688     -0.696467
  C      -1.710223     -1.212677     -0.198723
  H      -0.587182      1.935040      0.130562
  H       1.384369     -1.290237     -1.339185
  H      -2.589820     -1.820411     -0.034104
  H      -0.441266     -2.768504     -0.959205
30
Coordinates from ORCA-job phenylurea_uracil_opt_freq E -870.703306795646
  N       2.577057      4.015544      0.951265
  C       1.491798      3.249491      1.282225
  O       0.347741      3.525595      0.909957
  N       1.701291      2.161539      2.128317
  C       2.917869      1.436190      2.300286
  C       2.960986      0.098481      1.875459
  C       4.103912     -0.671231      2.069597
  C       5.228129     -0.101981      2.682118
  C       5.187636      1.228020      3.108014
  C       4.030929      1.998078      2.936518
  H       2.406972      4.645774      0.180402
  H       3.499223      3.603544      0.991580
  H       0.864941      1.589117      2.113744
  H       2.067934     -0.247466      1.367535
  H       4.129845     -1.705121      1.736753
  H       6.126027     -0.694676      2.831013
  H       6.051204      1.666881      3.600233
  H       3.984262      3.013148      3.320472
  O       1.512394      1.148733     -0.919278
  O      -2.789726      0.770804      0.634062
  N      -0.620668      0.937313     -0.086108
  N       0.512497     -0.908559     -0.949696
  C       0.527738      0.461869     -0.686579
  C      -1.813829      0.216558      0.149828
  C      -0.599704     -1.697798     -0.753148
  C      -1.738562     -1.197341     -0.224711
  H      -0.591627      1.937701      0.155818
  H       1.336780     -1.259998     -1.417439
  H      -2.615144     -1.809787     -0.061853
  H      -0.490905     -2.737956     -1.042382
30
Coordinates from ORCA-job phenylurea_uracil_opt_freq E -870.704194190879
  N       2.597699      3.972754      0.908506
  C       1.505925      3.246088      1.297840
  O       0.354367      3.553333      0.981156
  N       1.721822      2.168833      2.158780
  C       2.937661      1.437360      2.313405
  C       2.994166      0.102135      1.889030
  C       4.141343     -0.659020      2.100099
  C       5.255543     -0.080376      2.719533
  C       5.204121      1.253013      3.139069
  C       4.042383      2.010782      2.957155
  H       2.416108      4.599606      0.137919
  H       3.511304      3.541103      0.927207
  H       0.873814      1.615388      2.194714
  H       2.105098     -0.251548      1.381056
  H       4.177742     -1.694788      1.773946
  H       6.154368     -0.668880      2.879140
  H       6.060885      1.701043      3.634867
  H       3.982487      3.028322      3.332269
  O       1.477153      1.145908     -0.967201
  O      -2.794464      0.749815      0.674074
  N      -0.645290      0.929692     -0.101276
  N       0.473618     -0.908145     -1.004300
  C       0.495724      0.456552     -0.719616
  C      -1.832718      0.206345      0.151500
  C      -0.639548     -1.696411     -0.805305
  C      -1.767437     -1.201268     -0.249642
  H      -0.601372      1.922250      0.167211
  H       1.289111     -1.257903     -1.488147
  H      -2.640941     -1.817506     -0.084430
  H      -0.543676     -2.732011     -1.114559
30
Coordinates from ORCA-job phenylurea_uracil_opt_freq E -870.704930871410
  N       2.593126      3.913222      0.852487
  C       1.506247      3.214205      1.301073
  O       0.346995      3.509702      0.998631
  N       1.742815      2.163268      2.189243
  C       2.961822      1.440405      2.338705
  C       3.030204      0.109022      1.909454
  C       4.181272     -0.644881      2.131836
  C       5.286731     -0.058025      2.758073
  C       5.225752      1.277560      3.174714
  C       4.059408      2.025487      2.986827
  H       2.397127      4.515475      0.066196
  H       3.505410      3.479079      0.869529
  H       0.893432      1.619394      2.286809
  H       2.144474     -0.251456      1.398900
  H       4.226611     -1.680873      1.807346
  H       6.187452     -0.641684      2.924719
  H       6.077502      1.731854      3.673385
  H       3.986871      3.044294      3.355861
  O       1.448262      1.154873     -1.004185
  O      -2.793160      0.742574      0.714676
  N      -0.662993      0.935860     -0.109754
  N       0.436793     -0.893320     -1.056231
  C       0.469990      0.464773     -0.746411
  C      -1.843635      0.208842      0.160752
  C      -0.677825     -1.680650     -0.856299
  C      -1.793046     -1.189815     -0.272225
  H      -0.612350      1.919845      0.182745
  H       1.243239     -1.239786     -1.557055
  H      -2.666111     -1.806695     -0.107007
  H      -0.595417     -2.710081     -1.188792
30
Coordinates from ORCA-job phenylurea_uracil_opt_freq E -870.705638386075
  N       2.586391      3.875403      0.815520
  C       1.506450      3.191216      1.301962
  O       0.340167      3.484479      1.019746
  N       1.762503      2.159157      2.202758
  C       2.984840      1.445115      2.361470
  C       3.061940      0.114352      1.929952
  C       4.214988     -0.634832      2.162342
  C       5.313755     -0.040928      2.793286
  C       5.246068      1.296315      3.205845
  C       4.077855      2.039227      3.010588
  H       2.376208      4.468665      0.026111
  H       3.497474      3.439349      0.822303
  H       0.912642      1.635194      2.372162
  H       2.180992     -0.256356      1.416535
  H       4.265940     -1.671066      1.839478
  H       6.215985     -0.620164      2.967225
  H       6.094771      1.753924      3.706661
  H       3.995954      3.059207      3.373907
  O       1.426045      1.151663     -1.045988
  O      -2.782248      0.736006      0.752221
  N      -0.674427      0.936276     -0.126945
  N       0.398985     -0.889263     -1.108092
  C       0.448867      0.464374     -0.778455
  C      -1.848447      0.208353      0.165733
  C      -0.717082     -1.673951     -0.902137
  C      -1.817236     -1.183148     -0.289954
  H      -0.619427      1.913417      0.185372
  H       1.196261     -1.234607     -1.624094
  H      -2.691375     -1.796848     -0.118364
  H      -0.647841     -2.698065     -1.253147
30
Coordinates from ORCA-job phenylurea_uracil_opt_freq E -870.706255786819
  N       2.585297      3.841981      0.785790
  C       1.509321      3.173547      1.303530
  O       0.339576      3.467291      1.030221
  N       1.777857      2.158543      2.212140
  C       3.003735      1.452448      2.388972
  C       3.089328      0.121749      1.953039
  C       4.244538     -0.623164      2.189494
  C       5.338066     -0.023616      2.824674
  C       5.263487      1.312698      3.236550
  C       4.093304      2.052175      3.036962
  H       2.365359      4.421827     -0.010829
  H       3.493553      3.399956      0.785066
  H       0.929443      1.663786      2.456731
  H       2.215630     -0.263030      1.435631
  H       4.300430     -1.658317      1.864154
  H       6.243489     -0.596990      3.001835
  H       6.110719      1.772436      3.737907
  H       4.005324      3.073268      3.395679
  O       1.404631      1.147198     -1.087933
  O      -2.767211      0.724923      0.791531
  N      -0.685295      0.932379     -0.144899
  N       0.358939     -0.886858     -1.162808
  C       0.427496      0.462755     -0.812949
  C      -1.851689      0.202881      0.170788
  C      -0.756325     -1.669859     -0.947427
  C      -1.840684     -1.181369     -0.305321
  H      -0.626141      1.902546      0.189185
  H       1.147121     -1.229213     -1.694630
  H      -2.715282     -1.791273     -0.122817
  H      -0.697015     -2.688234     -1.316265
30
Coordinates from ORCA-job phenylurea_uracil_opt_freq E -870.706671645884
  N       2.577985      3.799552      0.750893
  C       1.508321      3.147011      1.303732
  O       0.335755      3.445287      1.044277
  N       1.789686      2.155830      2.228301
  C       3.021309      1.459163      2.418773
  C       3.116838      0.130153      1.977419
  C       4.275504     -0.609084      2.214413
  C       5.363869     -0.004410      2.854592
  C       5.280460      1.329446      3.268587
  C       4.106412      2.063273      3.066953
  H       2.345733      4.354307     -0.059936
  H       3.484050      3.353008      0.745115
  H       0.946923      1.690408      2.540538
  H       2.251484     -0.268915      1.455484
  H       4.337889     -1.642381      1.884623
  H       6.273439     -0.571033      3.032658
  H       6.125100      1.792642      3.771119
  H       4.013026      3.084840      3.423219
  O       1.385249      1.144053     -1.128546
  O      -2.749824      0.720992      0.826670
  N      -0.692798      0.930946     -0.160751
  N       0.320036     -0.880740     -1.217667
  C       0.407737      0.463182     -0.848143
  C      -1.853291      0.201754      0.175697
  C      -0.794155     -1.660592     -0.990590
  C      -1.862841     -1.175429     -0.319631
  H      -0.623166      1.894211      0.191823
  H       1.098575     -1.220244     -1.765376
  H      -2.737670     -1.781120     -0.124916
  H      -0.744637     -2.673648     -1.375328
30
Coordinates from ORCA-job phenylurea_uracil_opt_freq E -870.707022829628
  N       2.573714      3.741591      0.709336
  C       1.509154      3.119103      1.307891
  O       0.335459      3.421883      1.057801
  N       1.799834      2.156096      2.254671
  C       3.036968      1.466357      2.452459
  C       3.145582      0.140690      2.003040
  C       4.310379     -0.589859      2.237042
  C       5.392237      0.020123      2.884025
  C       5.296290      1.349926      3.305039
  C       4.116267      2.074877      3.103187
  H       2.328770      4.253092     -0.125953
  H       3.474830      3.284760      0.703350
  H       0.964434      1.724344      2.628841
  H       2.290421     -0.274161      1.475969
  H       4.382399     -1.620246      1.900375
  H       6.307003     -0.538545      3.060889
  H       6.136185      1.818439      3.810537
  H       4.016571      3.095893      3.459701
  O       1.362816      1.145114     -1.170973
  O      -2.731818      0.714297      0.865300
  N      -0.701608      0.930262     -0.173309
  N       0.277711     -0.869192     -1.278372
  C       0.384370      0.466824     -0.886052
  C      -1.856727      0.200915      0.181037
  C      -0.834122     -1.646684     -1.037246
  C      -1.885664     -1.168417     -0.334893
  H      -0.615492      1.885373      0.199611
  H       1.045356     -1.204768     -1.843664
  H      -2.758923     -1.771837     -0.126841
  H      -0.795395     -2.653783     -1.438797
30
Coordinates from ORCA-job phenylurea_uracil_opt_freq E -870.707356734514
  N       2.567340      3.672792      0.666482
  C       1.509203      3.083369      1.310825
  O       0.334512      3.390951      1.071153
  N       1.809716      2.156743      2.288708
  C       3.051981      1.473167      2.487528
  C       3.175679      0.152032      2.029545
  C       4.349389     -0.566468      2.257941
  C       5.423703      0.049343      2.912341
  C       5.312324      1.374144      3.343548
  C       4.124481      2.086949      3.142952
  H       2.308228      4.127235     -0.197327
  H       3.463650      3.206047      0.665134
  H       0.983628      1.758400      2.716117
  H       2.331790     -0.279648      1.497237
  H       4.433793     -1.593207      1.913236
  H       6.344435     -0.500484      3.086132
  H       6.145412      1.849930      3.853401
  H       4.017083      3.106210      3.502515
  O       1.339992      1.146254     -1.214923
  O      -2.714993      0.712375      0.898510
  N      -0.708003      0.930913     -0.183117
  N       0.233146     -0.854675     -1.341853
  C       0.359656      0.471615     -0.926212
  C      -1.858755      0.202823      0.188214
  C      -0.876385     -1.629041     -1.083843
  C      -1.909080     -1.157448     -0.350175
  H      -0.600489      1.878128      0.206149
  H       0.988346     -1.187528     -1.925168
  H      -2.781008     -1.758263     -0.129633
  H      -0.851774     -2.630192     -1.501416
30
Coordinates from ORCA-job phenylurea_uracil_opt_freq E -870.707668580290
  N       2.564859      3.595532      0.625568
  C       1.511760      3.046033      1.313884
  O       0.336444      3.353137      1.077084
  N       1.819725      2.161568      2.328187
  C       3.064477      1.480173      2.522923
  C       3.204315      0.164357      2.055662
  C       4.389677     -0.538762      2.275789
  C       5.455658      0.082778      2.937831
  C       5.326496      1.401254      3.383232
  C       4.129667      2.099376      3.185619
  H       2.293336      3.980274     -0.268375
  H       3.455171      3.116782      0.635774
  H       1.001294      1.793677      2.795512
  H       2.372807     -0.284902      1.517959
  H       4.488629     -1.560919      1.921481
  H       6.382964     -0.457701      3.105988
  H       6.151226      1.885278      3.898771
  H       4.012877      3.115524      3.551063
  O       1.316580      1.148782     -1.259452
  O      -2.696204      0.708249      0.934350
  N      -0.713619      0.932482     -0.190904
  N       0.186106     -0.836375     -1.407736
  C       0.332896      0.478783     -0.967969
  C      -1.862804      0.207652      0.191726
  C      -0.919870     -1.609016     -1.130145
  C      -1.931324     -1.145162     -0.363750
  H      -0.582845      1.871385      0.213335
  H       0.927573     -1.167449     -2.009215
  H      -2.799555     -1.745739     -0.128486
  H      -0.911316     -2.604586     -1.561703
30
Coordinates from ORCA-job phenylurea_uracil_opt_freq E -870.707890000719
  N       2.567050      3.518903      0.590966
  C       1.518027      3.011526      1.317787
  O       0.342526      3.322091      1.086054
  N       1.832738      2.169819      2.367011
  C       3.077143      1.486893      2.556117
  C       3.232515      0.176084      2.080946
  C       4.430691     -0.509641      2.292905
  C       5.488173      0.118016      2.961317
  C       5.340901      1.429981      3.421123
  C       4.135171      2.112385      3.226601
  H       2.284511      3.840163     -0.324987
  H       3.449613      3.025671      0.612206
  H       1.019677      1.829843      2.864367
  H       2.413451     -0.290983      1.538672
  H       4.544409     -1.527093      1.929471
  H       6.422065     -0.413035      3.122929
  H       6.157154      1.922156      3.942327
  H       4.006687      3.124964      3.597806
  O       1.292209      1.147564     -1.302859
  O      -2.685795      0.704900      0.957312
  N      -0.718655      0.930378     -0.195984
  N       0.137483     -0.820065     -1.470646
  C       0.304836      0.483273     -1.007466
  C      -1.864285      0.207592      0.199630
  C      -0.964957     -1.591908     -1.175001
  C      -1.954977     -1.134451     -0.378406
  H      -0.569371      1.862451      0.218824
  H       0.864613     -1.150283     -2.089649
  H      -2.821652     -1.733753     -0.134142
  H      -0.974951     -2.580974     -1.621229
30
Coordinates from ORCA-job phenylurea_uracil_opt_freq E -870.708045864828
  N       2.565157      3.447650      0.558467
  C       1.522599      2.977722      1.319528
  O       0.345754      3.288468      1.093808
  N       1.847689      2.176742      2.397893
  C       3.091803      1.493180      2.584888
  C       3.260200      0.186597      2.103579
  C       4.468667     -0.484118      2.311456
  C       5.517931      0.149077      2.986166
  C       5.355189      1.455598      3.457074
  C       4.142671      2.124808      3.263062
  H       2.271513      3.720850     -0.369882
  H       3.442441      2.945217      0.588605
  H       1.039770      1.860213      2.919264
  H       2.451881     -0.294689      1.557042
  H       4.594707     -1.497582      1.940828
  H       6.457067     -0.373893      3.143701
  H       6.164262      1.953644      3.983845
  H       4.001257      3.134298      3.637742
  O       1.270358      1.145946     -1.343442
  O      -2.668927      0.698568      0.985217
  N      -0.723443      0.929927     -0.204134
  N       0.091379     -0.803997     -1.526855
  C       0.279707      0.488144     -1.043224
  C      -1.868432      0.211162      0.199019
  C      -1.007730     -1.575704     -1.216657
  C      -1.976512     -1.123990     -0.391469
  H      -0.560806      1.854660      0.221559
  H       0.804941     -1.133601     -2.161634
  H      -2.839789     -1.723690     -0.136264
  H      -1.034305     -2.558742     -1.675180
30
Coordinates from ORCA-job phenylurea_uracil_opt_freq E -870.708224789178
  N       2.564108      3.370996      0.525152
  C       1.530658      2.943844      1.322775
  O       0.352388      3.256260      1.105978
  N       1.868731      2.184720      2.427185
  C       3.112503      1.500840      2.615714
  C       3.294973      0.198410      2.128512
  C       4.513633     -0.456282      2.334771
  C       5.553045      0.183335      3.017151
  C       5.373435      1.483987      3.498691
  C       4.154630      2.139631      3.302647
  H       2.258005      3.604842     -0.410151
  H       3.436377      2.860360      0.562565
  H       1.066630      1.893845      2.972312
  H       2.498162     -0.297309      1.577702
  H       4.652490     -1.465642      1.957348
  H       6.497539     -0.330636      3.172253
  H       6.175108      1.987236      4.031794
  H       3.996955      3.146096      3.678751
  O       1.243116      1.141102     -1.389356
  O      -2.655652      0.689699      1.008827
  N      -0.731322      0.925515     -0.214160
  N       0.036396     -0.789132     -1.587137
  C       0.249629      0.490459     -1.081371
  C      -1.873614      0.209363      0.199647
  C      -1.059760     -1.560581     -1.264298
  C      -2.005124     -1.115163     -0.408862
  H      -0.558845      1.843005      0.223113
  H       0.734437     -1.117045     -2.239750
  H      -2.866519     -1.713997     -0.145267
  H      -1.105113     -2.535293     -1.738532
30
Coordinates from ORCA-job phenylurea_uracil_opt_freq E -870.708494710662
  N       2.560112      3.277247      0.485667
  C       1.541254      2.897311      1.323455
  O       0.360053      3.206796      1.117341
  N       1.899304      2.191672      2.456593
  C       3.144552      1.511801      2.652247
  C       3.344426      0.214232      2.158669
  C       4.573595     -0.422031      2.366810
  C       5.599515      0.225617      3.060683
  C       5.399108      1.519123      3.553360
  C       4.174013      2.159479      3.351355
  H       2.240533      3.475066     -0.453375
  H       3.432542      2.768234      0.533328
  H       1.104259      1.925062      3.023882
  H       2.560160     -0.295349      1.602817
  H       4.727631     -1.426605      1.982311
  H       6.549962     -0.277171      3.216049
  H       6.191779      2.027083      4.095408
  H       3.994371      3.162298      3.727195
  O       1.206021      1.133733     -1.445383
  O      -2.642716      0.678341      1.033712
  N      -0.744213      0.918363     -0.227984
  N      -0.035438     -0.772415     -1.657712
  C       0.210271      0.491908     -1.125967
  C      -1.884246      0.205527      0.197582
  C      -1.129534     -1.542169     -1.323523
  C      -2.046477     -1.104670     -0.432867
  H      -0.562685      1.827112      0.223557
  H       0.643131     -1.096540     -2.332417
  H      -2.906743     -1.701342     -0.160782
  H      -1.197541     -2.505245     -1.818008
30
Coordinates from ORCA-job phenylurea_uracil_opt_freq E -870.708780399184
  N       2.560435      3.207920      0.457104
  C       1.554472      2.861857      1.322249
  O       0.370594      3.166617      1.123646
  N       1.927756      2.194823      2.473309
  C       3.175971      1.522560      2.679858
  C       3.390790      0.228651      2.181834
  C       4.626070     -0.394649      2.395011
  C       5.639591      0.259437      3.100662
  C       5.422028      1.547287      3.600533
  C       4.193163      2.176929      3.390503
  H       2.232831      3.387641     -0.482496
  H       3.438226      2.710040      0.513803
  H       1.136532      1.939732      3.050795
  H       2.614436     -0.287748      1.622104
  H       4.792154     -1.395655      2.006102
  H       6.594165     -0.234195      3.259971
  H       6.206940      2.057710      4.151500
  H       3.995689      3.176834      3.765174
  O       1.170011      1.125121     -1.489744
  O      -2.638183      0.665026      1.050841
  N      -0.760079      0.907960     -0.239487
  N      -0.098063     -0.763044     -1.711723
  C       0.174070      0.489282     -1.159774
  C      -1.899353      0.197383      0.194181
  C      -1.192569     -1.529227     -1.372671
  C      -2.087997     -1.099151     -0.455862
  H      -0.570790      1.808703      0.225223
  H       0.565060     -1.081265     -2.404443
  H      -2.948886     -1.692722     -0.179096
  H      -1.278066     -2.481389     -1.885107
30
Coordinates from ORCA-job phenylurea_uracil_opt_freq E -870.709191185371
  N       2.560077      3.114577      0.421663
  C       1.571521      2.809606      1.318248
  O       0.383552      3.103500      1.126243
  N       1.964072      2.195499      2.491784
  C       3.218549      1.538502      2.714357
  C       3.454872      0.250148      2.209773
  C       4.696232     -0.357783      2.430688
  C       5.692258      0.304446      3.153883
  C       5.451452      1.584497      3.662558
  C       4.217897      2.200823      3.441329
  H       2.223028      3.264970     -0.519340
  H       3.449861      2.641716      0.493548
  H       1.177060      1.948833      3.078456
  H       2.686011     -0.272143      1.643031
  H       4.878964     -1.353712      2.036162
  H       6.651935     -0.176704      3.320478
  H       6.224861      2.098057      4.226728
  H       3.999415      3.196286      3.816365
  O       1.119596      1.114947     -1.547197
  O      -2.633183      0.648441      1.072254
  N      -0.782046      0.893601     -0.254631
  N      -0.178891     -0.749833     -1.778147
  C       0.124704      0.485264     -1.203902
  C      -1.921417      0.187245      0.189495
  C      -1.275769     -1.508728     -1.433960
  C      -2.144872     -1.089606     -0.486334
  H      -0.576361      1.782238      0.226966
  H       0.464848     -1.058341     -2.493281
  H      -3.007590     -1.677828     -0.204118
  H      -1.383638     -2.446055     -1.969098
30
Coordinates from ORCA-job phenylurea_uracil_opt_freq E -870.709680676383
  N       2.561457      3.015321      0.386175
  C       1.591187      2.755045      1.312886
  O       0.399462      3.038660      1.126735
  N       2.000170      2.194140      2.506716
  C       3.262514      1.557247      2.747519
  C       3.523138      0.275960      2.234636
  C       4.768001     -0.319028      2.464938
  C       5.744669      0.350291      3.209133
  C       5.479455      1.621640      3.726607
  C       4.241743      2.225966      3.492953
  H       2.213537      3.127680     -0.556076
  H       3.466098      2.575740      0.474411
  H       1.216613      1.953617      3.100977
  H       2.759628     -0.247714      1.658528
  H       4.968719     -1.309121      2.064614
  H       6.708793     -0.118142      3.385919
  H       6.239204      2.138188      4.306376
  H       4.006052      3.216204      3.871634
  O       1.063548      1.108454     -1.605847
  O      -2.627787      0.627020      1.096121
  N      -0.806644      0.877814     -0.269325
  N      -0.260076     -0.736097     -1.842979
  C       0.071051      0.481710     -1.249441
  C      -1.945956      0.175280      0.185517
  C      -1.360830     -1.485352     -1.494243
  C      -2.204537     -1.079464     -0.518013
  H      -0.576144      1.751476      0.229805
  H       0.364922     -1.031858     -2.579889
  H      -3.069685     -1.661439     -0.230562
  H      -1.491302     -2.406774     -2.051822
30
Coordinates from ORCA-job phenylurea_uracil_opt_freq E -870.710090531488
  N       2.559836      2.940335      0.360704
  C       1.603163      2.713896      1.308665
  O       0.408809      2.990502      1.126215
  N       2.022575      2.192585      2.516315
  C       3.291264      1.572008      2.768780
  C       3.569974      0.296905      2.249054
  C       4.815178     -0.291942      2.486088
  C       5.778186      0.381029      3.246263
  C       5.496472      1.646252      3.769425
  C       4.256156      2.243841      3.527371
  H       2.201222      3.012948     -0.581789
  H       3.475516      2.527316      0.460176
  H       1.242626      1.960172      3.119244
  H       2.809817     -0.223742      1.665257
  H       5.028725     -1.277609      2.081733
  H       6.744678     -0.079251      3.431382
  H       6.245445      2.165490      4.360679
  H       4.013881      3.230280      3.911915
  O       1.024358      1.110101     -1.644814
  O      -2.620642      0.609429      1.115426
  N      -0.822027      0.868598     -0.277737
  N      -0.312426     -0.725074     -1.886723
  C       0.034217      0.482358     -1.280990
  C      -1.960388      0.167868      0.184591
  C      -1.416407     -1.466570     -1.534008
  C      -2.242609     -1.070676     -0.539355
  H      -0.567747      1.730746      0.231589
  H       0.300167     -1.010542     -2.637977
  H      -3.109644     -1.647745     -0.247821
  H      -1.563378     -2.377044     -2.105652
30
Coordinates from ORCA-job phenylurea_uracil_opt_freq E -870.710463332575
  N       2.554786      2.884900      0.342042
  C       1.609236      2.688138      1.307889
  O       0.413815      2.965760      1.130581
  N       2.035474      2.194250      2.524016
  C       3.307580      1.583447      2.781026
  C       3.598308      0.313258      2.256531
  C       4.841777     -0.274967      2.498177
  C       5.796565      0.398818      3.269313
  C       5.505598      1.660735      3.795190
  C       4.264188      2.256144      3.547675
  H       2.182635      2.914827     -0.598414
  H       3.475065      2.483445      0.446836
  H       1.261348      1.981473      3.141607
  H       2.841458     -0.202487      1.666552
  H       5.063347     -1.257800      2.091596
  H       6.763597     -0.057746      3.460811
  H       6.246496      2.182984      4.393903
  H       4.024798      3.240606      3.938955
  O       0.998767      1.117733     -1.668961
  O      -2.611005      0.590770      1.132436
  N      -0.829707      0.863368     -0.281272
  N      -0.342622     -0.715419     -1.917222
  C       0.010978      0.485791     -1.302473
  C      -1.965312      0.162055      0.186003
  C      -1.448469     -1.452368     -1.560684
  C      -2.261778     -1.065001     -0.553471
  H      -0.553971      1.717373      0.232661
  H       0.261630     -0.992729     -2.678137
  H      -3.129546     -1.639271     -0.258531
  H      -1.608035     -2.355624     -2.140632
30
Coordinates from ORCA-job phenylurea_uracil_opt_freq E -870.711004649108
  N       2.544981      2.795361      0.318929
  C       1.615468      2.647157      1.309317
  O       0.418265      2.924292      1.138151
  N       2.055492      2.203205      2.539091
  C       3.330356      1.601277      2.799694
  C       3.635843      0.337483      2.269179
  C       4.879249     -0.247505      2.515846
  C       5.823659      0.426428      3.300201
  C       5.520689      1.683326      3.830796
  C       4.277871      2.274813      3.576528
  H       2.153335      2.756662     -0.614452
  H       3.468133      2.402483      0.431754
  H       1.292227      2.028965      3.181984
  H       2.886154     -0.174922      1.671110
  H       5.111131     -1.226229      2.105472
  H       6.791496     -0.025823      3.497890
  H       6.251422      2.209496      4.438503
  H       4.040405      3.256676      3.975270
  O       0.964791      1.128933     -1.702635
  O      -2.596568      0.563624      1.152419
  N      -0.838411      0.856896     -0.287676
  N      -0.387543     -0.696276     -1.964138
  C      -0.020378      0.492578     -1.333323
  C      -1.969518      0.154225      0.185428
  C      -1.493652     -1.430703     -1.601608
  C      -2.286126     -1.056598     -0.574301
  H      -0.538925      1.701103      0.231878
  H       0.202798     -0.962937     -2.739526
  H      -3.153658     -1.628736     -0.274375
  H      -1.671989     -2.322789     -2.193401
30
Coordinates from ORCA-job phenylurea_uracil_opt_freq E -870.711800382760
  N       2.519829      2.667857      0.291018
  C       1.620490      2.594559      1.318899
  O       0.421602      2.879414      1.166342
  N       2.088859      2.224902      2.561920
  C       3.363808      1.627535      2.824082
  C       3.685384      0.370519      2.288563
  C       4.929001     -0.210476      2.543598
  C       5.861136      0.461783      3.343537
  C       5.545136      1.713666      3.878097
  C       4.302393      2.301479      3.612842
  H       2.092119      2.535552     -0.620396
  H       3.441276      2.271138      0.406903
  H       1.348981      2.130423      3.247476
  H       2.947985     -0.140313      1.679947
  H       5.171860     -1.184921      2.129688
  H       6.828581      0.012269      3.549316
  H       6.263444      2.244654      4.496342
  H       4.067650      3.281295      4.017959
  O       0.922620      1.140760     -1.750944
  O      -2.572706      0.520089      1.173967
  N      -0.846676      0.845453     -0.300608
  N      -0.450121     -0.667323     -2.033694
  C      -0.060080      0.499748     -1.378030
  C      -1.970658      0.140360      0.179447
  C      -1.555111     -1.401641     -1.662927
  C      -2.315725     -1.047335     -0.606377
  H      -0.519482      1.676132      0.227091
  H       0.118531     -0.920356     -2.829454
  H      -3.181923     -1.618127     -0.299750
  H      -1.761204     -2.276629     -2.270852
30
Coordinates from ORCA-job phenylurea_uracil_opt_freq E -870.712607307081
  N       2.504145      2.558821      0.276374
  C       1.629628      2.541078      1.329030
  O       0.426716      2.818752      1.190426
  N       2.127871      2.246544      2.580654
  C       3.401188      1.652589      2.848201
  C       3.735992      0.400107      2.310307
  C       4.981789     -0.173438      2.574523
  C       5.901810      0.497635      3.388030
  C       5.572782      1.744325      3.926435
  C       4.330860      2.327126      3.649139
  H       2.054520      2.363664     -0.615507
  H       3.428239      2.169020      0.396086
  H       1.410685      2.223253      3.295529
  H       3.009799     -0.113457      1.693085
  H       5.234117     -1.144233      2.157675
  H       6.869052      0.050988      3.600776
  H       6.280679      2.277768      4.554518
  H       4.090193      3.305106      4.055278
  O       0.880082      1.139673     -1.801254
  O      -2.558276      0.481162      1.183217
  N      -0.859368      0.828956     -0.319179
  N      -0.520495     -0.643401     -2.100544
  C      -0.101876      0.499129     -1.422173
  C      -1.979329      0.123860      0.166764
  C      -1.624433     -1.377858     -1.723150
  C      -2.354191     -1.041369     -0.639621
  H      -0.514687      1.647017      0.219120
  H       0.025622     -0.884916     -2.915411
  H      -3.219577     -1.610555     -0.327582
  H      -1.856538     -2.234880     -2.346744
30
Coordinates from ORCA-job phenylurea_uracil_opt_freq E -870.713139427005
  N       2.460132      2.532533      0.264158
  C       1.619375      2.520741      1.349452
  O       0.408945      2.782566      1.251954
  N       2.174664      2.289669      2.593886
  C       3.428460      1.669878      2.851701
  C       3.747761      0.407980      2.330747
  C       4.992785     -0.168091      2.608069
  C       5.917683      0.494349      3.417599
  C       5.599930      1.749992      3.944994
  C       4.368741      2.340864      3.652541
  H       1.981307      2.333130     -0.617101
  H       3.372002      2.107899      0.363949
  H       1.509395      2.394122      3.347664
  H       3.034686     -0.117530      1.712294
  H       5.232598     -1.145662      2.198863
  H       6.876935      0.032807      3.634059
  H       6.310546      2.282435      4.570929
  H       4.128440      3.325907      4.041858
  O       0.877289      1.132595     -1.815812
  O      -2.561966      0.437289      1.171485
  N      -0.862485      0.811350     -0.327274
  N      -0.548103     -0.621824     -2.139099
  C      -0.107765      0.494158     -1.436312
  C      -1.979098      0.101019      0.149122
  C      -1.646132     -1.374627     -1.766267
  C      -2.357474     -1.055181     -0.665725
  H      -0.541126      1.624122      0.224866
  H      -0.020102     -0.858500     -2.967203
  H      -3.219116     -1.633459     -0.359604
  H      -1.891307     -2.218066     -2.401791
30
Coordinates from ORCA-job phenylurea_uracil_opt_freq E -870.714207543123
  N       2.471808      2.410447      0.260891
  C       1.644258      2.463767      1.349501
  O       0.432169      2.715592      1.250243
  N       2.210835      2.290817      2.597818
  C       3.473619      1.693502      2.882486
  C       3.817608      0.438887      2.351193
  C       5.067239     -0.120981      2.636386
  C       5.970740      0.545960      3.467359
  C       5.626408      1.788334      4.006882
  C       4.391842      2.366331      3.703726
  H       1.997519      2.195416     -0.615686
  H       3.402063      2.032022      0.368470
  H       1.537118      2.392705      3.345860
  H       3.105963     -0.087326      1.722338
  H       5.325534     -1.090338      2.218791
  H       6.934755      0.098628      3.692094
  H       6.323952      2.318354      4.649357
  H       4.126210      3.344275      4.095035
  O       0.818043      1.119790     -1.873881
  O      -2.559172      0.421876      1.173956
  N      -0.887791      0.791112     -0.354133
  N      -0.634088     -0.608122     -2.195608
  C      -0.164202      0.487088     -1.482345
  C      -2.008056      0.087048      0.133923
  C      -1.736485     -1.348388     -1.819245
  C      -2.425631     -1.042625     -0.698538
  H      -0.541125      1.585119      0.215262
  H      -0.123425     -0.830866     -3.038485
  H      -3.290256     -1.613275     -0.387037
  H      -2.000452     -2.172683     -2.472612
30
Coordinates from ORCA-job phenylurea_uracil_opt_freq E -870.714788842864
  N       2.436630      2.286583      0.255195
  C       1.649797      2.403294      1.366600
  O       0.434722      2.648926      1.296116
  N       2.257755      2.308377      2.605161
  C       3.521342      1.720655      2.904265
  C       3.880097      0.468776      2.373398
  C       5.128837     -0.084561      2.671106
  C       6.017190      0.583281      3.518009
  C       5.657109      1.820898      4.058657
  C       4.424532      2.394348      3.740174
  H       1.937704      2.049806     -0.602548
  H       3.377748      1.933196      0.345987
  H       1.606420      2.470338      3.363842
  H       3.174885     -0.057322      1.735768
  H       5.396735     -1.051051      2.252674
  H       6.980739      0.140962      3.754026
  H       6.343116      2.350680      4.713610
  H       4.147020      3.369856      4.129951
  O       0.778412      1.111768     -1.927392
  O      -2.548645      0.394964      1.170532
  N      -0.900039      0.771019     -0.379572
  N      -0.703978     -0.588943     -2.257682
  C      -0.204209      0.482761     -1.528242
  C      -2.022966      0.071919      0.114177
  C      -1.809603     -1.321041     -1.876651
  C      -2.473485     -1.031828     -0.735867
  H      -0.531481      1.545836      0.203992
  H      -0.213156     -0.798219     -3.115705
  H      -3.340065     -1.597288     -0.420510
  H      -2.096164     -2.125524     -2.545068
30
Coordinates from ORCA-job phenylurea_uracil_opt_freq E -870.713548041577
  N       2.410365      2.159772      0.225652
  C       1.651679      2.330087      1.333898
  O       0.429396      2.521629      1.275775
  N       2.289683      2.307505      2.564180
  C       3.554710      1.749076      2.908634
  C       3.913054      0.490311      2.382543
  C       5.147920     -0.075529      2.681539
  C       6.030738      0.595928      3.542004
  C       5.663561      1.834040      4.081504
  C       4.434708      2.417481      3.756025
  H       1.926509      1.996395     -0.645498
  H       3.386632      1.923091      0.283291
  H       1.631825      2.466702      3.322059
  H       3.186019     -0.024858      1.738042
  H       5.411054     -1.044244      2.264803
  H       6.993438      0.160346      3.792393
  H       6.348710      2.349574      4.748492
  H       4.145744      3.391796      4.142983
  O       0.754928      1.150768     -1.907575
  O      -2.583133      0.413322      1.169583
  N      -0.928128      0.770310     -0.366338
  N      -0.704365     -0.564270     -2.241322
  C      -0.222093      0.517685     -1.511618
  C      -2.064430      0.062556      0.121977
  C      -1.809664     -1.290530     -1.873559
  C      -2.505724     -1.027127     -0.745161
  H      -0.557043      1.517969      0.245443
  H      -0.196856     -0.739978     -3.097476
  H      -3.371013     -1.599965     -0.441418
  H      -2.061227     -2.087377     -2.566854
30
Coordinates from ORCA-job phenylurea_uracil_opt_freq E -870.715266335719
  N       2.438832      2.242115      0.243365
  C       1.665841      2.368472      1.356959
  O       0.444876      2.582009      1.301179
  N       2.295120      2.317901      2.589149
  C       3.552866      1.738797      2.909575
  C       3.910556      0.482436      2.387032
  C       5.151992     -0.077009      2.693394
  C       6.034916      0.590848      3.549380
  C       5.670355      1.828846      4.087457
  C       4.443195      2.408752      3.757779
  H       1.951284      2.064531     -0.633405
  H       3.404275      1.959621      0.313403
  H       1.653827      2.511445      3.346618
  H       3.199492     -0.040595      1.746341
  H       5.417909     -1.045943      2.279469
  H       6.995780      0.149270      3.796853
  H       6.352467      2.352021      4.751783
  H       4.161604      3.384502      4.144574
  O       0.748324      1.114184     -1.933259
  O      -2.574381      0.375210      1.166297
  N      -0.926375      0.749981     -0.380942
  N      -0.737118     -0.583156     -2.272137
  C      -0.233289      0.483830     -1.534530
  C      -2.057135      0.049074      0.108356
  C      -1.843225     -1.312735     -1.896601
  C      -2.511121     -1.041261     -0.754398
  H      -0.554562      1.508342      0.220439
  H      -0.247205     -0.772412     -3.135442
  H      -3.377688     -1.609505     -0.444659
  H      -2.124414     -2.107106     -2.580028
30
Coordinates from ORCA-job phenylurea_uracil_opt_freq E -870.715558092995
  N       2.417016      2.158942      0.252216
  C       1.668726      2.329693      1.376590
  O       0.444362      2.529782      1.339335
  N       2.327154      2.340144      2.596925
  C       3.580957      1.758705      2.918193
  C       3.943979      0.502867      2.399754
  C       5.185003     -0.054146      2.714517
  C       6.060881      0.612570      3.577558
  C       5.689958      1.849175      4.114688
  C       4.465230      2.428256      3.775658
  H       1.913680      1.948778     -0.609088
  H       3.389047      1.897428      0.311742
  H       1.707853      2.586704      3.358676
  H       3.240859     -0.020807      1.755070
  H       5.455437     -1.022494      2.302144
  H       7.020243      0.171054      3.830829
  H       6.364726      2.374301      4.785027
  H       4.183797      3.403817      4.163005
  O       0.724845      1.112509     -1.963587
  O      -2.570684      0.348979      1.160677
  N      -0.932246      0.735081     -0.395730
  N      -0.781203     -0.566313     -2.315922
  C      -0.258167      0.482900     -1.564558
  C      -2.064190      0.037595      0.093162
  C      -1.887291     -1.295286     -1.936578
  C      -2.535398     -1.036750     -0.780540
  H      -0.551560      1.485311      0.209578
  H      -0.306319     -0.746302     -3.189442
  H      -3.402708     -1.603156     -0.469249
  H      -2.186986     -2.076871     -2.626651
30
Coordinates from ORCA-job phenylurea_uracil_opt_freq E -870.715585655859
  N       2.418654      2.104000      0.257469
  C       1.687883      2.294345      1.387165
  O       0.460975      2.477421      1.366403
  N       2.368813      2.351702      2.595663
  C       3.619493      1.776890      2.934911
  C       3.991109      0.520537      2.421566
  C       5.230149     -0.033057      2.747081
  C       6.095005      0.635074      3.620823
  C       5.712603      1.868920      4.156626
  C       4.490540      2.446101      3.805268
  H       1.913829      1.920852     -0.608104
  H       3.401904      1.888352      0.298709
  H       1.768091      2.649099      3.354569
  H       3.293593     -0.004692      1.770691
  H       5.506460     -1.000413      2.336167
  H       7.053477      0.197677      3.884134
  H       6.378474      2.393115      4.836558
  H       4.201495      3.420311      4.190779
  O       0.686366      1.092839     -2.002500
  O      -2.572659      0.314995      1.155060
  N      -0.951183      0.703594     -0.417201
  N      -0.848003     -0.561778     -2.364539
  C      -0.298883      0.467580     -1.600894
  C      -2.087815      0.012048      0.075714
  C      -1.956349     -1.283120     -1.980820
  C      -2.585122     -1.039667     -0.810392
  H      -0.555954      1.437047      0.200413
  H      -0.387642     -0.728758     -3.248402
  H      -3.454645     -1.601069     -0.496499
  H      -2.273658     -2.047481     -2.682416
30
Coordinates from ORCA-job phenylurea_uracil_opt_freq E -870.715799125621
  N       2.421085      2.078257      0.257871
  C       1.692174      2.298329      1.384517
  O       0.465083      2.487778      1.359718
  N       2.378556      2.374920      2.593596
  C       3.625938      1.781794      2.922418
  C       3.994496      0.521721      2.418699
  C       5.230707     -0.036009      2.757228
  C       6.093466      0.632255      3.630661
  C       5.715343      1.870706      4.157619
  C       4.496649      2.451387      3.799415
  H       1.910164      1.888113     -0.603241
  H       3.413238      1.905586      0.293222
  H       1.786350      2.689213      3.350818
  H       3.298636      0.001377      1.771389
  H       5.508978     -1.007043      2.356937
  H       7.048238      0.190500      3.900641
  H       6.375445      2.399832      4.839560
  H       4.222606      3.427172      4.190467
  O       0.670762      1.102269     -1.985889
  O      -2.579063      0.273287      1.163476
  N      -0.953875      0.687426     -0.403573
  N      -0.855399     -0.550249     -2.370578
  C      -0.311105      0.470443     -1.597194
  C      -2.090835     -0.003047      0.077487
  C      -1.964917     -1.277461     -1.997574
  C      -2.587724     -1.044728     -0.822450
  H      -0.548244      1.409240      0.212301
  H      -0.398904     -0.705349     -3.258436
  H      -3.458239     -1.608727     -0.515250
  H      -2.292611     -2.036527     -2.699853
30
Coordinates from ORCA-job phenylurea_uracil_opt_freq E -870.715943115009
  N       2.433025      2.069375      0.256715
  C       1.697176      2.296387      1.376750
  O       0.470337      2.481358      1.342822
  N       2.375951      2.370683      2.589266
  C       3.622349      1.780246      2.922113
  C       3.989688      0.521022      2.417820
  C       5.226331     -0.035489      2.753553
  C       6.090166      0.634080      3.625694
  C       5.711263      1.872238      4.153994
  C       4.491702      2.451666      3.796642
  H       1.928733      1.885239     -0.609017
  H       3.426659      1.905916      0.296624
  H       1.773898      2.668019      3.345442
  H       3.293289     -0.002161      1.771236
  H       5.503700     -1.006400      2.352190
  H       7.046051      0.193732      3.893908
  H       6.372883      2.400955      4.834720
  H       4.213551      3.427485      4.185129
  O       0.674825      1.110338     -1.974525
  O      -2.588853      0.277398      1.164296
  N      -0.958272      0.690535     -0.395793
  N      -0.849551     -0.545588     -2.361636
  C      -0.308417      0.477121     -1.587216
  C      -2.095198     -0.003177      0.081891
  C      -1.958301     -1.275296     -1.991464
  C      -2.586957     -1.045440     -0.818906
  H      -0.562317      1.417590      0.221434
  H      -0.389764     -0.699151     -3.248243
  H      -3.456950     -1.611913     -0.514938
  H      -2.279999     -2.034303     -2.696498
30
Coordinates from ORCA-job phenylurea_uracil_opt_freq E -870.716083410674
  N       2.422890      2.034635      0.254270
  C       1.698860      2.286198      1.375113
  O       0.472705      2.469773      1.348978
  N       2.387323      2.373049      2.579744
  C       3.632676      1.783254      2.919823
  C       3.999274      0.521513      2.421946
  C       5.233244     -0.034816      2.763613
  C       6.094711      0.638309      3.636571
  C       5.713822      1.878834      4.159436
  C       4.496285      2.458145      3.794331
  H       1.912623      1.873405     -0.611329
  H       3.421687      1.904991      0.278728
  H       1.788051      2.678701      3.335972
  H       3.303847     -0.005369      1.775096
  H       5.509786     -1.007883      2.366735
  H       7.049589      0.199215      3.910193
  H       6.374070      2.408401      4.840772
  H       4.213801      3.435692      4.175685
  O       0.674239      1.114475     -1.966916
  O      -2.590875      0.265641      1.167280
  N      -0.960845      0.681913     -0.390142
  N      -0.855460     -0.536291     -2.365367
  C      -0.311413      0.480649     -1.584123
  C      -2.099218     -0.012913      0.083477
  C      -1.965599     -1.265752     -1.999915
  C      -2.595280     -1.045318     -0.825639
  H      -0.565106      1.406589      0.232074
  H      -0.395668     -0.682521     -3.253383
  H      -3.466192     -1.612598     -0.526060
  H      -2.286827     -2.017455     -2.712959
30
Coordinates from ORCA-job phenylurea_uracil_opt_freq E -870.716261081088
  N       2.421625      1.958493      0.256248
  C       1.709892      2.254094      1.372802
  O       0.483194      2.434326      1.352803
  N       2.412556      2.381685      2.565317
  C       3.655884      1.793655      2.917095
  C       4.025180      0.528343      2.431348
  C       5.256666     -0.023740      2.788137
  C       6.110147      0.655126      3.664553
  C       5.723067      1.897765      4.177759
  C       4.508774      2.473678      3.797313
  H       1.905126      1.826700     -0.610853
  H       3.426991      1.901174      0.259300
  H       1.816529      2.699751      3.318796
  H       3.334459     -0.005125      1.783793
  H       5.536237     -0.999537      2.400043
  H       7.062912      0.218456      3.949094
  H       6.376886      2.430436      4.862850
  H       4.219029      3.452918      4.168770
  O       0.659131      1.117106     -1.960765
  O      -2.594134      0.229478      1.173283
  N      -0.969137      0.660035     -0.383789
  N      -0.886220     -0.515472     -2.384364
  C      -0.330119      0.482777     -1.586876
  C      -2.111045     -0.033389      0.081594
  C      -1.999479     -1.244197     -2.027213
  C      -2.621074     -1.043397     -0.844740
  H      -0.569116      1.377354      0.246091
  H      -0.433051     -0.646991     -3.278136
  H      -3.494380     -1.610520     -0.552117
  H      -2.329530     -1.978517     -2.754133
30
Coordinates from ORCA-job phenylurea_uracil_opt_freq E -870.716461661169
  N       2.418398      1.855560      0.261227
  C       1.725186      2.214411      1.371823
  O       0.497765      2.393897      1.364416
  N       2.446234      2.391652      2.545098
  C       3.687221      1.805000      2.911091
  C       4.062196      0.534066      2.444535
  C       5.289490     -0.011287      2.827115
  C       6.130294      0.678151      3.707255
  C       5.735345      1.926233      4.200932
  C       4.525673      2.495557      3.797341
  H       1.888532      1.768199     -0.604486
  H       3.424359      1.898034      0.230222
  H       1.860280      2.737721      3.296161
  H       3.381203     -0.009637      1.795284
  H       5.574690     -0.991574      2.454567
  H       7.079130      0.245130      4.009970
  H       6.378818      2.466474      4.889878
  H       4.227517      3.478067      4.153286
  O       0.638875      1.114543     -1.954458
  O      -2.586820      0.165516      1.185783
  N      -0.974656      0.625286     -0.375902
  N      -0.932687     -0.484879     -2.415564
  C      -0.355513      0.480437     -1.593472
  C      -2.120147     -0.066000      0.079640
  C      -2.051838     -1.210317     -2.069079
  C      -2.655615     -1.039024     -0.872538
  H      -0.561679      1.327410      0.265059
  H      -0.491574     -0.596224     -3.318024
  H      -3.533232     -1.603621     -0.588088
  H      -2.400447     -1.916316     -2.815072
30
Coordinates from ORCA-job phenylurea_uracil_opt_freq E -870.716580599227
  N       2.424367      1.788207      0.265726
  C       1.737289      2.181881      1.371789
  O       0.509078      2.360537      1.368617
  N       2.465214      2.392688      2.534591
  C       3.706690      1.812204      2.910341
  C       4.090672      0.539544      2.454603
  C       5.316777      0.002163      2.854135
  C       6.146927      0.699505      3.737362
  C       5.743497      1.949128      4.219154
  C       4.535478      2.510462      3.801040
  H       1.889981      1.720256     -0.600413
  H       3.426630      1.887433      0.217238
  H       1.882871      2.747886      3.283496
  H       3.418390     -0.011612      1.802567
  H       5.609083     -0.979449      2.490666
  H       7.093992      0.270857      4.051670
  H       6.378368      2.495868      4.910947
  H       4.229402      3.493696      4.148262
  O       0.623150      1.106793     -1.959326
  O      -2.577866      0.124082      1.193155
  N      -0.977211      0.602856     -0.375729
  N      -0.971353     -0.463466     -2.440797
  C      -0.374631      0.475113     -1.603165
  C      -2.125028     -0.085580      0.076880
  C      -2.095126     -1.184138     -2.097517
  C      -2.681858     -1.032095     -0.890245
  H      -0.552750      1.293138      0.271679
  H      -0.541406     -0.563689     -3.349796
  H      -3.562961     -1.592486     -0.608195
  H      -2.460665     -1.869317     -2.854732
30
Coordinates from ORCA-job phenylurea_uracil_opt_freq E -870.716696245020
  N       2.430136      1.769886      0.261935
  C       1.740581      2.168396      1.370269
  O       0.512293      2.348771      1.366329
  N       2.464804      2.383114      2.533212
  C       3.709191      1.809103      2.910236
  C       4.101823      0.537190      2.459710
  C       5.328291      0.006288      2.868447
  C       6.152249      0.711233      3.751041
  C       5.743641      1.962964      4.223047
  C       4.534382      2.516313      3.798481
  H       1.900121      1.703709     -0.608325
  H       3.432462      1.880723      0.212654
  H       1.882558      2.734286      3.284123
  H       3.437315     -0.019892      1.805245
  H       5.626690     -0.975633      2.510872
  H       7.099180      0.286743      4.071461
  H       6.373858      2.517119      4.913181
  H       4.223443      3.499952      4.140355
  O       0.620898      1.096575     -1.963496
  O      -2.564014      0.102462      1.201903
  N      -0.972401      0.594368     -0.374345
  N      -0.989628     -0.450701     -2.452546
  C      -0.378705      0.468719     -1.606500
  C      -2.119923     -0.093152      0.079574
  C      -2.116624     -1.167352     -2.108080
  C      -2.690326     -1.025079     -0.894152
  H      -0.539994      1.276817      0.275266
  H      -0.566976     -0.548723     -3.364992
  H      -3.573609     -1.581456     -0.610767
  H      -2.494716     -1.840277     -2.870136
30
Coordinates from ORCA-job phenylurea_uracil_opt_freq E -870.716788548831
  N       2.433315      1.732347      0.265903
  C       1.746425      2.143137      1.372012
  O       0.517517      2.316890      1.371053
  N       2.472883      2.373564      2.530232
  C       3.720958      1.810614      2.912428
  C       4.127178      0.539982      2.468870
  C       5.353486      0.018033      2.889668
  C       6.167462      0.732093      3.773811
  C       5.748571      1.983820      4.235741
  C       4.538367      2.526932      3.801352
  H       1.905405      1.666976     -0.605333
  H       3.433305      1.859444      0.210566
  H       1.890633      2.722446      3.281584
  H       3.472832     -0.023894      1.810221
  H       5.660876     -0.963499      2.538838
  H       7.114580      0.314640      4.102815
  H       6.370872      2.546252      4.926357
  H       4.219848      3.509991      4.138070
  O       0.613225      1.080453     -1.980463
  O      -2.550005      0.080529      1.205971
  N      -0.970324      0.579832     -0.381188
  N      -1.022864     -0.434443     -2.474939
  C      -0.389575      0.459411     -1.620199
  C      -2.119802     -0.103307      0.076423
  C      -2.154040     -1.143545     -2.127213
  C      -2.711011     -1.014367     -0.904636
  H      -0.526045      1.249471      0.272537
  H      -0.610658     -0.527374     -3.392568
  H      -3.597351     -1.564453     -0.618373
  H      -2.549065     -1.799510     -2.895537
30
Coordinates from ORCA-job phenylurea_uracil_opt_freq E -870.716896951236
  N       2.437334      1.720782      0.262565
  C       1.746719      2.123236      1.368651
  O       0.517251      2.289069      1.365451
  N       2.468568      2.352635      2.529735
  C       3.721879      1.802664      2.912626
  C       4.141930      0.535213      2.476021
  C       5.368666      0.022315      2.905236
  C       6.174741      0.748326      3.787415
  C       5.746630      2.001832      4.236679
  C       4.533336      2.533093      3.795159
  H       1.915360      1.652788     -0.611229
  H       3.437879      1.844650      0.210814
  H       1.879959      2.683743      3.284182
  H       3.498974     -0.036276      1.814062
  H       5.684874     -0.958925      2.561687
  H       7.123254      0.339545      4.123269
  H       6.362828      2.575774      4.923288
  H       4.208752      3.516176      4.126031
  O       0.617942      1.064834     -1.989616
  O      -2.534713      0.072556      1.213070
  N      -0.963431      0.573884     -0.382376
  N      -1.042061     -0.419564     -2.486575
  C      -0.388789      0.452673     -1.624644
  C      -2.114289     -0.105221      0.078997
  C      -2.175970     -1.122775     -2.134569
  C      -2.720505     -1.002325     -0.905854
  H      -0.510379      1.235393      0.273173
  H      -0.636051     -0.510413     -3.407104
  H      -3.609007     -1.546968     -0.615775
  H      -2.584683     -1.766249     -2.906368
30
Coordinates from ORCA-job phenylurea_uracil_opt_freq E -870.716989668959
  N       2.441811      1.697938      0.262063
  C       1.750805      2.101243      1.364553
  O       0.520781      2.260073      1.361539
  N       2.472155      2.338718      2.524634
  C       3.728120      1.800271      2.913452
  C       4.161764      0.534655      2.484486
  C       5.388659      0.030929      2.922698
  C       6.185619      0.766417      3.805514
  C       5.746819      2.019439      4.244684
  C       4.532198      2.540655      3.794057
  H       1.920763      1.629436     -0.611707
  H       3.442218      1.819967      0.210149
  H       1.878653      2.664719      3.278321
  H       3.531017     -0.045007      1.818691
  H       5.713380     -0.949602      2.585302
  H       7.134926      0.366034      4.149108
  H       6.355541      2.602601      4.930213
  H       4.202347      3.523644      4.119836
  O       0.616452      1.050560     -1.999557
  O      -2.521151      0.057760      1.217859
  N      -0.959831      0.560520     -0.385962
  N      -1.068602     -0.401859     -2.500314
  C      -0.394603      0.447167     -1.632922
  C      -2.113124     -0.113276      0.078307
  C      -2.204441     -1.100250     -2.146794
  C      -2.737014     -0.992151     -0.911581
  H      -0.495829      1.209964      0.274012
  H      -0.669184     -0.486019     -3.424416
  H      -3.627105     -1.532704     -0.618775
  H      -2.626145     -1.729376     -2.923450
30
Coordinates from ORCA-job phenylurea_uracil_opt_freq E -870.717098237354
  N       2.448543      1.670831      0.259911
  C       1.756327      2.073337      1.359174
  O       0.525517      2.224867      1.355963
  N       2.475895      2.321840      2.518701
  C       3.733579      1.795647      2.914228
  C       4.181500      0.533121      2.494035
  C       5.409341      0.040336      2.940689
  C       6.196366      0.786464      3.823912
  C       5.745738      2.039322      4.251352
  C       4.529233      2.548599      3.791082
  H       1.925015      1.596677     -0.611865
  H       3.449477      1.785526      0.208178
  H       1.875818      2.643301      3.269303
  H       3.565390     -0.055136      1.824045
  H       5.743375     -0.939073      2.609282
  H       7.146779      0.395829      4.175493
  H       6.346080      2.633338      4.934968
  H       4.193515      3.531732      4.110345
  O       0.617135      1.041621     -2.004140
  O      -2.511158      0.043566      1.222305
  N      -0.957544      0.548736     -0.386429
  N      -1.095896     -0.380109     -2.514069
  C      -0.400508      0.447341     -1.638182
  C      -2.113660     -0.119713      0.077751
  C      -2.231380     -1.076832     -2.159094
  C      -2.752651     -0.981969     -0.917264
  H      -0.484691      1.191256      0.278106
  H      -0.701499     -0.454869     -3.441329
  H      -3.643220     -1.520716     -0.622709
  H      -2.665418     -1.692408     -2.939741
30
Coordinates from ORCA-job phenylurea_uracil_opt_freq E -870.717179746442
  N       2.458952      1.649786      0.252082
  C       1.765284      2.053952      1.347998
  O       0.534291      2.206805      1.343423
  N       2.481602      2.310378      2.507833
  C       3.739075      1.793029      2.912401
  C       4.199501      0.531000      2.501540
  C       5.427863      0.049094      2.959488
  C       6.204723      0.803686      3.843981
  C       5.743530      2.055678      4.260310
  C       4.527107      2.554546      3.789160
  H       1.931932      1.572527     -0.617605
  H       3.461102      1.751360      0.203029
  H       1.875727      2.638637      3.251830
  H       3.597216     -0.067475      1.827573
  H       5.770170     -0.929580      2.634380
  H       7.155050      0.421206      4.204542
  H       6.335266      2.658242      4.943969
  H       4.186021      3.537981      4.101727
  O       0.613424      1.032847     -2.000803
  O      -2.499691      0.014470      1.230029
  N      -0.955763      0.528921     -0.383578
  N      -1.122241     -0.355978     -2.520389
  C      -0.409362      0.447396     -1.640539
  C      -2.114618     -0.134907      0.079053
  C      -2.258519     -1.051765     -2.170760
  C      -2.770287     -0.974885     -0.923491
  H      -0.473698      1.158165      0.286474
  H      -0.732591     -0.417861     -3.450802
  H      -3.661601     -1.513280     -0.630763
  H      -2.702465     -1.651513     -2.958090
30
Coordinates from ORCA-job phenylurea_uracil_opt_freq E -870.717272751816
  N       2.465283      1.616206      0.249847
  C       1.774645      2.032399      1.344073
  O       0.543510      2.187718      1.341544
  N       2.491449      2.302025      2.500152
  C       3.749262      1.791504      2.911758
  C       4.218750      0.530829      2.507961
  C       5.447231      0.057968      2.976033
  C       6.214630      0.819711      3.862366
  C       5.744490      2.071573      4.270008
  C       4.528450      2.561433      3.789369
  H       1.931889      1.537127     -0.616435
  H       3.467280      1.718060      0.197098
  H       1.885810      2.644426      3.237603
  H       3.625355     -0.072397      1.830319
  H       5.796454     -0.919884      2.655682
  H       7.164577      0.443652      4.230546
  H       6.328877      2.680247      4.954582
  H       4.179543      3.544383      4.094949
  O       0.606961      1.033096     -1.997918
  O      -2.498024     -0.011039      1.232470
  N      -0.958951      0.515701     -0.381227
  N      -1.146242     -0.337603     -2.532209
  C      -0.421119      0.451682     -1.643428
  C      -2.119859     -0.146333      0.077202
  C      -2.282454     -1.033367     -2.184523
  C      -2.785736     -0.970260     -0.932477
  H      -0.472576      1.141390      0.292603
  H      -0.760423     -0.387598     -3.465065
  H      -3.677652     -1.509100     -0.642563
  H      -2.734413     -1.621084     -2.976317
30
Coordinates from ORCA-job phenylurea_uracil_opt_freq E -870.717354440715
  N       2.472624      1.596065      0.246110
  C       1.782686      2.019887      1.339951
  O       0.551645      2.180656      1.336022
  N       2.497615      2.295187      2.495090
  C       3.756928      1.790533      2.909792
  C       4.232552      0.530561      2.509817
  C       5.461178      0.064711      2.986305
  C       6.221119      0.830996      3.874267
  C       5.744595      2.082233      4.277386
  C       4.529059      2.565251      3.790490
  H       1.937293      1.511110     -0.618896
  H       3.475497      1.691954      0.195204
  H       1.893049      2.651404      3.225641
  H       3.642270     -0.075487      1.830134
  H       5.815471     -0.912469      2.669275
  H       7.170579      0.458871      4.247636
  H       6.324001      2.693560      4.963815
  H       4.171312      3.546635      4.090993
  O       0.599931      1.034464     -1.992089
  O      -2.500011     -0.032661      1.234946
  N      -0.962984      0.505974     -0.377482
  N      -1.159980     -0.325897     -2.536791
  C      -0.430950      0.455368     -1.643092
  C      -2.125386     -0.155676      0.077037
  C      -2.298107     -1.020384     -2.192751
  C      -2.797068     -0.967225     -0.938725
  H      -0.476542      1.129087      0.297495
  H      -0.776913     -0.367169     -3.471212
  H      -3.690602     -1.505846     -0.653456
  H      -2.753861     -1.599230     -2.988910
30
Coordinates from ORCA-job phenylurea_uracil_opt_freq E -870.717427534226
  N       2.477290      1.569174      0.243025
  C       1.790653      2.004100      1.336373
  O       0.560062      2.170649      1.332265
  N       2.505631      2.282289      2.489377
  C       3.768682      1.787881      2.906325
  C       4.253582      0.529469      2.511750
  C       5.481240      0.072702      3.000217
  C       6.230032      0.846509      3.890601
  C       5.744015      2.096800      4.287178
  C       4.528949      2.570256      3.791383
  H       1.941329      1.485441     -0.621624
  H       3.480396      1.664682      0.192015
  H       1.905635      2.657942      3.213389
  H       3.667522     -0.079948      1.829613
  H       5.843249     -0.903533      2.688877
  H       7.178771      0.480465      4.271734
  H       6.316245      2.711991      4.976126
  H       4.158160      3.548857      4.085238
  O       0.592376      1.030763     -1.989206
  O      -2.498858     -0.059034      1.238108
  N      -0.966008      0.492396     -0.375115
  N      -1.177172     -0.313537     -2.544641
  C      -0.441894      0.454874     -1.644769
  C      -2.130587     -0.167387      0.076777
  C      -2.320609     -1.001766     -2.203368
  C      -2.812778     -0.960253     -0.946608
  H      -0.475718      1.108685      0.301356
  H      -0.799352     -0.346266     -3.481430
  H      -3.710098     -1.494932     -0.665742
  H      -2.783747     -1.566804     -3.005219
30
Coordinates from ORCA-job phenylurea_uracil_opt_freq E -870.717486054144
  N       2.482932      1.552222      0.240308
  C       1.795679      1.989091      1.332645
  O       0.565298      2.157765      1.325150
  N       2.508337      2.265254      2.487072
  C       3.776778      1.784745      2.903473
  C       4.272062      0.529531      2.511608
  C       5.499897      0.081370      3.007128
  C       6.238245      0.861452      3.900490
  C       5.741592      2.108533      4.295042
  C       4.525458      2.572863      3.793829
  H       1.950272      1.464341     -0.625678
  H       3.487001      1.639818      0.193936
  H       1.909410      2.650119      3.205841
  H       3.689080     -0.082677      1.828411
  H       5.870191     -0.892791      2.699061
  H       7.187417      0.501874      4.286664
  H       6.307127      2.726350      4.987121
  H       4.141895      3.547317      4.084973
  O       0.588631      1.024457     -1.988665
  O      -2.501306     -0.068899      1.239532
  N      -0.968944      0.484629     -0.374119
  N      -1.187512     -0.307199     -2.548533
  C      -0.448380      0.452373     -1.645082
  C      -2.136635     -0.171043      0.076697
  C      -2.337285     -0.986970     -2.208958
  C      -2.826393     -0.950785     -0.951288
  H      -0.475776      1.096109      0.302538
  H      -0.813880     -0.336099     -3.487000
  H      -3.728182     -1.479565     -0.673409
  H      -2.806010     -1.541724     -3.014783
30
Coordinates from ORCA-job phenylurea_uracil_opt_freq E -870.717553623257
  N       2.486073      1.529257      0.239010
  C       1.800192      1.969928      1.329741
  O       0.570232      2.139893      1.321329
  N       2.512521      2.244197      2.484358
  C       3.786653      1.780867      2.900538
  C       4.295272      0.530211      2.511848
  C       5.523485      0.092358      3.014183
  C       6.248793      0.879807      3.912170
  C       5.737957      2.121917      4.305058
  C       4.520190      2.575474      3.797587
  H       1.955372      1.442646     -0.627889
  H       3.490361      1.613690      0.193395
  H       1.916064      2.642759      3.197999
  H       3.718670     -0.086334      1.827814
  H       5.904623     -0.878559      2.709255
  H       7.198863      0.528950      4.304139
  H       6.294141      2.743230      5.001557
  H       4.123087      3.544801      4.087652
  O       0.586630      1.012238     -1.990710
  O      -2.502962     -0.075956      1.239670
  N      -0.970546      0.474046     -0.375191
  N      -1.200059     -0.301328     -2.554266
  C      -0.453905      0.445424     -1.647209
  C      -2.143079     -0.173711      0.075149
  C      -2.358211     -0.968803     -2.216337
  C      -2.843838     -0.937178     -0.957377
  H      -0.470809      1.077939      0.302739
  H      -0.832100     -0.327631     -3.494939
  H      -3.751475     -1.456873     -0.681253
  H      -2.835195     -1.510794     -3.026018
30
Coordinates from ORCA-job phenylurea_uracil_opt_freq E -870.717616692046
  N       2.490446      1.511072      0.237862
  C       1.803219      1.950719      1.326557
  O       0.573543      2.120945      1.315727
  N       2.513101      2.221544      2.483841
  C       3.792931      1.776813      2.899119
  C       4.315733      0.532450      2.510210
  C       5.546500      0.105138      3.013790
  C       6.259633      0.897798      3.917583
  C       5.732908      2.131948      4.314234
  C       4.511788      2.574948      3.804500
  H       1.962036      1.423222     -0.630139
  H       3.495097      1.589846      0.194002
  H       1.915862      2.627053      3.192489
  H       3.745738     -0.089242      1.827084
  H       5.939243     -0.860863      2.708237
  H       7.212115      0.556292      4.311954
  H       6.279352      2.755414      5.016515
  H       4.102452      3.537862      4.098709
  O       0.588537      0.997718     -1.991659
  O      -2.511691     -0.066680      1.236990
  N      -0.972910      0.468320     -0.376292
  N      -1.206313     -0.301350     -2.555818
  C      -0.455346      0.436797     -1.646995
  C      -2.152349     -0.167862      0.072671
  C      -2.373332     -0.955158     -2.220401
  C      -2.860414     -0.921230     -0.962061
  H      -0.468373      1.067529      0.302547
  H      -0.842004     -0.329218     -3.497788
  H      -3.774387     -1.430503     -0.687322
  H      -2.856115     -1.488856     -3.032142
30
Coordinates from ORCA-job phenylurea_uracil_opt_freq E -870.717688354077
  N       2.494210      1.483269      0.238896
  C       1.807350      1.926968      1.324879
  O       0.578179      2.099407      1.313640
  N       2.515543      2.197995      2.483368
  C       3.800090      1.772000      2.899628
  C       4.339841      0.535896      2.508489
  C       5.574688      0.121881      3.012126
  C       6.273796      0.919537      3.923353
  C       5.727426      2.142965      4.326120
  C       4.501937      2.573173      3.814878
  H       1.965240      1.397784     -0.629158
  H       3.498694      1.561437      0.192643
  H       1.918303      2.615079      3.185890
  H       3.779708     -0.093197      1.826250
  H       5.981505     -0.837317      2.703808
  H       7.229727      0.589670      4.319265
  H       6.261446      2.769036      5.035656
  H       4.079841      3.528410      4.115961
  O       0.591091      0.979221     -1.992698
  O      -2.524259     -0.052718      1.231263
  N      -0.975931      0.461466     -0.378783
  N      -1.215029     -0.302141     -2.558926
  C      -0.457025      0.425571     -1.648204
  C      -2.164422     -0.159197      0.067494
  C      -2.391627     -0.940199     -2.226864
  C      -2.881022     -0.901794     -0.969235
  H      -0.465304      1.055264      0.301977
  H      -0.853886     -0.332530     -3.502013
  H      -3.802080     -1.398801     -0.695730
  H      -2.881034     -1.465670     -3.039969
30
Coordinates from ORCA-job phenylurea_uracil_opt_freq E -870.717780696327
  N       2.497402      1.455203      0.241323
  C       1.810120      1.902061      1.324941
  O       0.581580      2.079274      1.312483
  N       2.514792      2.171675      2.486345
  C       3.804239      1.764486      2.902909
  C       4.363545      0.540117      2.503504
  C       5.605886      0.142557      3.001819
  C       6.290879      0.943393      3.921732
  C       5.720993      2.151362      4.337873
  C       4.488306      2.566202      3.830317
  H       1.966776      1.370995     -0.626221
  H       3.501912      1.530437      0.192825
  H       1.916394      2.598171      3.181839
  H       3.813549     -0.098892      1.823937
  H       6.028963     -0.806968      2.685715
  H       7.252640      0.627435      4.314802
  H       6.241240      2.778882      5.056370
  H       4.052250      3.510963      4.144207
  O       0.597705      0.957445     -1.989869
  O      -2.549790     -0.018314      1.220037
  N      -0.981884      0.461452     -0.380800
  N      -1.216548     -0.310643     -2.557862
  C      -0.455229      0.412690     -1.646363
  C      -2.182586     -0.138719      0.059718
  C      -2.403893     -0.930606     -2.231201
  C      -2.902346     -0.878156     -0.977232
  H      -0.468091      1.053258      0.301344
  H      -0.853967     -0.348385     -3.500146
  H      -3.831751     -1.360833     -0.706467
  H      -2.896087     -1.454077     -3.043875
30
Coordinates from ORCA-job phenylurea_uracil_opt_freq E -870.717888666836
  N       2.500434      1.415365      0.247697
  C       1.814346      1.871532      1.328340
  O       0.586722      2.056892      1.314825
  N       2.515510      2.143185      2.491381
  C       3.809316      1.753976      2.909755
  C       4.393017      0.545345      2.497399
  C       5.645086      0.169920      2.989785
  C       6.313473      0.973720      3.919549
  C       5.714975      2.161437      4.353146
  C       4.473282      2.555820      3.851128
  H       1.966861      1.334913     -0.618975
  H       3.504824      1.490122      0.195633
  H       1.917294      2.583576      3.178471
  H       3.856215     -0.106844      1.819911
  H       6.087957     -0.766774      2.662696
  H       7.282699      0.675286      4.307841
  H       6.218637      2.790798      5.081831
  H       4.019974      3.487076      4.180544
  O       0.603684      0.930791     -1.987177
  O      -2.582815      0.025289      1.203335
  N      -0.991330      0.463602     -0.385642
  N      -1.221574     -0.321386     -2.559027
  C      -0.455884      0.397810     -1.647057
  C      -2.206202     -0.112121      0.047677
  C      -2.420353     -0.920781     -2.238203
  C      -2.929049     -0.849696     -0.988822
  H      -0.473296      1.052426      0.298004
  H      -0.854308     -0.368542     -3.499118
  H      -3.867702     -1.315961     -0.721456
  H      -2.914794     -1.444309     -3.049468
30
Coordinates from ORCA-job phenylurea_uracil_opt_freq E -870.718010712891
  N       2.500439      1.382861      0.255482
  C       1.815361      1.845047      1.335182
  O       0.588633      2.039586      1.319532
  N       2.512420      2.114650      2.500913
  C       3.810587      1.738798      2.918556
  C       4.418324      0.548161      2.488712
  C       5.681357      0.196468      2.972907
  C       6.335587      1.002380      3.910402
  C       5.709948      2.168634      4.364133
  C       4.457885      2.540700      3.871565
  H       1.964734      1.304603     -0.610420
  H       3.505093      1.454358      0.202752
  H       1.914381      2.562682      3.182160
  H       3.892373     -0.118037      1.814112
  H       6.143058     -0.726420      2.632655
  H       7.313254      0.721705      4.290577
  H       6.199240      2.799582      5.101197
  H       3.986840      3.457180      4.217151
  O       0.612191      0.905119     -1.980818
  O      -2.623391      0.083307      1.182311
  N      -1.003990      0.476523     -0.390607
  N      -1.219105     -0.337851     -2.556375
  C      -0.454718      0.385575     -1.645306
  C      -2.232247     -0.076229      0.034173
  C      -2.428090     -0.918612     -2.241698
  C      -2.951180     -0.821572     -0.999865
  H      -0.484030      1.064548      0.292913
  H      -0.840092     -0.398540     -3.491084
  H      -3.898434     -1.272870     -0.737374
  H      -2.919434     -1.449873     -3.049836
30
Coordinates from ORCA-job phenylurea_uracil_opt_freq E -870.718129641504
  N       2.502953      1.343350      0.265609
  C       1.819472      1.814526      1.343647
  O       0.593380      2.015625      1.325637
  N       2.513986      2.086806      2.509586
  C       3.815349      1.723444      2.927581
  C       4.448681      0.551321      2.482728
  C       5.720372      0.224817      2.964554
  C       6.358964      1.034178      3.908460
  C       5.707248      2.180100      4.377300
  C       4.446810      2.527854      3.890106
  H       1.967200      1.268554     -0.600697
  H       3.507600      1.417167      0.213321
  H       1.917041      2.543034      3.186423
  H       3.935759     -0.128262      1.808364
  H       6.200994     -0.684562      2.613946
  H       7.343572      0.771319      4.283332
  H       6.182161      2.814201      5.120980
  H       3.956010      3.429779      4.246431
  O       0.614843      0.878828     -1.978989
  O      -2.658256      0.129228      1.162082
  N      -1.019483      0.487541     -0.400168
  N      -1.227738     -0.348239     -2.559715
  C      -0.461135      0.375226     -1.649979
  C      -2.258162     -0.046003      0.019382
  C      -2.445550     -0.911895     -2.248976
  C      -2.977114     -0.794251     -1.012806
  H      -0.493598      1.068896      0.283725
  H      -0.837057     -0.420544     -3.488835
  H      -3.931732     -1.231950     -0.754018
  H      -2.935574     -1.447623     -3.055010
30
Coordinates from ORCA-job phenylurea_uracil_opt_freq E -870.718248234697
  N       2.499273      1.324996      0.274368
  C       1.816811      1.794019      1.355006
  O       0.590826      1.997128      1.336295
  N       2.510569      2.060301      2.522253
  C       3.815998      1.705612      2.935020
  C       4.469218      0.549773      2.476155
  C       5.748079      0.243211      2.953549
  C       6.376692      1.056385      3.899542
  C       5.706894      2.187528      4.380321
  C       4.438758      2.514735      3.900532
  H       1.964735      1.249956     -0.592264
  H       3.504096      1.399676      0.224829
  H       1.914490      2.512858      3.201165
  H       3.962362     -0.139325      1.804068
  H       6.242302     -0.655626      2.594437
  H       7.367363      0.807394      4.267817
  H       6.173870      2.824989      5.126058
  H       3.931321      3.404738      4.263651
  O       0.620885      0.859060     -1.972383
  O      -2.695612      0.181237      1.140972
  N      -1.037097      0.510955     -0.408190
  N      -1.223127     -0.362964     -2.556683
  C      -0.463916      0.371501     -1.649209
  C      -2.282577     -0.011368      0.005938
  C      -2.447762     -0.914850     -2.250646
  C      -2.992451     -0.772679     -1.023305
  H      -0.507743      1.086823      0.275319
  H      -0.815007     -0.450358     -3.477031
  H      -3.952657     -1.201183     -0.769643
  H      -2.929593     -1.462060     -3.053937
30
Coordinates from ORCA-job phenylurea_uracil_opt_freq E -870.718374384915
  N       2.504826      1.284245      0.285629
  C       1.822488      1.755494      1.365778
  O       0.596012      1.954260      1.347341
  N       2.517104      2.026388      2.530973
  C       3.826016      1.690226      2.941712
  C       4.505902      0.552929      2.475426
  C       5.789216      0.270217      2.956117
  C       6.400674      1.090401      3.905809
  C       5.708035      2.205748      4.391300
  C       4.434713      2.507815      3.910954
  H       1.973331      1.211866     -0.582816
  H       3.508804      1.371890      0.236877
  H       1.921203      2.479156      3.211083
  H       4.013382     -0.145323      1.801844
  H       6.301433     -0.616798      2.592661
  H       7.395605      0.858368      4.273651
  H       6.162262      2.849226      5.139654
  H       3.905647      3.384768      4.275255
  O       0.618177      0.832050     -1.971567
  O      -2.729167      0.215865      1.121019
  N      -1.060285      0.524389     -0.422451
  N      -1.239598     -0.366757     -2.563657
  C      -0.478818      0.366203     -1.657460
  C      -2.312088      0.014655     -0.010689
  C      -2.472594     -0.903258     -2.261914
  C      -3.023090     -0.745357     -1.039941
  H      -0.520795      1.084167      0.264418
  H      -0.819556     -0.466873     -3.477346
  H      -3.989571     -1.161920     -0.789922
  H      -2.952269     -1.451576     -3.065735
30
Coordinates from ORCA-job phenylurea_uracil_opt_freq E -870.718509634870
  N       2.499823      1.267724      0.296179
  C       1.817322      1.726365      1.381383
  O       0.589834      1.915333      1.368520
  N       2.515967      1.991131      2.545906
  C       3.831765      1.673183      2.947112
  C       4.532213      0.550958      2.474271
  C       5.820245      0.286046      2.950870
  C       6.420823      1.114105      3.900459
  C       5.712492      2.218751      4.389392
  C       4.433182      2.500842      3.913636
  H       1.969523      1.193942     -0.572412
  H       3.502887      1.365822      0.246715
  H       1.920029      2.430872      3.234001
  H       4.045863     -0.152007      1.803220
  H       6.345338     -0.591869      2.583831
  H       7.420091      0.896001      4.265083
  H       6.160635      2.868123      5.136265
  H       3.888140      3.367790      4.278671
  O       0.622899      0.810653     -1.961348
  O      -2.773739      0.266766      1.094921
  N      -1.086160      0.552084     -0.433043
  N      -1.234904     -0.379049     -2.560464
  C      -0.486317      0.366350     -1.654720
  C      -2.343395      0.049963     -0.028644
  C      -2.475720     -0.904041     -2.267949
  C      -3.042977     -0.721920     -1.057256
  H      -0.541426      1.099114      0.258582
  H      -0.797681     -0.498461     -3.463740
  H      -4.015198     -1.129499     -0.814382
  H      -2.944557     -1.462610     -3.071055
30
Coordinates from ORCA-job phenylurea_uracil_opt_freq E -870.718635756931
  N       2.506716      1.229986      0.307569
  C       1.821723      1.680274      1.394037
  O       0.592723      1.853791      1.387679
  N       2.523490      1.952101      2.555563
  C       3.844415      1.661991      2.951288
  C       4.566887      0.554907      2.479455
  C       5.857768      0.308774      2.956626
  C       6.443501      1.146597      3.907290
  C       5.717062      2.240643      4.392862
  C       4.433996      2.501546      3.915658
  H       1.976352      1.156342     -0.561149
  H       3.507374      1.348369      0.253154
  H       1.925038      2.382572      3.249031
  H       4.096162     -0.152148      1.806502
  H       6.397868     -0.559746      2.589363
  H       7.445454      0.944279      4.273690
  H       6.154870      2.898012      5.138908
  H       3.873598      3.359492      4.279002
  O       0.620429      0.784755     -1.951519
  O      -2.812892      0.298981      1.071707
  N      -1.111979      0.564120     -0.444393
  N      -1.246923     -0.378768     -2.564737
  C      -0.500698      0.363845     -1.657091
  C      -2.376336      0.074537     -0.047953
  C      -2.496541     -0.889511     -2.282609
  C      -3.074804     -0.693711     -1.079511
  H      -0.560454      1.092200      0.256625
  H      -0.802514     -0.514255     -3.462186
  H      -4.053310     -1.089894     -0.842943
  H      -2.961978     -1.447613     -3.087916
30
Coordinates from ORCA-job phenylurea_uracil_opt_freq E -870.718731810101
  N       2.508340      1.197088      0.315587
  C       1.823331      1.637941      1.405126
  O       0.593045      1.798604      1.408328
  N       2.529453      1.914567      2.563800
  C       3.859419      1.650862      2.954208
  C       4.604098      0.554676      2.485496
  C       5.897914      0.329145      2.963660
  C       6.466857      1.178598      3.915374
  C       5.721446      2.262044      4.395452
  C       4.434874      2.502448      3.916342
  H       1.973260      1.126788     -0.550865
  H       3.506541      1.330966      0.252527
  H       1.929443      2.334271      3.261678
  H       4.150231     -0.158044      1.809358
  H       6.453824     -0.530066      2.598582
  H       7.470902      0.993905      4.285328
  H       6.147407      2.928196      5.140672
  H       3.862074      3.352567      4.278758
  O       0.623372      0.757046     -1.938963
  O      -2.854010      0.331922      1.047373
  N      -1.134430      0.569415     -0.450839
  N      -1.257966     -0.378396     -2.567807
  C      -0.511694      0.357067     -1.653612
  C      -2.409068      0.097419     -0.067210
  C      -2.516145     -0.874378     -2.299089
  C      -3.106939     -0.665574     -1.103460
  H      -0.577398      1.081434      0.260335
  H      -0.808899     -0.528827     -3.460413
  H      -4.092331     -1.049049     -0.874831
  H      -2.979950     -1.430168     -3.106890
30
Coordinates from ORCA-job phenylurea_uracil_opt_freq E -870.718792376291
  N       2.505035      1.191296      0.331817
  C       1.816658      1.612325      1.426809
  O       0.584440      1.755302      1.438273
  N       2.524271      1.891429      2.584843
  C       3.860451      1.647533      2.962930
  C       4.607331      0.557441      2.489924
  C       5.908062      0.338436      2.951152
  C       6.481389      1.191936      3.897795
  C       5.733641      2.270453      4.383090
  C       4.440075      2.503492      3.917462
  H       1.964953      1.109211     -0.531122
  H       3.501705      1.332382      0.262327
  H       1.921113      2.295308      3.290841
  H       4.156957     -0.154279      1.814379
  H       6.465940     -0.516628      2.579747
  H       7.490293      1.015025      4.258238
  H       6.162017      2.940558      5.123505
  H       3.870080      3.351886      4.288045
  O       0.626300      0.744478     -1.917494
  O      -2.899399      0.378785      1.014653
  N      -1.151667      0.585925     -0.453784
  N      -1.239965     -0.389378     -2.561287
  C      -0.511308      0.356391     -1.644054
  C      -2.435713      0.126186     -0.088600
  C      -2.504389     -0.877456     -2.307557
  C      -3.118453     -0.648114     -1.126477
  H      -0.602860      1.092858      0.267488
  H      -0.783700     -0.560131     -3.446512
  H      -4.108760     -1.025194     -0.909235
  H      -2.957498     -1.444992     -3.113193
30
Coordinates from ORCA-job phenylurea_uracil_opt_freq E -870.718867449957
  N       2.513973      1.170093      0.330216
  C       1.826250      1.599612      1.422812
  O       0.593605      1.743123      1.433085
  N       2.531787      1.887332      2.579362
  C       3.868206      1.646911      2.961571
  C       4.620084      0.557108      2.493963
  C       5.919478      0.345893      2.964213
  C       6.485308      1.203781      3.911153
  C       5.731585      2.281102      4.389218
  C       4.439405      2.507452      3.916525
  H       1.971162      1.093229     -0.531616
  H       3.509322      1.318464      0.257431
  H       1.927913      2.294746      3.282024
  H       4.180837     -0.158683      1.811862
  H       6.482757     -0.507674      2.597315
  H       7.493030      1.031899      4.277259
  H       6.152840      2.955631      5.129698
  H       3.865812      3.355030      4.283280
  O       0.624050      0.735253     -1.916218
  O      -2.896875      0.363309      1.019302
  N      -1.150311      0.566916     -0.451373
  N      -1.258122     -0.377874     -2.569218
  C      -0.516061      0.348861     -1.646915
  C      -2.438659      0.117265     -0.087802
  C      -2.524314     -0.860698     -2.316266
  C      -3.131889     -0.640723     -1.130436
  H      -0.597537      1.068102      0.270850
  H      -0.807043     -0.543427     -3.458012
  H      -4.124114     -1.012963     -0.913794
  H      -2.985475     -1.416605     -3.125486
30
Coordinates from ORCA-job phenylurea_uracil_opt_freq E -870.718946454765
  N       2.513596      1.159224      0.338599
  C       1.827346      1.588585      1.432847
  O       0.593728      1.730252      1.443035
  N       2.532115      1.878567      2.588639
  C       3.873329      1.642490      2.967202
  C       4.629576      0.555045      2.495511
  C       5.932441      0.355546      2.963038
  C       6.496049      1.217011      3.907459
  C       5.736966      2.289003      4.388909
  C       4.441383      2.506089      3.920666
  H       1.967784      1.080590     -0.521058
  H       3.508694      1.308559      0.264599
  H       1.929036      2.286628      3.290914
  H       4.195508     -0.165389      1.809397
  H       6.500379     -0.494103      2.593825
  H       7.506339      1.052501      4.269794
  H       6.155536      2.966991      5.127691
  H       3.864550      3.350110      4.290248
  O       0.625542      0.721659     -1.906243
  O      -2.919682      0.379497      1.004928
  N      -1.156804      0.560948     -0.449984
  N      -1.260047     -0.381698     -2.571503
  C      -0.518161      0.338712     -1.642465
  C      -2.453897      0.125861     -0.097104
  C      -2.530769     -0.855451     -2.325897
  C      -3.144731     -0.629180     -1.144232
  H      -0.603707      1.059395      0.273307
  H      -0.802605     -0.550955     -3.456260
  H      -4.141479     -0.993660     -0.935429
  H      -2.991017     -1.410362     -3.136433
30
Coordinates from ORCA-job phenylurea_uracil_opt_freq E -870.719012055091
  N       2.515418      1.146209      0.349412
  C       1.828871      1.568399      1.446665
  O       0.593524      1.697602      1.459473
  N       2.533818      1.863987      2.600586
  C       3.879499      1.638353      2.972702
  C       4.639369      0.553034      2.501647
  C       5.945812      0.365503      2.965172
  C       6.508597      1.233357      3.903632
  C       5.745647      2.302781      4.383961
  C       4.446635      2.509147      3.919920
  H       1.966326      1.062937     -0.507466
  H       3.508542      1.306559      0.272292
  H       1.929800      2.265493      3.305250
  H       4.213261     -0.169810      1.810857
  H       6.517838     -0.481315      2.595484
  H       7.521514      1.076415      4.261976
  H       6.162758      2.987204      5.117571
  H       3.866613      3.351233      4.288808
  O       0.627012      0.703668     -1.888856
  O      -2.948678      0.394599      0.987455
  N      -1.167187      0.553518     -0.447816
  N      -1.261478     -0.382926     -2.574042
  C      -0.520846      0.328195     -1.636332
  C      -2.473975      0.134886     -0.109105
  C      -2.538611     -0.844949     -2.339357
  C      -3.161347     -0.612938     -1.163580
  H      -0.614578      1.043373      0.280304
  H      -0.796313     -0.558161     -3.453513
  H      -4.163821     -0.967682     -0.965635
  H      -2.997023     -1.396206     -3.153461
30
Coordinates from ORCA-job phenylurea_uracil_opt_freq E -870.719083734565
  N       2.515971      1.131697      0.366500
  C       1.828200      1.540099      1.468204
  O       0.591055      1.651135      1.485099
  N       2.534548      1.840704      2.619805
  C       3.886462      1.632003      2.981131
  C       4.651969      0.550769      2.509211
  C       5.963974      0.379216      2.962967
  C       6.525923      1.255777      3.893557
  C       5.757556      2.321001      4.374848
  C       4.453188      2.512646      3.919205
  H       1.964896      1.038586     -0.487818
  H       3.506732      1.305058      0.287340
  H       1.929617      2.235187      3.327970
  H       4.232593     -0.173315      1.815083
  H       6.541550     -0.463001      2.591169
  H       7.543082      1.109378      4.244307
  H       6.174197      3.013080      5.101419
  H       3.867048      3.350815      4.287468
  O       0.629699      0.676927     -1.863283
  O      -2.990512      0.419834      0.961551
  N      -1.183402      0.547462     -0.444971
  N      -1.258616     -0.389794     -2.574153
  C      -0.523866      0.312590     -1.625082
  C      -2.502557      0.150363     -0.126398
  C      -2.546044     -0.832052     -2.357515
  C      -3.183139     -0.588311     -1.191887
  H      -0.630499      1.024496      0.290496
  H      -0.779036     -0.574117     -3.443958
  H      -4.194179     -0.927417     -1.010465
  H      -2.999414     -1.378349     -3.177798
30
Coordinates from ORCA-job phenylurea_uracil_opt_freq E -870.719144130069
  N       2.517772      1.117401      0.380197
  C       1.827631      1.512223      1.484971
  O       0.589349      1.605169      1.505941
  N       2.535297      1.818281      2.634772
  C       3.891508      1.626548      2.987266
  C       4.663152      0.549383      2.516699
  C       5.979743      0.391985      2.961428
  C       6.539613      1.277017      3.885310
  C       5.765485      2.338187      4.366483
  C       4.457026      2.516469      3.917393
  H       1.966411      1.015409     -0.472748
  H       3.505680      1.305565      0.299348
  H       1.928286      2.206213      3.344922
  H       4.249684     -0.175109      1.821533
  H       6.562989     -0.445857      2.588647
  H       7.560280      1.140363      4.229800
  H       6.181128      3.037018      5.087095
  H       3.864180      3.350776      4.283859
  O       0.634143      0.648529     -1.840401
  O      -3.020656      0.437492      0.942735
  N      -1.194875      0.538751     -0.441627
  N      -1.257204     -0.395766     -2.572931
  C      -0.524858      0.295139     -1.614348
  C      -2.523766      0.161744     -0.139360
  C      -2.554886     -0.816021     -2.373442
  C      -3.202175     -0.563101     -1.215590
  H      -0.640902      1.003443      0.300085
  H      -0.765879     -0.586782     -3.434789
  H      -4.221259     -0.885063     -1.048104
  H      -3.005895     -1.352939     -3.201143
30
Coordinates from ORCA-job phenylurea_uracil_opt_freq E -870.719196845822
  N       2.519714      1.099563      0.391533
  C       1.827289      1.486017      1.497264
  O       0.588667      1.566501      1.521648
  N       2.535831      1.797440      2.645753
  C       3.894533      1.621215      2.992638
  C       4.673888      0.550001      2.521859
  C       5.994471      0.405551      2.957756
  C       6.550161      1.297726      3.877888
  C       5.768452      2.352742      4.360932
  C       4.456419      2.518513      3.917901
  H       1.968944      0.990234     -0.460944
  H       3.505195      1.299363      0.309196
  H       1.927031      2.185248      3.354893
  H       4.263919     -0.175047      1.828116
  H       6.584236     -0.426804      2.583133
  H       7.573965      1.171138      4.216908
  H       6.181901      3.056226      5.078283
  H       3.855964      3.347591      4.284077
  O       0.639637      0.619710     -1.822939
  O      -3.038805      0.450060      0.930661
  N      -1.201191      0.529778     -0.438998
  N      -1.256999     -0.402675     -2.571007
  C      -0.524335      0.276674     -1.605615
  C      -2.537315      0.171091     -0.148486
  C      -2.564516     -0.798725     -2.386537
  C      -3.218126     -0.537391     -1.234109
  H      -0.644644      0.983480      0.307926
  H      -0.757007     -0.597935     -3.427049
  H      -4.244524     -0.840985     -1.077085
  H      -3.015754     -1.323836     -3.221594
30
Coordinates from ORCA-job phenylurea_uracil_opt_freq E -870.719246024876
  N       2.520675      1.085736      0.399410
  C       1.825589      1.466968      1.504728
  O       0.586864      1.539044      1.531301
  N       2.533921      1.783756      2.652834
  C       3.893416      1.617242      2.997251
  C       4.678360      0.550778      2.525724
  C       6.002369      0.415564      2.953277
  C       6.555604      1.313019      3.870287
  C       5.768415      2.362750      4.355875
  C       4.453512      2.519739      3.918832
  H       1.970861      0.971110     -0.453156
  H       3.504346      1.293815      0.316167
  H       1.922639      2.171668      3.359557
  H       4.268507     -0.175052      1.835208
  H       6.596641     -0.412540      2.576642
  H       7.582037      1.194266      4.204153
  H       6.181016      3.069254      5.070806
  H       3.848209      3.345066      4.285591
  O       0.647840      0.594632     -1.811593
  O      -3.042807      0.454747      0.926472
  N      -1.200017      0.520589     -0.436372
  N      -1.255524     -0.408467     -2.568890
  C      -0.520149      0.260117     -1.599299
  C      -2.540306      0.175792     -0.152453
  C      -2.570876     -0.782913     -2.394834
  C      -3.226737     -0.516368     -1.244874
  H      -0.642147      0.967039      0.313841
  H      -0.751708     -0.605131     -3.422500
  H      -4.258636     -0.804014     -1.094068
  H      -3.024916     -1.295744     -3.235914
30
Coordinates from ORCA-job phenylurea_uracil_opt_freq E -870.719308616588
  N       2.521687      1.057889      0.410215
  C       1.825063      1.439705      1.513943
  O       0.586297      1.505323      1.543484
  N       2.532812      1.766120      2.660455
  C       3.893143      1.611670      3.004016
  C       4.687935      0.554093      2.529194
  C       6.015707      0.431824      2.948053
  C       6.563356      1.335405      3.862945
  C       5.766736      2.375997      4.352884
  C       4.448188      2.520254      3.922939
  H       1.971310      0.938392     -0.441702
  H       3.503210      1.274623      0.323795
  H       1.919505      2.159841      3.362368
  H       4.278641     -0.174134      1.842456
  H       6.617056     -0.389435      2.567915
  H       7.592804      1.228402      4.191419
  H       6.176111      3.085982      5.066311
  H       3.836121      3.339350      4.292484
  O       0.657333      0.562398     -1.801851
  O      -3.044044      0.460930      0.922102
  N      -1.197388      0.510040     -0.435657
  N      -1.257542     -0.414652     -2.569343
  C      -0.516527      0.241094     -1.595910
  C      -2.542510      0.183177     -0.157976
  C      -2.581769     -0.761483     -2.405569
  C      -3.238386     -0.488093     -1.257539
  H      -0.636830      0.945823      0.319962
  H      -0.753324     -0.612893     -3.422425
  H      -4.276438     -0.755637     -1.112433
  H      -3.041259     -1.259541     -3.252533
30
Coordinates from ORCA-job phenylurea_uracil_opt_freq E -870.719378389074
  N       2.518732      1.042183      0.421248
  C       1.819496      1.422455      1.523526
  O       0.580268      1.481413      1.554096
  N       2.525089      1.757338      2.669575
  C       3.885724      1.607164      3.011943
  C       4.683576      0.553790      2.532825
  C       6.015746      0.440302      2.940203
  C       6.564867      1.349714      3.848546
  C       5.765546      2.385887      4.342726
  C       4.442885      2.522092      3.923647
  H       1.968591      0.918029     -0.430486
  H       3.498828      1.264672      0.333709
  H       1.909047      2.151920      3.367345
  H       4.267240     -0.176807      1.852228
  H       6.619120     -0.377808      2.556668
  H       7.597733      1.250942      4.168746
  H       6.177228      3.099744      5.051042
  H       3.829909      3.339220      4.295926
  O       0.673827      0.532849     -1.792701
  O      -3.033324      0.457802      0.924140
  N      -1.185369      0.496760     -0.431823
  N      -1.250886     -0.419518     -2.568002
  C      -0.504961      0.223659     -1.590710
  C      -2.533700      0.184301     -0.158353
  C      -2.582696     -0.741246     -2.412118
  C      -3.238918     -0.465669     -1.264476
  H      -0.625389      0.925593      0.327543
  H      -0.750612     -0.615080     -3.424012
  H      -4.281917     -0.715727     -1.124326
  H      -3.048679     -1.223509     -3.264672
30
Coordinates from ORCA-job phenylurea_uracil_opt_freq E -870.719439548379
  N       2.521023      0.991621      0.439895
  C       1.821536      1.374977      1.541101
  O       0.581565      1.424210      1.574663
  N       2.524595      1.725067      2.683862
  C       3.888744      1.596553      3.023283
  C       4.704198      0.559239      2.537070
  C       6.040664      0.469310      2.935948
  C       6.579249      1.388654      3.840214
  C       5.764102      2.409935      4.339669
  C       4.436005      2.522272      3.930308
  H       1.968482      0.861599     -0.409853
  H       3.498047      1.225339      0.346780
  H       1.906080      2.125984      3.376594
  H       4.293394     -0.178418      1.859187
  H       6.655743     -0.337732      2.547473
  H       7.615824      1.309895      4.153836
  H       6.167705      3.131639      5.044720
  H       3.812845      3.328965      4.308335
  O       0.685279      0.484245     -1.780198
  O      -3.040214      0.479626      0.911491
  N      -1.184475      0.484117     -0.434572
  N      -1.259804     -0.424476     -2.573545
  C      -0.503721      0.201421     -1.591395
  C      -2.541766      0.202588     -0.170786
  C      -2.601157     -0.709652     -2.429011
  C      -3.258150     -0.421964     -1.284852
  H      -0.620463      0.893855      0.334266
  H      -0.765299     -0.625274     -3.431567
  H      -4.308270     -0.644870     -1.152774
  H      -3.074763     -1.176263     -3.286140
30
Coordinates from ORCA-job phenylurea_uracil_opt_freq E -870.719498237323
  N       2.514540      0.992124      0.448764
  C       1.814964      1.371964      1.551388
  O       0.574168      1.417562      1.583393
  N       2.516104      1.721038      2.694680
  C       3.881903      1.593101      3.029047
  C       4.694643      0.556357      2.536667
  C       6.033655      0.469913      2.928583
  C       6.577858      1.391937      3.826066
  C       5.765475      2.413602      4.329120
  C       4.434179      2.522483      3.928937
  H       1.962602      0.861307     -0.401075
  H       3.491563      1.226160      0.356751
  H       1.898369      2.120361      3.388030
  H       4.275562     -0.184225      1.863447
  H       6.646567     -0.337698      2.537580
  H       7.616672      1.315573      4.132805
  H       6.172921      3.138375      5.028724
  H       3.813930      3.329806      4.310305
  O       0.696912      0.471160     -1.776446
  O      -3.033680      0.485200      0.910235
  N      -1.175054      0.479784     -0.432370
  N      -1.249183     -0.426654     -2.572777
  C      -0.493798      0.197904     -1.588792
  C      -2.535024      0.205866     -0.171077
  C      -2.592722     -0.704351     -2.429376
  C      -3.251251     -0.415350     -1.286699
  H      -0.612873      0.887112      0.338044
  H      -0.761071     -0.625332     -3.434790
  H      -4.302782     -0.633791     -1.158427
  H      -3.068151     -1.168821     -3.286732
30
Coordinates from ORCA-job phenylurea_uracil_opt_freq E -870.719546423725
  N       2.516782      0.978338      0.457337
  C       1.815609      1.347998      1.562607
  O       0.574076      1.384095      1.593379
  N       2.514233      1.694731      2.707446
  C       3.884179      1.584381      3.033589
  C       4.705464      0.555337      2.537826
  C       6.046274      0.483771      2.926923
  C       6.585315      1.412333      3.820130
  C       5.765447      2.427514      4.324101
  C       4.431326      2.521049      3.928720
  H       1.966473      0.844436     -0.392863
  H       3.492543      1.218188      0.366578
  H       1.894925      2.086216      3.403827
  H       4.293267     -0.191216      1.865302
  H       6.665553     -0.318592      2.534892
  H       7.625915      1.346228      4.123194
  H       6.167505      3.158741      5.019977
  H       3.805136      3.322785      4.312204
  O       0.702406      0.444792     -1.766663
  O      -3.046272      0.515926      0.896175
  N      -1.178467      0.477081     -0.433554
  N      -1.252353     -0.428796     -2.573248
  C      -0.493489      0.188723     -1.586232
  C      -2.545233      0.223860     -0.180170
  C      -2.599048     -0.693605     -2.435694
  C      -3.260738     -0.394486     -1.297712
  H      -0.614502      0.875799      0.339369
  H      -0.765212     -0.634152     -3.434173
  H      -4.315294     -0.602007     -1.175813
  H      -3.074818     -1.157004     -3.293455
30
Coordinates from ORCA-job phenylurea_uracil_opt_freq E -870.719591563336
  N       2.516056      0.965403      0.468111
  C       1.815075      1.325359      1.576793
  O       0.573389      1.354220      1.607816
  N       2.513647      1.665012      2.723193
  C       3.887458      1.575408      3.038142
  C       4.716636      0.556112      2.537004
  C       6.059405      0.498927      2.921007
  C       6.593043      1.432796      3.811902
  C       5.764958      2.439523      4.320406
  C       4.427762      2.517510      3.930845
  H       1.967328      0.829053     -0.382299
  H       3.490215      1.211885      0.377481
  H       1.896188      2.055129      3.422286
  H       4.310533     -0.196349      1.867521
  H       6.685275     -0.297054      2.526210
  H       7.635664      1.376651      4.110011
  H       6.161180      3.175422      5.014567
  H       3.793877      3.311443      4.318109
  O       0.705171      0.416602     -1.759977
  O      -3.058965      0.555543      0.878402
  N      -1.181942      0.476704     -0.436722
  N      -1.254864     -0.434846     -2.573772
  C      -0.493511      0.179173     -1.585347
  C      -2.555606      0.246247     -0.191409
  C      -2.604401     -0.686437     -2.441528
  C      -3.269277     -0.373044     -1.309311
  H      -0.614725      0.865957      0.338828
  H      -0.766715     -0.648460     -3.432136
  H      -4.326687     -0.569643     -1.193368
  H      -3.079169     -1.151782     -3.298764
30
Coordinates from ORCA-job phenylurea_uracil_opt_freq E -870.719625318098
  N       2.518523      0.954698      0.477628
  C       1.813766      1.298751      1.588690
  O       0.572100      1.319291      1.618602
  N       2.510305      1.629256      2.739572
  C       3.887828      1.563085      3.044029
  C       4.727978      0.554406      2.537573
  C       6.073648      0.516266      2.913617
  C       6.599893      1.457956      3.801038
  C       5.761632      2.453395      4.314132
  C       4.421065      2.512534      3.932827
  H       1.973569      0.813822     -0.374418
  H       3.491541      1.206501      0.390074
  H       1.891025      2.010290      3.442432
  H       4.328276     -0.205035      1.872584
  H       6.708631     -0.271025      2.516056
  H       7.645056      1.415440      4.092466
  H       6.151537      3.195171      5.005584
  H       3.778427      3.297714      4.323524
  O       0.712537      0.379069     -1.750357
  O      -3.069527      0.598628      0.860657
  N      -1.184031      0.475663     -0.438485
  N      -1.257618     -0.442522     -2.571156
  C      -0.491840      0.162574     -1.580071
  C      -2.563811      0.271166     -0.202473
  C      -2.610873     -0.675513     -2.447020
  C      -3.278440     -0.345680     -1.320841
  H      -0.614075      0.857342      0.338443
  H      -0.765081     -0.665641     -3.424666
  H      -4.339315     -0.526499     -1.210691
  H      -3.085729     -1.138637     -3.305349
30
Coordinates from ORCA-job phenylurea_uracil_opt_freq E -870.719656537770
  N       2.519882      0.942006      0.485159
  C       1.812399      1.277151      1.597082
  O       0.571073      1.293192      1.627125
  N       2.507703      1.601676      2.751446
  C       3.886653      1.554067      3.049084
  C       4.734276      0.554478      2.540359
  C       6.082569      0.530166      2.907235
  C       6.603209      1.478502      3.791624
  C       5.756823      2.464792      4.308976
  C       4.413551      2.509736      3.934858
  H       1.976730      0.796809     -0.367345
  H       3.491610      1.198809      0.398210
  H       1.887805      1.979957      3.454920
  H       4.338920     -0.209934      1.880637
  H       6.724243     -0.250291      2.507093
  H       7.650460      1.446914      4.076885
  H       6.142442      3.210744      4.998394
  H       3.763553      3.287822      4.327588
  O       0.718673      0.345610     -1.745644
  O      -3.067776      0.624948      0.851841
  N      -1.179767      0.470766     -0.439670
  N      -1.260778     -0.447637     -2.571405
  C      -0.488227      0.147639     -1.579067
  C      -2.562938      0.287496     -0.208839
  C      -2.617151     -0.662166     -2.451526
  C      -3.283172     -0.320991     -1.327705
  H      -0.607751      0.844386      0.339595
  H      -0.766425     -0.677209     -3.422270
  H      -4.346605     -0.487264     -1.219491
  H      -3.094986     -1.119705     -3.311146
30
Coordinates from ORCA-job phenylurea_uracil_opt_freq E -870.719681307840
  N       2.518072      0.931713      0.493311
  C       1.809851      1.262470      1.605887
  O       0.568985      1.277826      1.638025
  N       2.505694      1.582545      2.762090
  C       3.885848      1.546296      3.054508
  C       4.739209      0.553260      2.542344
  C       6.090193      0.540989      2.899777
  C       6.606795      1.494482      3.781626
  C       5.754310      2.472179      4.304418
  C       4.408615      2.506119      3.938411
  H       1.974432      0.783656     -0.358549
  H       3.489151      1.190292      0.405389
  H       1.887285      1.962319      3.466023
  H       4.344459     -0.215554      1.887674
  H       6.737139     -0.233419      2.496601
  H       7.656030      1.472492      4.060433
  H       6.137839      3.220624      4.992406
  H       3.753443      3.278355      4.334002
  O       0.723473      0.319636     -1.742312
  O      -3.069172      0.644126      0.842660
  N      -1.178070      0.469439     -0.441199
  N      -1.261203     -0.452365     -2.571369
  C      -0.486591      0.136055     -1.576916
  C      -2.562905      0.300095     -0.215707
  C      -2.619950     -0.653426     -2.456298
  C      -3.286387     -0.303049     -1.335274
  H      -0.605907      0.838585      0.340802
  H      -0.762882     -0.687693     -3.418408
  H      -4.351620     -0.458386     -1.229200
  H      -3.099137     -1.107195     -3.317156
30
Coordinates from ORCA-job phenylurea_uracil_opt_freq E -870.719705490126
  N       2.521039      0.918727      0.496612
  C       1.810610      1.249597      1.607823
  O       0.569709      1.265825      1.638454
  N       2.504085      1.569365      2.766035
  C       3.884715      1.541191      3.057729
  C       4.742397      0.551711      2.547311
  C       6.095005      0.548836      2.898824
  C       6.607744      1.508033      3.776929
  C       5.750343      2.480932      4.300566
  C       4.403325      2.506206      3.938817
  H       1.977355      0.768169     -0.354996
  H       3.492136      1.177213      0.409217
  H       1.884500      1.947700      3.469539
  H       4.349818     -0.220624      1.895168
  H       6.745882     -0.222172      2.495551
  H       7.658041      1.493904      4.052242
  H       6.131975      3.232726      4.986031
  H       3.744070      3.275162      4.333904
  O       0.727057      0.298588     -1.739381
  O      -3.064527      0.646350      0.843434
  N      -1.173880      0.462723     -0.439706
  N      -1.264596     -0.450285     -2.573605
  C      -0.485103      0.126932     -1.576405
  C      -2.559492      0.303863     -0.216467
  C      -2.625176     -0.639602     -2.460474
  C      -3.289006     -0.287461     -1.338532
  H      -0.601681      0.826544      0.344778
  H      -0.765624     -0.688751     -3.419388
  H      -4.355532     -0.433315     -1.232726
  H      -3.108190     -1.085624     -3.323280
30
Coordinates from ORCA-job phenylurea_uracil_opt_freq E -870.719747510169
  N       2.521255      0.903203      0.501357
  C       1.811425      1.238160      1.611834
  O       0.570472      1.254696      1.643478
  N       2.504673      1.562352      2.768980
  C       3.885692      1.538282      3.059992
  C       4.745690      0.548460      2.555102
  C       6.099842      0.554828      2.901532
  C       6.609888      1.520481      3.773793
  C       5.749030      2.490962      4.296013
  C       4.401306      2.508924      3.937355
  H       1.975366      0.749034     -0.348363
  H       3.492566      1.160224      0.412306
  H       1.886073      1.941516      3.472442
  H       4.354955     -0.227251      1.904646
  H       6.753526     -0.214766      2.500173
  H       7.661044      1.513398      4.046100
  H       6.129778      3.246766      4.977598
  H       3.739157      3.276606      4.329923
  O       0.728610      0.279754     -1.737918
  O      -3.061521      0.637374      0.845960
  N      -1.171285      0.453032     -0.437957
  N      -1.268751     -0.441858     -2.579651
  C      -0.485568      0.120013     -1.577025
  C      -2.557263      0.301369     -0.216743
  C      -2.630727     -0.623218     -2.467708
  C      -3.291986     -0.275313     -1.343215
  H      -0.599985      0.811731      0.349468
  H      -0.769082     -0.682992     -3.424223
  H      -4.359454     -0.413946     -1.237876
  H      -3.117727     -1.059353     -3.333369
