30
Coordinates from ORCA-job phenylurea_uracil_opt_freq E -870.719747510169
  N           2.52125547285620      0.90320318794556      0.50135660513303
  C           1.81142467649410      1.23816017699603      1.61183406211561
  O           0.57047231662408      1.25469605775784      1.64347766292234
  N           2.50467271276373      1.56235172063643      2.76898045429184
  C           3.88569228762255      1.53828167742182      3.05999244591127
  C           4.74569012650103      0.54845975797943      2.55510178512121
  C           6.09984221414972      0.55482813569941      2.90153224266767
  C           6.60988759999825      1.52048064837479      3.77379283187954
  C           5.74902961968614      2.49096245986034      4.29601251900087
  C           4.40130619899522      2.50892359808310      3.93735475108657
  H           1.97536647119548      0.74903355820323     -0.34836301686294
  H           3.49256573673443      1.16022425234046      0.41230586856218
  H           1.88607328300239      1.94151570975413      3.47244218481419
  H           4.35495517291619     -0.22725139298861      1.90464594855150
  H           6.75352605372697     -0.21476645238761      2.50017314189981
  H           7.66104394968727      1.51339780828201      4.04609970967866
  H           6.12977770953241      3.24676570871768      4.97759750551515
  H           3.73915692788207      3.27660623643473      4.32992301141370
  O           0.72860989841296      0.27975411586991     -1.73791830711173
  O          -3.06152056135886      0.63737396381037      0.84596008626989
  N          -1.17128526338592      0.45303239148035     -0.43795722516880
  N          -1.26875096877114     -0.44185838341697     -2.57965147305618
  C          -0.48556829573760      0.12001251510950     -1.57702508859776
  C          -2.55726316906848      0.30136858043494     -0.21674307521113
  C          -2.63072731958985     -0.62321815324406     -2.46770771798073
  C          -3.29198587386655     -0.27531293607042     -1.34321479361939
  H          -0.59998534405055      0.81173065227577      0.34946756260142
  H          -0.76908163505627     -0.68299158388580     -3.42422293527045
  H          -4.35945434199756     -0.41394564563887     -1.23787566837399
  H          -3.11772665589859     -1.05935336583560     -3.33336907818347
