22
Coordinates from ORCA-job semicarbazide_uracil_opt_freq E -694.882926771273
  N       2.739296      1.630282      1.512507
  N       1.438051      2.183515      1.500922
  C       1.213368      3.541019      1.497019
  O       0.094759      4.035284      1.501126
  N       2.345444      4.291223      1.500921
  H       3.194840      1.957074      2.371199
  H       2.658092      0.617104      1.627421
  H       0.607046      1.597090      1.463136
  H       3.122000      3.840367      1.034803
  H       2.202358      5.272524      1.309656
  O       2.326400      0.965100      0.000100
  O      -2.297200      1.023200      0.000500
  N       0.018000      1.019900     -0.000200
  N       1.163700     -1.022100      0.000100
  C       1.252400      0.362900      0.000000
  C      -1.231500      0.414100     -0.000400
  C      -0.026800     -1.695500      0.000200
  C      -1.204900     -1.067600     -0.000200
  H       0.038200      2.035700     -0.000100
  H       2.018700     -1.570200      0.000400
  H      -2.144300     -1.606300     -0.000200
  H       0.046900     -2.776100      0.000400
22
Coordinates from ORCA-job semicarbazide_uracil_opt_freq E -694.945524921234
  N       2.713992      1.665125      1.570515
  N       1.422193      2.252314      1.520093
  C       1.238815      3.612445      1.493369
  O       0.124812      4.129953      1.454250
  N       2.401278      4.334698      1.524066
  H       3.148711      2.005916      2.445952
  H       2.634100      0.660966      1.702274
  H       0.578706      1.680220      1.457144
  H       3.185480      3.859945      1.092271
  H       2.290956      5.316605      1.315280
  O       2.308508      0.933017     -0.071721
  O      -2.304277      0.982019      0.066995
  N       0.004903      0.971350     -0.005038
  N       1.157749     -1.067982     -0.066472
  C       1.241147      0.319550     -0.057764
  C      -1.248412      0.361436      0.024220
  C      -0.034964     -1.748346     -0.037898
  C      -1.218291     -1.117486      0.004171
  H       0.028634      1.987128      0.010895
  H       2.015849     -1.605602     -0.097624
  H      -2.157112     -1.655118      0.026308
  H       0.042075     -2.829571     -0.051975
22
Coordinates from ORCA-job semicarbazide_uracil_opt_freq E -694.985893597149
  N       2.742658      1.701608      1.615536
  N       1.434733      2.260275      1.553979
  C       1.225780      3.610469      1.502962
  O       0.091695      4.093029      1.447162
  N       2.382490      4.360879      1.528763
  H       3.159335      2.061076      2.492312
  H       2.681197      0.703689      1.762220
  H       0.612773      1.655643      1.491789
  H       3.186379      3.901154      1.114608
  H       2.249886      5.335593      1.300065
  O       2.315346      0.887386     -0.140206
  O      -2.272445      1.024338      0.081797
  N       0.027099      0.951666     -0.031242
  N       1.145085     -1.105610     -0.104245
  C       1.251852      0.280511     -0.108707
  C      -1.245381      0.363569      0.023889
  C      -0.063589     -1.768789     -0.048100
  C      -1.238357     -1.110430      0.012158
  H       0.080708      1.967973     -0.023981
  H       1.998534     -1.645759     -0.149393
  H      -2.186961     -1.627837      0.054952
  H      -0.003960     -2.851853     -0.057008
22
Coordinates from ORCA-job semicarbazide_uracil_opt_freq E -695.018924995406
  N       2.720008      1.765601      1.723414
  N       1.438165      2.381562      1.598986
  C       1.307025      3.732886      1.483551
  O       0.197895      4.261825      1.354625
  N       2.504822      4.428358      1.532972
  H       3.121420      2.137018      2.594068
  H       2.613834      0.771240      1.883539
  H       0.602476      1.809711      1.511415
  H       3.310602      3.923937      1.179611
  H       2.423938      5.395812      1.253587
  O       2.245222      0.864445     -0.159330
  O      -2.337736      0.896707      0.168552
  N      -0.046101      0.865497      0.011581
  N       1.119300     -1.146516     -0.186424
  C       1.196661      0.240330     -0.133739
  C      -1.314519      0.241879      0.058701
  C      -0.072725     -1.847476     -0.136879
  C      -1.263114     -1.220757     -0.023373
  H      -0.007155      1.881474      0.070285
  H       1.993745     -1.645004     -0.278849
  H      -2.197767     -1.763573      0.012409
  H       0.018860     -2.926372     -0.199392
22
Coordinates from ORCA-job semicarbazide_uracil_opt_freq E -695.040384550461
  N       2.890982      1.816528      1.751543
  N       1.522790      2.243617      1.717966
  C       1.189490      3.552055      1.550470
  O       0.006279      3.907900      1.498374
  N       2.276912      4.413720      1.469023
  H       3.277780      2.234666      2.604877
  H       2.901979      0.817490      1.919053
  H       0.792019      1.548240      1.719133
  H       3.123327      4.022092      1.070498
  H       2.024240      5.338651      1.149994
  O       2.356877      0.738600     -0.212352
  O      -2.201099      1.154302      0.024365
  N       0.074851      0.915865     -0.080129
  N       1.081327     -1.183858     -0.157629
  C       1.266439      0.195858     -0.176833
  C      -1.249720      0.395312     -0.022051
  C      -0.161226     -1.788607     -0.088153
  C      -1.300646     -1.063311     -0.023173
  H       0.198413      1.926894     -0.107790
  H       1.927386     -1.733494     -0.217702
  H      -2.274947     -1.530952      0.024734
  H      -0.148601     -2.872986     -0.094907
22
Coordinates from ORCA-job semicarbazide_uracil_opt_freq E -695.055087682388
  N       2.890901      1.882724      1.872884
  N       1.543369      2.370593      1.795189
  C       1.279661      3.682033      1.533952
  O       0.121380      4.094725      1.421828
  N       2.407506      4.485169      1.438717
  H       3.282312      2.302987      2.719966
  H       2.838661      0.884445      2.039886
  H       0.786280      1.708908      1.799611
  H       3.249786      4.040314      1.090894
  H       2.200797      5.396170      1.052546
  O       2.275421      0.725186     -0.200957
  O      -2.293163      1.004089      0.111761
  N      -0.012032      0.833275     -0.013704
  N       1.049203     -1.224181     -0.240453
  C       1.194248      0.161661     -0.174441
  C      -1.326554      0.270654      0.013561
  C      -0.169662     -1.868682     -0.200008
  C      -1.328268     -1.183850     -0.079188
  H       0.076297      1.847178      0.025307
  H       1.917729     -1.729720     -0.352791
  H      -2.286791     -1.686028     -0.055915
  H      -0.122228     -2.949068     -0.279335
22
Coordinates from ORCA-job semicarbazide_uracil_opt_freq E -695.061779073870
  N       2.921321      1.926772      1.960862
  N       1.572634      2.402512      1.858853
  C       1.301532      3.695554      1.515282
  O       0.143155      4.091413      1.359305
  N       2.420108      4.504630      1.392905
  H       3.310375      2.354581      2.806066
  H       2.879527      0.926026      2.118403
  H       0.815395      1.735006      1.874476
  H       3.273818      4.052113      1.085185
  H       2.208560      5.388416      0.949998
  O       2.259123      0.703349     -0.188155
  O      -2.318155      0.968022      0.152455
  N      -0.033404      0.812544      0.021200
  N       1.029352     -1.236380     -0.279542
  C       1.170774      0.148256     -0.168159
  C      -1.345684      0.245487      0.029210
  C      -0.186200     -1.883201     -0.258190
  C      -1.346210     -1.206537     -0.110683
  H       0.040431      1.827220      0.092686
  H       1.899070     -1.733550     -0.416488
  H      -2.302505     -1.713202     -0.101995
  H      -0.138165     -2.960449     -0.374363
22
Coordinates from ORCA-job semicarbazide_uracil_opt_freq E -695.069476379781
  N       2.967320      1.991138      2.097365
  N       1.616057      2.431518      1.963927
  C       1.320255      3.673487      1.477269
  O       0.155126      4.009961      1.246772
  N       2.412816      4.504080      1.302318
  H       3.347867      2.425458      2.941487
  H       2.956875      0.986884      2.232663
  H       0.869595      1.753223      1.999479
  H       3.290670      4.051902      1.071212
  H       2.188170      5.328356      0.762027
  O       2.241570      0.690052     -0.160686
  O      -2.341402      0.937061      0.215761
  N      -0.053776      0.799985      0.077064
  N       1.006440     -1.232778     -0.332252
  C       1.145853      0.145080     -0.151785
  C      -1.361212      0.230462      0.058424
  C      -0.207351     -1.880861     -0.339867
  C      -1.367731     -1.214814     -0.152239
  H      -0.001329      1.813101      0.190976
  H       1.874480     -1.721138     -0.504359
  H      -2.323042     -1.722308     -0.165466
  H      -0.162398     -2.951267     -0.510783
22
Coordinates from ORCA-job semicarbazide_uracil_opt_freq E -695.078779042152
  N       3.029556      2.084930      2.296284
  N       1.672092      2.457047      2.127283
  C       1.334979      3.566967      1.403170
  O       0.163453      3.759641      1.058087
  N       2.374211      4.431100      1.126352
  H       3.394583      2.525034      3.142163
  H       3.081280      1.077606      2.390392
  H       0.952532      1.750516      2.198761
  H       3.292907      4.011313      1.036126
  H       2.132824      5.121130      0.428418
  O       2.218583      0.722724     -0.089758
  O      -2.374575      0.913734      0.312719
  N      -0.084501      0.814510      0.171007
  N       0.986181     -1.176145     -0.393182
  C       1.116597      0.184440     -0.107543
  C      -1.381563      0.236229      0.105641
  C      -0.222210     -1.831800     -0.451894
  C      -1.386975     -1.191218     -0.211258
  H      -0.067463      1.822627      0.352069
  H       1.854875     -1.644548     -0.609806
  H      -2.339218     -1.701218     -0.261521
  H      -0.173295     -2.886037     -0.704200
22
Coordinates from ORCA-job semicarbazide_uracil_opt_freq E -695.083264845586
  N       3.065789      2.136278      2.398831
  N       1.708964      2.483292      2.226145
  C       1.354915      3.520328      1.356837
  O       0.178279      3.635664      0.949591
  N       2.360512      4.402165      1.096901
  H       3.404064      2.527659      3.270392
  H       3.153624      1.120262      2.412669
  H       1.002322      1.769507      2.303061
  H       3.322386      4.015222      1.104442
  H       2.122249      5.027404      0.352600
  O       2.197956      0.753950     -0.089101
  O      -2.390597      0.901143      0.354043
  N      -0.103290      0.825382      0.176178
  N       0.977606     -1.140295     -0.431334
  C       1.097693      0.211928     -0.125488
  C      -1.392048      0.238299      0.114404
  C      -0.224912     -1.804628     -0.480824
  C      -1.392138     -1.179331     -0.217226
  H      -0.106306      1.838130      0.371850
  H       1.849381     -1.595643     -0.651191
  H      -2.342155     -1.691437     -0.254511
  H      -0.169079     -2.849954     -0.735075
22
Coordinates from ORCA-job semicarbazide_uracil_opt_freq E -695.088606613182
  N       3.102812      2.258725      2.485465
  N       1.734049      2.545366      2.272924
  C       1.376582      3.539851      1.376492
  O       0.212647      3.617394      0.950463
  N       2.365084      4.441399      1.095226
  H       3.368696      2.589928      3.411518
  H       3.259246      1.259484      2.420470
  H       1.047101      1.804237      2.345509
  H       3.311979      4.083185      1.127299
  H       2.129840      5.047210      0.319798
  O       2.201926      0.659860     -0.138758
  O      -2.369351      0.897567      0.378796
  N      -0.087602      0.776226      0.177612
  N       0.938084     -1.207861     -0.483622
  C       1.093240      0.136698     -0.145594
  C      -1.389225      0.213240      0.124602
  C      -0.278840     -1.848252     -0.531819
  C      -1.426860     -1.200751     -0.238688
  H      -0.072175      1.795163      0.382546
  H       1.797030     -1.678504     -0.732841
  H      -2.390333     -1.690438     -0.277887
  H      -0.248715     -2.894400     -0.816316
22
Coordinates from ORCA-job semicarbazide_uracil_opt_freq E -695.091546878392
  N       3.123094      2.331315      2.533265
  N       1.749635      2.582486      2.301531
  C       1.389139      3.547621      1.385760
  O       0.234218      3.593729      0.945796
  N       2.365150      4.461935      1.081760
  H       3.340705      2.568354      3.500453
  H       3.336457      1.354116      2.364950
  H       1.078544      1.825708      2.373844
  H       3.314969      4.127324      1.143957
  H       2.136927      5.043113      0.284509
  O       2.195052      0.621792     -0.113870
  O      -2.370385      0.888534      0.391681
  N      -0.091048      0.752055      0.180285
  N       0.917854     -1.233408     -0.501395
  C       1.082358      0.107667     -0.149087
  C      -1.397473      0.199177      0.125225
  C      -0.304343     -1.865735     -0.561042
  C      -1.446748     -1.211915     -0.258193
  H      -0.057289      1.766151      0.389029
  H       1.773083     -1.710569     -0.752531
  H      -2.414289     -1.694046     -0.302549
  H      -0.280390     -2.910079     -0.860186
22
Coordinates from ORCA-job semicarbazide_uracil_opt_freq E -695.094587842649
  N       3.145270      2.417563      2.593689
  N       1.772387      2.636038      2.343996
  C       1.406755      3.559104      1.390080
  O       0.261443      3.558032      0.926694
  N       2.364062      4.486141      1.057268
  H       3.320187      2.509745      3.591842
  H       3.426761      1.492939      2.276424
  H       1.120141      1.863844      2.425103
  H       3.324398      4.194868      1.181454
  H       2.151057      5.022345      0.227394
  O       2.181277      0.577296     -0.065139
  O      -2.382830      0.868827      0.403859
  N      -0.104019      0.717215      0.195312
  N       0.894756     -1.261388     -0.515835
  C       1.066395      0.066796     -0.123823
  C      -1.414731      0.176930      0.129187
  C      -0.333227     -1.882214     -0.600876
  C      -1.471574     -1.226366     -0.285980
  H      -0.042926      1.727277      0.400523
  H       1.746060     -1.742458     -0.771755
  H      -2.442460     -1.699670     -0.347604
  H      -0.313964     -2.917535     -0.928620
22
Coordinates from ORCA-job semicarbazide_uracil_opt_freq E -695.096306417877
  N       3.174438      2.480355      2.627751
  N       1.803221      2.682036      2.383317
  C       1.424035      3.566136      1.394143
  O       0.286216      3.514786      0.910866
  N       2.353711      4.511097      1.046263
  H       3.338061      2.416562      3.627991
  H       3.505601      1.638276      2.158615
  H       1.167961      1.896976      2.479450
  H       3.317944      4.287690      1.247152
  H       2.156718      5.006439      0.188552
  O       2.163974      0.530711      0.018746
  O      -2.406703      0.852716      0.388620
  N      -0.126163      0.690087      0.198759
  N       0.875545     -1.286249     -0.511399
  C       1.045960      0.034562     -0.102530
  C      -1.438859      0.162180      0.110955
  C      -0.356468     -1.895544     -0.626704
  C      -1.495492     -1.235257     -0.324130
  H      -0.036631      1.697554      0.405460
  H       1.727314     -1.777116     -0.745921
  H      -2.467836     -1.702241     -0.406925
  H      -0.337325     -2.926429     -0.965836
22
Coordinates from ORCA-job semicarbazide_uracil_opt_freq E -695.096813399627
  N       3.192833      2.495040      2.624643
  N       1.819973      2.700501      2.398859
  C       1.430844      3.563166      1.391655
  O       0.296085      3.485988      0.900600
  N       2.344520      4.517942      1.041613
  H       3.368794      2.393343      3.618505
  H       3.519408      1.672628      2.116694
  H       1.189927      1.913622      2.511714
  H       3.309453      4.339407      1.288186
  H       2.154452      4.997750      0.174781
  O       2.154724      0.516973      0.052956
  O      -2.420953      0.848734      0.368364
  N      -0.138171      0.680090      0.206221
  N       0.869629     -1.294788     -0.501238
  C       1.037374      0.018729     -0.072105
  C      -1.450127      0.157020      0.103354
  C      -0.363399     -1.898099     -0.635355
  C      -1.504076     -1.236894     -0.342120
  H      -0.038033      1.687429      0.408375
  H       1.722389     -1.787729     -0.726424
  H      -2.476499     -1.700172     -0.442268
  H      -0.343930     -2.925356     -0.983817
22
Coordinates from ORCA-job semicarbazide_uracil_opt_freq E -695.097255298925
  N       3.221091      2.491444      2.593977
  N       1.842278      2.705969      2.407846
  C       1.434273      3.556456      1.394097
  O       0.300984      3.455008      0.900206
  N       2.325942      4.527640      1.050043
  H       3.424890      2.378084      3.580892
  H       3.522096      1.670076      2.068543
  H       1.217321      1.917049      2.536966
  H       3.287827      4.399379      1.337840
  H       2.133806      5.009088      0.185083
  O       2.145714      0.503926      0.099972
  O      -2.435871      0.853992      0.323653
  N      -0.150769      0.680226      0.198511
  N       0.865992     -1.302115     -0.479025
  C       1.028591      0.012361     -0.053240
  C      -1.460757      0.161873      0.073674
  C      -0.366903     -1.900979     -0.630436
  C      -1.510464     -1.234003     -0.364675
  H      -0.044092      1.688693      0.403032
  H       1.721557     -1.802606     -0.674403
  H      -2.482184     -1.695320     -0.479328
  H      -0.346104     -2.930917     -0.970034
22
Coordinates from ORCA-job semicarbazide_uracil_opt_freq E -695.097567918631
  N       3.250925      2.477564      2.549024
  N       1.864937      2.700134      2.411630
  C       1.434029      3.547443      1.401654
  O       0.300606      3.426345      0.911622
  N       2.303144      4.535088      1.058163
  H       3.487556      2.375576      3.530232
  H       3.520165      1.643345      2.026745
  H       1.244547      1.909178      2.551942
  H       3.262904      4.446469      1.365676
  H       2.094543      5.032276      0.206626
  O       2.138583      0.494093      0.154544
  O      -2.446089      0.869091      0.260473
  N      -0.159402      0.684575      0.195034
  N       0.864309     -1.307249     -0.447041
  C       1.022241      0.008622     -0.023622
  C      -1.466910      0.169923      0.046025
  C      -0.367523     -1.901541     -0.621522
  C      -1.513634     -1.227310     -0.388238
  H      -0.052215      1.694656      0.401791
  H       1.722491     -1.814661     -0.610047
  H      -2.484587     -1.684326     -0.524246
  H      -0.345402     -2.933965     -0.953270
22
Coordinates from ORCA-job semicarbazide_uracil_opt_freq E -695.097791998389
  N       3.277155      2.464715      2.508110
  N       1.885791      2.689582      2.413907
  C       1.433467      3.541081      1.415143
  O       0.299793      3.405345      0.930409
  N       2.281492      4.545052      1.070379
  H       3.539560      2.365114      3.483495
  H       3.524979      1.625973      1.982701
  H       1.270995      1.893710      2.552394
  H       3.241536      4.485659      1.380949
  H       2.048141      5.066556      0.240533
  O       2.133222      0.481332      0.205911
  O      -2.449911      0.886026      0.199815
  N      -0.163588      0.691199      0.182656
  N       0.861389     -1.314093     -0.415802
  C       1.017290      0.004311      0.001693
  C      -1.469225      0.183456      0.002152
  C      -0.369332     -1.904691     -0.609219
  C      -1.516079     -1.221085     -0.408926
  H      -0.058382      1.702267      0.395689
  H       1.720563     -1.829504     -0.545223
  H      -2.486726     -1.674835     -0.557316
  H      -0.346910     -2.941844     -0.926255
22
Coordinates from ORCA-job semicarbazide_uracil_opt_freq E -695.098077661320
  N       3.317115      2.462534      2.457738
  N       1.920121      2.679330      2.417979
  C       1.433437      3.536072      1.439127
  O       0.295817      3.381892      0.970273
  N       2.251631      4.561043      1.084882
  H       3.610602      2.354810      3.423670
  H       3.547951      1.628611      1.917138
  H       1.317329      1.872668      2.547149
  H       3.216389      4.534780      1.382227
  H       1.975748      5.113728      0.289582
  O       2.122911      0.450590      0.291176
  O      -2.450266      0.913104      0.100818
  N      -0.168203      0.691275      0.178352
  N       0.852022     -1.331040     -0.367811
  C       1.008236     -0.010688      0.044717
  C      -1.471956      0.193473     -0.040259
  C      -0.376938     -1.911768     -0.598835
  C      -1.521934     -1.212838     -0.446230
  H      -0.067329      1.702904      0.399518
  H       1.709747     -1.857894     -0.453911
  H      -2.492078     -1.655419     -0.627684
  H      -0.355131     -2.951844     -0.906421
22
Coordinates from ORCA-job semicarbazide_uracil_opt_freq E -695.098422899785
  N       3.362565      2.478802      2.415645
  N       1.961027      2.674142      2.423391
  C       1.435476      3.535788      1.470171
  O       0.291118      3.364428      1.024577
  N       2.222544      4.581797      1.105122
  H       3.682271      2.351296      3.370681
  H       3.587352      1.659852      1.849962
  H       1.376762      1.850611      2.529166
  H       3.194389      4.586411      1.377852
  H       1.897826      5.166565      0.352846
  O       2.109298      0.405754      0.374873
  O      -2.443841      0.940449     -0.003754
  N      -0.171251      0.684401      0.169341
  N       0.834633     -1.358337     -0.319035
  C       0.995599     -0.037576      0.090734
  C      -1.473300      0.203030     -0.097668
  C      -0.392429     -1.925450     -0.590707
  C      -1.531368     -1.207140     -0.489273
  H      -0.076073      1.693773      0.402171
  H       1.687219     -1.898625     -0.362779
  H      -2.501120     -1.635856     -0.703013
  H      -0.373481     -2.968788     -0.887110
22
Coordinates from ORCA-job semicarbazide_uracil_opt_freq E -695.098981834705
  N       3.441114      2.532246      2.358881
  N       2.034506      2.675260      2.431277
  C       1.441123      3.538565      1.521868
  O       0.282826      3.338587      1.125169
  N       2.178219      4.614230      1.138949
  H       3.800341      2.370776      3.294254
  H       3.667246      1.743317      1.752316
  H       1.488863      1.820919      2.492275
  H       3.158873      4.664903      1.370434
  H       1.779955      5.236775      0.455467
  O       2.075907      0.320834      0.513395
  O      -2.425408      0.980233     -0.167225
  N      -0.178231      0.662169      0.158900
  N       0.795644     -1.411380     -0.243160
  C       0.967685     -0.092062      0.165806
  C      -1.474985      0.212411     -0.188776
  C      -0.425859     -1.950747     -0.587198
  C      -1.548449     -1.199958     -0.567718
  H      -0.089887      1.663732      0.411872
  H       1.634451     -1.974357     -0.224670
  H      -2.514849     -1.603358     -0.838322
  H      -0.413867     -2.997770     -0.870602
22
Coordinates from ORCA-job semicarbazide_uracil_opt_freq E -695.099548546163
  N       3.534850      2.612427      2.291550
  N       2.126791      2.680543      2.434382
  C       1.449583      3.539511      1.579876
  O       0.276816      3.300549      1.248467
  N       2.124686      4.646619      1.176781
  H       3.942958      2.424499      3.201603
  H       3.767510      1.854598      1.648704
  H       1.633397      1.792018      2.444287
  H       3.109230      4.750281      1.369024
  H       1.649281      5.295688      0.571339
  O       2.016392      0.216230      0.690166
  O      -2.391811      1.023372     -0.346442
  N      -0.189591      0.629750      0.154327
  N       0.739156     -1.476644     -0.154868
  C       0.923938     -0.161657      0.260750
  C      -1.472243      0.221345     -0.291273
  C      -0.468536     -1.977913     -0.592674
  C      -1.563138     -1.189863     -0.667330
  H      -0.102765      1.620423      0.430201
  H       1.554692     -2.066840     -0.067698
  H      -2.518953     -1.562306     -1.010405
  H      -0.467024     -3.027301     -0.867572
22
Coordinates from ORCA-job semicarbazide_uracil_opt_freq E -695.100255271142
  N       3.631052      2.711680      2.221465
  N       2.227124      2.683536      2.424051
  C       1.459333      3.535974      1.638713
  O       0.276075      3.254393      1.387587
  N       2.067756      4.671776      1.214916
  H       4.087733      2.507446      3.104933
  H       3.885779      1.988955      1.547308
  H       1.796454      1.762052      2.379563
  H       3.052912      4.823216      1.369303
  H       1.521730      5.333955      0.687402
  O       1.927268      0.109242      0.886077
  O      -2.346100      1.064996     -0.519669
  N      -0.207796      0.592227      0.157985
  N       0.668159     -1.544919     -0.060653
  C       0.863194     -0.236120      0.367193
  C      -1.464503      0.229982     -0.393097
  C      -0.513270     -2.002374     -0.605069
  C      -1.568824     -1.177150     -0.777381
  H      -0.114612      1.569919      0.458995
  H       1.452478     -2.163308      0.092994
  H      -2.503589     -1.517685     -1.202157
  H      -0.523136     -3.052468     -0.877265
22
Coordinates from ORCA-job semicarbazide_uracil_opt_freq E -695.101011606963
  N       3.709149      2.804654      2.165286
  N       2.312974      2.671936      2.392439
  C       1.466792      3.521791      1.683531
  O       0.280599      3.206739      1.511987
  N       2.019632      4.679407      1.247786
  H       4.198733      2.593811      3.030119
  H       4.008848      2.126306      1.464237
  H       1.947395      1.722905      2.303936
  H       3.004898      4.857948      1.374679
  H       1.426181      5.342451      0.774634
  O       1.824712      0.038633      1.055784
  O      -2.310716      1.094405     -0.654682
  N      -0.237231      0.563839      0.167648
  N       0.599898     -1.594280      0.024847
  C       0.795462     -0.289879      0.462619
  C      -1.459748      0.238323     -0.474321
  C      -0.545898     -2.015591     -0.616197
  C      -1.562732     -1.164449     -0.872926
  H      -0.128740      1.528868      0.493305
  H       1.355182     -2.233612      0.229682
  H      -2.468248     -1.483586     -1.371503
  H      -0.561922     -3.065294     -0.889695
22
Coordinates from ORCA-job semicarbazide_uracil_opt_freq E -695.101630829379
  N       3.754789      2.862995      2.129707
  N       2.367276      2.656761      2.362498
  C       1.474054      3.498974      1.698198
  O       0.291848      3.155926      1.555086
  N       1.980776      4.680718      1.272412
  H       4.258564      2.669188      2.990805
  H       4.090969      2.210962      1.420225
  H       2.049120      1.690552      2.266097
  H       2.961123      4.884178      1.403296
  H       1.358370      5.335444      0.827447
  O       1.766497     -0.007012      1.142520
  O      -2.279038      1.117846     -0.734693
  N      -0.250367      0.552098      0.171964
  N       0.553875     -1.623883      0.074315
  C       0.755749     -0.320826      0.511944
  C      -1.448783      0.249194     -0.519184
  C      -0.570417     -2.021634     -0.617541
  C      -1.556918     -1.152134     -0.923327
  H      -0.126782      1.513321      0.512430
  H       1.286159     -2.278469      0.311317
  H      -2.443687     -1.457565     -1.462488
  H      -0.597960     -3.071309     -0.889834
22
Coordinates from ORCA-job semicarbazide_uracil_opt_freq E -695.102324507028
  N       3.775856      2.894635      2.113869
  N       2.395098      2.616288      2.308225
  C       1.473810      3.458213      1.684586
  O       0.297371      3.100423      1.551155
  N       1.945725      4.666441      1.284642
  H       4.261761      2.745165      2.994162
  H       4.174623      2.263878      1.418793
  H       2.120962      1.635183      2.231674
  H       2.924978      4.877103      1.415050
  H       1.305579      5.311516      0.852449
  O       1.744561     -0.020354      1.178045
  O      -2.260519      1.139883     -0.771378
  N      -0.258700      0.559087      0.184360
  N       0.529271     -1.628975      0.105945
  C       0.737875     -0.324814      0.538072
  C      -1.439346      0.267186     -0.533289
  C      -0.583335     -2.013811     -0.611524
  C      -1.551168     -1.133724     -0.942768
  H      -0.120917      1.519334      0.534474
  H       1.249315     -2.291890      0.356224
  H      -2.425978     -1.432608     -1.504500
  H      -0.621604     -3.062831     -0.885071
22
Coordinates from ORCA-job semicarbazide_uracil_opt_freq E -695.102221536587
  N       3.867625      3.068768      2.040661
  N       2.532477      2.616861      2.231388
  C       1.508293      3.402048      1.705922
  O       0.355634      2.943961      1.594673
  N       1.833627      4.676085      1.358752
  H       4.366867      2.961731      2.919689
  H       4.339455      2.513070      1.328539
  H       2.368441      1.614606      2.117093
  H       2.785777      4.983126      1.493110
  H       1.100484      5.285354      1.040794
  O       1.643590     -0.226859      1.346988
  O      -2.069753      1.230694     -0.956931
  N      -0.219039      0.512073      0.188776
  N       0.385963     -1.738906      0.198931
  C       0.667212     -0.447602      0.629393
  C      -1.346738      0.300540     -0.629292
  C      -0.687760     -2.045917     -0.609275
  C      -1.541918     -1.093314     -1.036299
  H      -0.055414      1.464929      0.562891
  H       1.020074     -2.454783      0.524022
  H      -2.384579     -1.328932     -1.672095
  H      -0.795101     -3.092208     -0.874535
22
Coordinates from ORCA-job semicarbazide_uracil_opt_freq E -695.103142260544
  N       3.815100      2.984329      2.092793
  N       2.457709      2.598483      2.241659
  C       1.488667      3.409497      1.671396
  O       0.327609      2.995428      1.529159
  N       1.878547      4.664130      1.318148
  H       4.282168      2.871189      2.988140
  H       4.280531      2.399712      1.400216
  H       2.243086      1.604417      2.168060
  H       2.843896      4.930655      1.443589
  H       1.185218      5.288670      0.942989
  O       1.724707     -0.134204      1.241836
  O      -2.151098      1.203167     -0.853807
  N      -0.222896      0.541953      0.195279
  N       0.460715     -1.683909      0.147996
  C       0.718844     -0.386359      0.576484
  C      -1.382152      0.295732     -0.569352
  C      -0.643276     -2.026615     -0.603455
  C      -1.553618     -1.101663     -0.974014
  H      -0.072069      1.502616      0.553587
  H       1.139906     -2.376511      0.429826
  H      -2.421308     -1.360889     -1.565440
  H      -0.725068     -3.074504     -0.871894
22
Coordinates from ORCA-job semicarbazide_uracil_opt_freq E -695.103418928279
  N       3.805721      2.976491      2.108086
  N       2.448289      2.585307      2.213820
  C       1.485147      3.403078      1.656600
  O       0.324609      2.992065      1.509986
  N       1.879927      4.660126      1.319362
  H       4.256024      2.842691      3.009101
  H       4.288095      2.413007      1.410158
  H       2.227982      1.591172      2.136645
  H       2.847804      4.922289      1.431688
  H       1.187951      5.288736      0.946180
  O       1.734807     -0.121995      1.236080
  O      -2.150899      1.206360     -0.843371
  N      -0.219810      0.546539      0.201700
  N       0.467485     -1.675604      0.148289
  C       0.724662     -0.377770      0.576919
  C      -1.381354      0.298741     -0.560802
  C      -0.638742     -2.022191     -0.598269
  C      -1.554089     -1.098790     -0.962793
  H      -0.069623      1.508382      0.556062
  H       1.153291     -2.364638      0.423298
  H      -2.425082     -1.358076     -1.549399
  H      -0.716978     -3.070593     -0.866145
22
Coordinates from ORCA-job semicarbazide_uracil_opt_freq E -695.103668003138
  N       3.806270      2.981231      2.117603
  N       2.453147      2.576765      2.174354
  C       1.487902      3.397802      1.636445
  O       0.331179      2.976462      1.470995
  N       1.869574      4.667406      1.337450
  H       4.241195      2.815726      3.020720
  H       4.306998      2.450636      1.406693
  H       2.230775      1.582020      2.091533
  H       2.832527      4.944937      1.453636
  H       1.170044      5.295552      0.977219
  O       1.739434     -0.136659      1.242424
  O      -2.127297      1.217011     -0.854089
  N      -0.207789      0.544264      0.203858
  N       0.460613     -1.681924      0.156093
  C       0.726439     -0.384928      0.582060
  C      -1.368984      0.302429     -0.563199
  C      -0.647745     -2.024901     -0.588643
  C      -1.556133     -1.095130     -0.956343
  H      -0.055014      1.510633      0.552552
  H       1.143581     -2.372693      0.434130
  H      -2.430326     -1.347068     -1.541425
  H      -0.731169     -3.074244     -0.850873
22
Coordinates from ORCA-job semicarbazide_uracil_opt_freq E -695.103888415670
  N       3.814402      2.994922      2.118365
  N       2.468988      2.571882      2.122347
  C       1.494476      3.401242      1.621547
  O       0.342418      2.969668      1.444477
  N       1.858239      4.685459      1.371616
  H       4.235733      2.787395      3.019208
  H       4.338238      2.509425      1.391642
  H       2.250182      1.576593      2.019041
  H       2.815434      4.979524      1.496718
  H       1.149184      5.315418      1.033339
  O       1.727826     -0.162446      1.265640
  O      -2.098210      1.224171     -0.883237
  N      -0.200333      0.534857      0.202482
  N       0.442238     -1.698431      0.175172
  C       0.717472     -0.401896      0.596148
  C      -1.356209      0.301362     -0.577268
  C      -0.662248     -2.034010     -0.578074
  C      -1.556222     -1.096362     -0.961174
  H      -0.042575      1.504484      0.546578
  H       1.116931     -2.393062      0.463604
  H      -2.428381     -1.340217     -1.552744
  H      -0.752364     -3.084652     -0.832232
22
Coordinates from ORCA-job semicarbazide_uracil_opt_freq E -695.104147929490
  N       3.822386      2.998331      2.113315
  N       2.483541      2.566693      2.059312
  C       1.502320      3.411928      1.599022
  O       0.355067      2.974274      1.393060
  N       1.849080      4.712328      1.420841
  H       4.224640      2.747244      3.011972
  H       4.369655      2.555865      1.376071
  H       2.264130      1.572587      1.939792
  H       2.796516      5.021848      1.576058
  H       1.134948      5.346616      1.102540
  O       1.719774     -0.181025      1.279311
  O      -2.073754      1.223814     -0.916349
  N      -0.193106      0.527250      0.194173
  N       0.426436     -1.713445      0.196102
  C       0.710729     -0.414934      0.604681
  C      -1.345095      0.296414     -0.593367
  C      -0.676301     -2.045788     -0.560576
  C      -1.556801     -1.103482     -0.961861
  H      -0.029563      1.501377      0.528670
  H       1.092563     -2.410264      0.498647
  H      -2.427750     -1.343478     -1.556826
  H      -0.774199     -3.098827     -0.801396
22
Coordinates from ORCA-job semicarbazide_uracil_opt_freq E -695.104479147370
  N       3.827157      2.995907      2.105453
  N       2.493869      2.565606      1.986561
  C       1.511088      3.435307      1.575951
  O       0.367641      3.006068      1.334048
  N       1.850474      4.746795      1.483310
  H       4.201622      2.702712      3.003692
  H       4.401865      2.591360      1.367175
  H       2.270955      1.574918      1.848060
  H       2.790557      5.057504      1.677543
  H       1.139923      5.393284      1.182931
  O       1.713276     -0.190493      1.281721
  O      -2.063072      1.210488     -0.947815
  N      -0.190738      0.518016      0.179199
  N       0.413627     -1.728184      0.217047
  C       0.704943     -0.425455      0.606675
  C      -1.341398      0.283408     -0.610020
  C      -0.688047     -2.062320     -0.540121
  C      -1.558848     -1.120330     -0.960584
  H      -0.022147      1.496451      0.500348
  H       1.073283     -2.424825      0.533504
  H      -2.428491     -1.362636     -1.556536
  H      -0.792320     -3.118255     -0.764948
22
Coordinates from ORCA-job semicarbazide_uracil_opt_freq E -695.104809557873
  N       3.826396      2.989860      2.101925
  N       2.497646      2.566387      1.924012
  C       1.519363      3.457609      1.549052
  O       0.380899      3.046069      1.257866
  N       1.858191      4.774186      1.539855
  H       4.167445      2.672629      3.005633
  H       4.426913      2.606104      1.373674
  H       2.272649      1.578498      1.781309
  H       2.790920      5.072908      1.780362
  H       1.159049      5.435550      1.246202
  O       1.717798     -0.186121      1.262952
  O      -2.069738      1.191212     -0.963195
  N      -0.190382      0.512631      0.161167
  N       0.409641     -1.735908      0.228596
  C       0.706131     -0.428222      0.596929
  C      -1.345287      0.269216     -0.618260
  C      -0.695812     -2.076977     -0.520343
  C      -1.565070     -1.139125     -0.951255
  H      -0.016384      1.493695      0.465666
  H       1.067072     -2.430668      0.553460
  H      -2.436587     -1.388861     -1.541326
  H      -0.805635     -3.135347     -0.731089
22
Coordinates from ORCA-job semicarbazide_uracil_opt_freq E -695.105038883851
  N       3.823018      2.993405      2.108903
  N       2.502827      2.570065      1.873010
  C       1.528247      3.472209      1.524349
  O       0.396488      3.078916      1.190489
  N       1.865957      4.789750      1.580245
  H       4.131197      2.660798      3.018999
  H       4.450537      2.628125      1.394969
  H       2.282120      1.582345      1.729121
  H       2.795744      5.072020      1.850455
  H       1.175984      5.463358      1.292807
  O       1.724039     -0.183011      1.241928
  O      -2.080527      1.175778     -0.965765
  N      -0.190882      0.506495      0.147838
  N       0.406182     -1.742477      0.233505
  C       0.708328     -0.431977      0.585920
  C      -1.351748      0.257669     -0.619705
  C      -0.703797     -2.088834     -0.507045
  C      -1.574381     -1.153569     -0.940911
  H      -0.010279      1.488523      0.438222
  H       1.063436     -2.436739      0.559825
  H      -2.448717     -1.409222     -1.524179
  H      -0.818557     -3.148302     -0.709787
22
Coordinates from ORCA-job semicarbazide_uracil_opt_freq E -695.105203386480
  N       3.816132      2.996959      2.128769
  N       2.510198      2.574221      1.822984
  C       1.537317      3.481626      1.492263
  O       0.415514      3.099697      1.113801
  N       1.869181      4.798489      1.610027
  H       4.087189      2.644139      3.043120
  H       4.474056      2.654409      1.431855
  H       2.293894      1.585277      1.681940
  H       2.796531      5.068442      1.899311
  H       1.184282      5.480305      1.329855
  O       1.737119     -0.181218      1.215903
  O      -2.090161      1.166531     -0.957414
  N      -0.188201      0.501753      0.138679
  N       0.405674     -1.746821      0.232597
  C       0.714384     -0.435031      0.572738
  C      -1.357720      0.250245     -0.613901
  C      -0.712076     -2.096989     -0.494935
  C      -1.586456     -1.162670     -0.924405
  H       0.001120      1.485679      0.414812
  H       1.065329     -2.441010      0.554418
  H      -2.466672     -1.421686     -1.497224
  H      -0.831416     -3.157018     -0.692000
22
Coordinates from ORCA-job semicarbazide_uracil_opt_freq E -695.105341639997
  N       3.808382      3.006031      2.159152
  N       2.524827      2.578724      1.774357
  C       1.548992      3.484692      1.457703
  O       0.438068      3.111228      1.042143
  N       1.867225      4.799423      1.628350
  H       4.038503      2.632865      3.076728
  H       4.502163      2.688223      1.486222
  H       2.316197      1.587901      1.634291
  H       2.795270      5.061384      1.923368
  H       1.181663      5.484454      1.357083
  O       1.751352     -0.182838      1.189293
  O      -2.100179      1.162816     -0.940425
  N      -0.185597      0.497064      0.133634
  N       0.405004     -1.751022      0.227527
  C       0.720627     -0.439331      0.559502
  C      -1.364983      0.246287     -0.603209
  C      -0.721665     -2.102018     -0.486021
  C      -1.600672     -1.167111     -0.906199
  H       0.014820      1.482118      0.397788
  H       1.068371     -2.446222      0.539638
  H      -2.487963     -1.427293     -1.467470
  H      -0.845188     -3.162047     -0.680259
22
Coordinates from ORCA-job semicarbazide_uracil_opt_freq E -695.105427897905
  N       3.798269      3.011228      2.189528
  N       2.542831      2.583374      1.723133
  C       1.560411      3.486934      1.420812
  O       0.462609      3.112854      0.968692
  N       1.859269      4.798188      1.644735
  H       3.985837      2.613987      3.106913
  H       4.528158      2.718393      1.544150
  H       2.338790      1.590923      1.583165
  H       2.784358      5.059800      1.949153
  H       1.172436      5.483332      1.376926
  O       1.768706     -0.187906      1.162938
  O      -2.104784      1.164305     -0.921394
  N      -0.179188      0.494408      0.130526
  N       0.405805     -1.754789      0.221494
  C       0.729103     -0.443430      0.546305
  C      -1.368851      0.245983     -0.590665
  C      -0.731408     -2.104191     -0.475856
  C      -1.613653     -1.167470     -0.885635
  H       0.033628      1.481224      0.383825
  H       1.072316     -2.451148      0.524244
  H      -2.509482     -1.426305     -1.433871
  H      -0.859943     -3.164368     -0.665926
22
Coordinates from ORCA-job semicarbazide_uracil_opt_freq E -695.105489088853
  N       3.794394      3.017461      2.216778
  N       2.560445      2.584672      1.698751
  C       1.572142      3.481893      1.394892
  O       0.481361      3.107850      0.927054
  N       1.849681      4.791319      1.643035
  H       3.951009      2.613675      3.137451
  H       4.548773      2.729850      1.597580
  H       2.358497      1.592102      1.558473
  H       2.772199      5.057715      1.952205
  H       1.160027      5.472153      1.371033
  O       1.782039     -0.188966      1.139012
  O      -2.113736      1.167563     -0.899594
  N      -0.176757      0.494204      0.129052
  N       0.408761     -1.755166      0.210428
  C       0.735374     -0.444140      0.533335
  C      -1.375640      0.247823     -0.578089
  C      -0.737722     -2.102743     -0.472281
  C      -1.624947     -1.165385     -0.869613
  H       0.046131      1.481261      0.377415
  H       1.079529     -2.451752      0.503028
  H      -2.528332     -1.423069     -1.405944
  H      -0.868010     -3.162994     -0.660806
22
Coordinates from ORCA-job semicarbazide_uracil_opt_freq E -695.105528111469
  N       3.787181      3.016464      2.231463
  N       2.574961      2.589325      1.661762
  C       1.580573      3.485774      1.373230
  O       0.498609      3.109278      0.885169
  N       1.841901      4.791446      1.656200
  H       3.912306      2.597564      3.150550
  H       4.564213      2.738851      1.636233
  H       2.372254      1.596921      1.514972
  H       2.758784      5.060962      1.979309
  H       1.154860      5.472757      1.378845
  O       1.792769     -0.192308      1.122878
  O      -2.115640      1.168801     -0.888194
  N      -0.171807      0.493489      0.126296
  N       0.410082     -1.757672      0.207617
  C       0.741044     -0.446154      0.524977
  C      -1.377157      0.248158     -0.570729
  C      -0.743150     -2.103596     -0.464349
  C      -1.631386     -1.165399     -0.856547
  H       0.059534      1.481109      0.369189
  H       1.082125     -2.454374      0.496820
  H      -2.540214     -1.421758     -1.384302
  H      -0.876622     -3.164312     -0.648192
22
Coordinates from ORCA-job semicarbazide_uracil_opt_freq E -695.105549211107
  N       3.787237      3.013423      2.235702
  N       2.578001      2.590047      1.656609
  C       1.583981      3.487596      1.368754
  O       0.503473      3.112868      0.876739
  N       1.840533      4.792958      1.658037
  H       3.901309      2.596374      3.157272
  H       4.568693      2.729109      1.649529
  H       2.371696      1.599116      1.507123
  H       2.753482      5.064244      1.990644
  H       1.158330      5.475096      1.371050
  O       1.797019     -0.189399      1.112483
  O      -2.121631      1.166394     -0.882110
  N      -0.171826      0.494154      0.123064
  N       0.412880     -1.757049      0.203740
  C       0.743464     -0.444628      0.518640
  C      -1.380332      0.247031     -0.567901
  C      -0.743351     -2.104134     -0.462490
  C      -1.633863     -1.167187     -0.851779
  H       0.061457      1.481508      0.365078
  H       1.086365     -2.452534      0.492407
  H      -2.544989     -1.424412     -1.375136
  H      -0.876710     -3.165252     -0.644260
22
Coordinates from ORCA-job semicarbazide_uracil_opt_freq E -695.105542347696
  N       3.785737      3.012661      2.239051
  N       2.579889      2.590764      1.651863
  C       1.585930      3.488373      1.365662
  O       0.506773      3.115139      0.869936
  N       1.840711      4.793432      1.660327
  H       3.892359      2.596379      3.161903
  H       4.570946      2.727375      1.658606
  H       2.373665      1.600093      1.501740
  H       2.752402      5.064688      1.996347
  H       1.161462      5.476475      1.368487
  O       1.799888     -0.187852      1.105573
  O      -2.125581      1.164570     -0.877860
  N      -0.171739      0.494285      0.121022
  N       0.414091     -1.756882      0.201661
  C       0.745096     -0.444136      0.514662
  C      -1.382156      0.246198     -0.565700
  C      -0.743836     -2.104837     -0.461315
  C      -1.635684     -1.168363     -0.848616
  H       0.062835      1.481176      0.362063
  H       1.088179     -2.452002      0.489797
  H      -2.548022     -1.426221     -1.369523
  H      -0.877728     -3.165989     -0.642493
22
Coordinates from ORCA-job semicarbazide_uracil_opt_freq E -695.105552699775
  N       3.784606      3.012221      2.242971
  N       2.581268      2.591543      1.649504
  C       1.587664      3.489060      1.363302
  O       0.509989      3.117275      0.863531
  N       1.841007      4.793844      1.662135
  H       3.885699      2.596774      3.166787
  H       4.572372      2.726503      1.666439
  H       2.375221      1.600888      1.499521
  H       2.751927      5.065531      1.999825
  H       1.164088      5.477364      1.365807
  O       1.802695     -0.186551      1.098720
  O      -2.129302      1.162788     -0.873831
  N      -0.171368      0.494222      0.118455
  N       0.415192     -1.756748      0.199117
  C       0.746742     -0.443889      0.510530
  C      -1.383831      0.245299     -0.563725
  C      -0.744480     -2.105668     -0.460454
  C      -1.637749     -1.169531     -0.845477
  H       0.064125      1.480769      0.358359
  H       1.089743     -2.451646      0.486765
  H      -2.551389     -1.427934     -1.363805
  H      -0.879002     -3.166786     -0.641282
22
Coordinates from ORCA-job semicarbazide_uracil_opt_freq E -695.105554734780
  N       3.783057      3.011618      2.247880
  N       2.583968      2.592432      1.644694
  C       1.589837      3.489401      1.360085
  O       0.514222      3.118854      0.855391
  N       1.840249      4.793470      1.665635
  H       3.877286      2.595196      3.171933
  H       4.574666      2.727452      1.676116
  H       2.378766      1.601764      1.493745
  H       2.750735      5.066356      2.003468
  H       1.165042      5.477045      1.365260
  O       1.805742     -0.184823      1.091485
  O      -2.132643      1.161285     -0.870492
  N      -0.170454      0.494491      0.114817
  N       0.416198     -1.756322      0.196922
  C       0.748589     -0.443320      0.506086
  C      -1.385286      0.244643     -0.562114
  C      -0.745510     -2.106355     -0.458598
  C      -1.640111     -1.170560     -0.841610
  H       0.066111      1.480788      0.353242
  H       1.091012     -2.451019      0.484507
  H      -2.555318     -1.429558     -1.356848
  H      -0.880939     -3.167512     -0.638408
22
Coordinates from ORCA-job semicarbazide_uracil_opt_freq E -695.105559451956
  N       3.781581      3.011045      2.254818
  N       2.587926      2.593723      1.639444
  C       1.592743      3.489713      1.356497
  O       0.520289      3.120282      0.844637
  N       1.838174      4.792725      1.671368
  H       3.867857      2.592494      3.178616
  H       4.577774      2.729539      1.688368
  H       2.383809      1.603105      1.486807
  H       2.748408      5.068165      2.007867
  H       1.164754      5.475709      1.365304
  O       1.810050     -0.182912      1.081298
  O      -2.136154      1.159630     -0.867497
  N      -0.168375      0.494989      0.108254
  N       0.417375     -1.755795      0.193806
  C       0.751297     -0.442567      0.499404
  C      -1.386804      0.243855     -0.560991
  C      -0.747455     -2.107286     -0.455481
  C      -1.643564     -1.171899     -0.836220
  H       0.069061      1.481378      0.344487
  H       1.092136     -2.450328      0.481999
  H      -2.561241     -1.431625     -1.346663
  H      -0.884423     -3.168615     -0.632927
22
Coordinates from ORCA-job semicarbazide_uracil_opt_freq E -695.105574555231
  N       3.780632      3.010007      2.262340
  N       2.593387      2.594830      1.633181
  C       1.595949      3.489207      1.354092
  O       0.527417      3.120768      0.834059
  N       1.834101      4.790580      1.681815
  H       3.859292      2.586806      3.184620
  H       4.581914      2.733696      1.700745
  H       2.391347      1.604492      1.476142
  H       2.745049      5.069754      2.013365
  H       1.162500      5.472330      1.368545
  O       1.814226     -0.178676      1.069635
  O      -2.139430      1.157599     -0.868561
  N      -0.165422      0.496645      0.097000
  N       0.418437     -1.754089      0.191575
  C       0.754102     -0.440119      0.491155
  C      -1.388237      0.243008     -0.562619
  C      -0.749990     -2.108110     -0.449890
  C      -1.647462     -1.173788     -0.830206
  H       0.071732      1.483596      0.330394
  H       1.092485     -2.448126      0.482684
  H      -2.568035     -1.435071     -1.334595
  H      -0.888777     -3.170014     -0.622282
22
Coordinates from ORCA-job semicarbazide_uracil_opt_freq E -695.105585452518
  N       3.778897      3.009631      2.273707
  N       2.601714      2.597324      1.623962
  C       1.600641      3.489517      1.349513
  O       0.538872      3.121286      0.815553
  N       1.827103      4.787974      1.697544
  H       3.846509      2.578202      3.193063
  H       4.588015      2.740298      1.720038
  H       2.401757      1.607399      1.461135
  H       2.738837      5.071019      2.024001
  H       1.159142      5.468468      1.373518
  O       1.821726     -0.174727      1.050762
  O      -2.142648      1.155555     -0.869919
  N      -0.160214      0.498402      0.080424
  N       0.419758     -1.752673      0.187903
  C       0.758807     -0.437477      0.478015
  C      -1.389982      0.241779     -0.565075
  C      -0.754572     -2.109335     -0.441118
  C      -1.653621     -1.176328     -0.820764
  H       0.076664      1.486846      0.308876
  H       1.093020     -2.446141      0.482151
  H      -2.579004     -1.439468     -1.315296
  H      -0.896201     -3.172223     -0.604797
22
Coordinates from ORCA-job semicarbazide_uracil_opt_freq E -695.105595631560
  N       3.779827      3.009812      2.275875
  N       2.605342      2.597604      1.621259
  C       1.601765      3.488550      1.350894
  O       0.542459      3.120089      0.812727
  N       1.822604      4.785433      1.709029
  H       3.846783      2.573030      3.192866
  H       4.591065      2.744472      1.723181
  H       2.407093      1.608247      1.452937
  H       2.736459      5.068395      2.030003
  H       1.156846      5.465829      1.380043
  O       1.822964     -0.169907      1.043959
  O      -2.142840      1.154200     -0.878331
  N      -0.158350      0.500458      0.069394
  N       0.419493     -1.750530      0.189329
  C       0.759567     -0.433835      0.472641
  C      -1.390652      0.240953     -0.571060
  C      -0.756529     -2.109477     -0.435018
  C      -1.655652     -1.178220     -0.818411
  H       0.076099      1.490182      0.295205
  H       1.092084     -2.443026      0.487287
  H      -2.582512     -1.443536     -1.309023
  H      -0.898700     -3.173397     -0.591591
22
Coordinates from ORCA-job semicarbazide_uracil_opt_freq E -695.105602975894
  N       3.779768      3.011711      2.277779
  N       2.608446      2.599228      1.617649
  C       1.603010      3.489574      1.349444
  O       0.546513      3.120017      0.805860
  N       1.819295      4.784867      1.717258
  H       3.844616      2.570713      3.193118
  H       4.593664      2.748016      1.727897
  H       2.410527      1.610056      1.447161
  H       2.734112      5.064788      2.038555
  H       1.156930      5.466758      1.384690
  O       1.825365     -0.169313      1.037159
  O      -2.142226      1.153644     -0.882470
  N      -0.156923      0.500609      0.063408
  N       0.418702     -1.750656      0.190078
  C       0.760507     -0.432891      0.468285
  C      -1.391300      0.239956     -0.574073
  C      -0.758865     -2.110121     -0.430796
  C      -1.657831     -1.179657     -0.816092
  H       0.076807      1.491497      0.286051
  H       1.091650     -2.442681      0.488192
  H      -2.586001     -1.446037     -1.303657
  H      -0.901549     -3.174753     -0.582301
22
Coordinates from ORCA-job semicarbazide_uracil_opt_freq E -695.105615888169
  N       3.780506      3.012414      2.274835
  N       2.607500      2.599166      1.618161
  C       1.602358      3.490015      1.350579
  O       0.545209      3.120648      0.808451
  N       1.819911      4.785082      1.718994
  H       3.847454      2.571947      3.190383
  H       4.593341      2.747256      1.723977
  H       2.409183      1.610114      1.447549
  H       2.735587      5.061091      2.041398
  H       1.159576      5.468951      1.386585
  O       1.823944     -0.167957      1.038550
  O      -2.141980      1.152809     -0.886130
  N      -0.158582      0.500640      0.064135
  N       0.417815     -1.750282      0.192556
  C       0.759214     -0.431937      0.469646
  C      -1.391775      0.239214     -0.575999
  C      -0.758397     -2.110329     -0.430414
  C      -1.657185     -1.180545     -0.817780
  H       0.074305      1.491748      0.285720
  H       1.091663     -2.441678      0.490055
  H      -2.584320     -1.447823     -1.306820
  H      -0.900108     -3.175218     -0.581237
22
Coordinates from ORCA-job semicarbazide_uracil_opt_freq E -695.105618908362
  N       3.779679      3.012246      2.274171
  N       2.607836      2.600027      1.614655
  C       1.602964      3.491489      1.348207
  O       0.546555      3.122927      0.804338
  N       1.820378      4.785360      1.721597
  H       3.843851      2.571975      3.190081
  H       4.593637      2.745786      1.725646
  H       2.408585      1.611009      1.444950
  H       2.736221      5.057580      2.046861
  H       1.163217      5.471846      1.388385
  O       1.824519     -0.166679      1.036624
  O      -2.143024      1.151536     -0.886532
  N      -0.160184      0.500416      0.065605
  N       0.417471     -1.750079      0.194116
  C       0.758964     -0.431323      0.469621
  C      -1.392774      0.238269     -0.575626
  C      -0.758121     -2.110880     -0.429493
  C      -1.657443     -1.181617     -0.817096
  H       0.073185      1.491755      0.284475
  H       1.093038     -2.440753      0.489407
  H      -2.584117     -1.449695     -1.306561
  H      -0.899218     -3.175869     -0.580235
22
Coordinates from ORCA-job semicarbazide_uracil_opt_freq E -695.105620886521
  N       3.779045      3.011261      2.273887
  N       2.608827      2.600938      1.610083
  C       1.604025      3.492859      1.345488
  O       0.548479      3.125712      0.799530
  N       1.820662      4.785205      1.724877
  H       3.839628      2.570831      3.189955
  H       4.594337      2.744456      1.727676
  H       2.408589      1.612009      1.441126
  H       2.736675      5.055257      2.051681
  H       1.165708      5.473789      1.391529
  O       1.824840     -0.164850      1.034975
  O      -2.144273      1.149953     -0.887411
  N      -0.162010      0.500410      0.067090
  N       0.417156     -1.749554      0.195900
  C       0.758624     -0.430517      0.469792
  C      -1.393693      0.237326     -0.575261
  C      -0.757765     -2.111480     -0.428281
  C      -1.657657     -1.182769     -0.816167
  H       0.071906      1.492063      0.282647
  H       1.094349     -2.439429      0.489394
  H      -2.583819     -1.451655     -1.306147
  H      -0.898416     -3.176490     -0.579169
22
Coordinates from ORCA-job semicarbazide_uracil_opt_freq E -695.105624575119
  N       3.778439      3.010058      2.274546
  N       2.611754      2.602307      1.602807
  C       1.605961      3.494091      1.341498
  O       0.551929      3.128236      0.792050
  N       1.819856      4.784389      1.729365
  H       3.833792      2.567610      3.189929
  H       4.596348      2.745022      1.731591
  H       2.410737      1.613450      1.434261
  H       2.735605      5.054307      2.057112
  H       1.165686      5.474229      1.396879
  O       1.825269     -0.163392      1.033315
  O      -2.144962      1.148690     -0.888738
  N      -0.163582      0.500462      0.068577
  N       0.416615     -1.749145      0.197876
  C       0.758300     -0.429967      0.470065
  C      -1.394289      0.236637     -0.574874
  C      -0.757953     -2.112040     -0.426419
  C      -1.658145     -1.183694     -0.814649
  H       0.071441      1.492571      0.280053
  H       1.095061     -2.438391      0.490008
  H      -2.584036     -1.453064     -1.304861
  H      -0.898608     -3.177040     -0.577196
22
Coordinates from ORCA-job semicarbazide_uracil_opt_freq E -695.105627896561
  N       3.779057      3.009355      2.274161
  N       2.614206      2.603134      1.598258
  C       1.607316      3.494527      1.339695
  O       0.553878      3.129517      0.788618
  N       1.819151      4.783649      1.732157
  H       3.832448      2.564685      3.188527
  H       4.598180      2.746723      1.731969
  H       2.412530      1.614365      1.429959
  H       2.734489      5.055045      2.059885
  H       1.163713      5.473401      1.401870
  O       1.824330     -0.162783      1.034452
  O      -2.144417      1.148094     -0.891582
  N      -0.165132      0.500458      0.070469
  N       0.415742     -1.748983      0.199911
  C       0.757302     -0.429807      0.471579
  C      -1.394270      0.236316     -0.575487
  C      -0.758177     -2.112351     -0.425387
  C      -1.658025     -1.184162     -0.814735
  H       0.070524      1.493012      0.279089
  H       1.094538     -2.437952      0.491924
  H      -2.583362     -1.453579     -1.305959
  H      -0.898804     -3.177337     -0.576179
22
Coordinates from ORCA-job semicarbazide_uracil_opt_freq E -695.105630729189
  N       3.780143      3.009195      2.273437
  N       2.616276      2.603392      1.595699
  C       1.608163      3.494163      1.339372
  O       0.554760      3.129345      0.787886
  N       1.818523      4.782945      1.733375
  H       3.833644      2.562149      3.186608
  H       4.599839      2.749251      1.730816
  H       2.414292      1.614664      1.427536
  H       2.733269      5.056429      2.060898
  H       1.160886      5.471704      1.405399
  O       1.822772     -0.162571      1.036882
  O      -2.143363      1.148109     -0.894692
  N      -0.166535      0.500517      0.072364
  N       0.414900     -1.748869      0.201536
  C       0.756031     -0.429705      0.473529
  C      -1.394067      0.236344     -0.576502
  C      -0.758378     -2.112313     -0.424995
  C      -1.657655     -1.184216     -0.815665
  H       0.069529      1.493417      0.279304
  H       1.093417     -2.437824      0.494215
  H      -2.582410     -1.453469     -1.308079
  H      -0.898816     -3.177330     -0.575727
22
Coordinates from ORCA-job semicarbazide_uracil_opt_freq E -695.105632557283
  N       3.780721      3.009445      2.273916
  N       2.618565      2.603724      1.593266
  C       1.609113      3.493699      1.338950
  O       0.556201      3.128767      0.786371
  N       1.817707      4.782309      1.734445
  H       3.833513      2.559893      3.185928
  H       4.601654      2.751809      1.732003
  H       2.416571      1.615000      1.424953
  H       2.731807      5.057393      2.062334
  H       1.158596      5.470046      1.407343
  O       1.822223     -0.162300      1.037176
  O      -2.142908      1.148194     -0.896596
  N      -0.167389      0.500604      0.073020
  N       0.414476     -1.748745      0.202078
  C       0.755410     -0.429461      0.473954
  C      -1.394259      0.236352     -0.577195
  C      -0.758865     -2.112229     -0.424339
  C      -1.657922     -1.184315     -0.815726
  H       0.069128      1.493793      0.278604
  H       1.092653     -2.437747      0.495380
  H      -2.582624     -1.453536     -1.308261
  H      -0.899152     -3.177369     -0.574409
22
Coordinates from ORCA-job semicarbazide_uracil_opt_freq E -695.105631372185
  N       3.781187      3.010019      2.274459
  N       2.619830      2.603829      1.592629
  C       1.609656      3.493250      1.339032
  O       0.556960      3.128094      0.786124
  N       1.817585      4.782150      1.734091
  H       3.833764      2.559466      3.186031
  H       4.602757      2.753152      1.733093
  H       2.417897      1.615059      1.424578
  H       2.731164      5.057797      2.062904
  H       1.157643      5.469190      1.407240
  O       1.821955     -0.162116      1.036927
  O      -2.143050      1.148199     -0.897222
  N      -0.168135      0.500563      0.073510
  N       0.414310     -1.748672      0.201886
  C       0.755027     -0.429281      0.473912
  C      -1.394730      0.236268     -0.577408
  C      -0.759145     -2.112184     -0.424298
  C      -1.658299     -1.184434     -0.815774
  H       0.068646      1.493835      0.278477
  H       1.092326     -2.437722      0.495412
  H      -2.582987     -1.453726     -1.308298
  H      -0.899140     -3.177411     -0.574112
