22
Coordinates from ORCA-job semicarbazide_uracil_opt_freq E -695.105631372185
  N           3.78118688122006      3.01001874479409      2.27445905042876
  N           2.61982956989790      2.60382860313282      1.59262877813203
  C           1.60965573435652      3.49324997594654      1.33903237178561
  O           0.55695958953185      3.12809360691162      0.78612372044260
  N           1.81758533247882      4.78214983708696      1.73409075884925
  H           3.83376382536237      2.55946648801346      3.18603101553417
  H           4.60275736177285      2.75315212108201      1.73309339997709
  H           2.41789719186698      1.61505910959717      1.42457778204241
  H           2.73116448990375      5.05779727697215      2.06290447207089
  H           1.15764255267873      5.46919023438222      1.40724015370493
  O           1.82195493848768     -0.16211615585605      1.03692690555202
  O          -2.14305043840664      1.14819883434815     -0.89722156792696
  N          -0.16813543488153      0.50056289705514      0.07351035392394
  N           0.41430967797816     -1.74867159589585      0.20188610293924
  C           0.75502673435948     -0.42928123150557      0.47391219726292
  C          -1.39472965939656      0.23626786698932     -0.57740821443149
  C          -0.75914540594437     -2.11218359114856     -0.42429793837680
  C          -1.65829896881948     -1.18443364185795     -0.81577350813972
  H           0.06864583282046      1.49383458190717      0.27847658139193
  H           1.09232551156671     -2.43772157231436      0.49541183031697
  H          -2.58298740278300     -1.45372556157053     -1.30829808205131
  H          -0.89913997387215     -3.17741112113729     -0.57411181157086
