20
Coordinates from ORCA-job thiourea_uracil_opt_freq E -962.336338627469
  S       0.077964      4.035305      1.500097
  N       1.444605      2.184315      1.500097
  N       2.364804      4.288722      1.500097
  C       1.204249      3.542699      1.499697
  H       2.387983      1.811244      1.499797
  H       0.682178      1.514991      1.500097
  H       2.338481      5.302794      1.500197
  H       3.279172      3.849425      1.499997
  O       2.326400      0.965100      0.000100
  O      -2.297200      1.023200      0.000500
  N       0.018000      1.019900     -0.000200
  N       1.163700     -1.022100      0.000100
  C       1.252400      0.362900      0.000000
  C      -1.231500      0.414100     -0.000400
  C      -0.026800     -1.695500      0.000200
  C      -1.204900     -1.067600     -0.000200
  H       0.038200      2.035700     -0.000100
  H       2.018700     -1.570200      0.000400
  H      -2.144300     -1.606300     -0.000200
  H       0.046900     -2.776100      0.000400
20
Coordinates from ORCA-job thiourea_uracil_opt_freq E -962.491163519490
  S       0.013949      4.057512      1.498858
  N       1.452921      2.192818      1.513276
  N       2.370527      4.286744      1.495752
  C       1.238244      3.528790      1.502348
  H       2.390026      1.816452      1.512011
  H       0.694622      1.535922      1.508611
  H       2.337205      5.297289      1.487149
  H       3.286398      3.853821      1.498743
  O       2.330308      0.955879      0.000123
  O      -2.292109      1.030794      0.003321
  N       0.018916      1.013777      0.003054
  N       1.164771     -1.026311     -0.003339
  C       1.255339      0.357437     -0.000073
  C      -1.236630      0.407791      0.000108
  C      -0.029769     -1.703585     -0.005099
  C      -1.211197     -1.070591     -0.004079
  H       0.040694      2.036185      0.009312
  H       2.021747     -1.567404     -0.005269
  H      -2.151801     -1.605820     -0.005901
  H       0.044875     -2.784904     -0.008232
20
Coordinates from ORCA-job thiourea_uracil_opt_freq E -962.575422315984
  S      -0.036783      4.087543      1.494860
  N       1.467336      2.208811      1.539341
  N       2.386721      4.304255      1.489319
  C       1.276517      3.530696      1.508416
  H       2.396957      1.822621      1.538316
  H       0.706210      1.561040      1.528221
  H       2.339288      5.310587      1.464058
  H       3.306685      3.883158      1.499183
  O       2.330526      0.936478      0.006035
  O      -2.289873      1.031469      0.006466
  N       0.015514      0.998908      0.011148
  N       1.160006     -1.038068     -0.010430
  C       1.252723      0.344273      0.002363
  C      -1.248213      0.391065     -0.000429
  C      -0.037699     -1.720555     -0.019394
  C      -1.221761     -1.082445     -0.016294
  H       0.037365      2.027964      0.031180
  H       2.021460     -1.568664     -0.016178
  H      -2.163531     -1.614350     -0.024436
  H       0.039588     -2.802192     -0.031069
20
Coordinates from ORCA-job thiourea_uracil_opt_freq E -962.635495266999
  S      -0.088395      4.141260      1.493352
  N       1.499281      2.246856      1.597150
  N       2.418190      4.358511      1.478766
  C       1.320196      3.566769      1.526376
  H       2.421221      1.843398      1.593199
  H       0.730098      1.605319      1.573547
  H       2.345711      5.359978      1.419784
  H       3.345962      3.956714      1.500136
  O       2.327962      0.886884      0.016739
  O      -2.289161      1.021983      0.010320
  N       0.009511      0.964666      0.027143
  N       1.143222     -1.073073     -0.027252
  C       1.243360      0.308212      0.005549
  C      -1.266181      0.357570     -0.003750
  C      -0.057663     -1.756465     -0.052138
  C      -1.240529     -1.109417     -0.044870
  H       0.030040      1.997855      0.077133
  H       2.010915     -1.591405     -0.041090
  H      -2.185221     -1.635176     -0.067190
  H       0.020516     -2.837846     -0.082228
20
Coordinates from ORCA-job thiourea_uracil_opt_freq E -962.671532996600
  S      -0.140498      4.191230      1.505961
  N       1.549963      2.301768      1.676260
  N       2.440438      4.426336      1.467252
  C       1.352529      3.621287      1.556404
  H       2.469136      1.887694      1.658086
  H       0.776090      1.660589      1.638877
  H       2.333168      5.421791      1.367742
  H       3.377749      4.049523      1.496749
  O       2.328388      0.813451      0.020997
  O      -2.280940      1.016593      0.007240
  N       0.012773      0.921036      0.041790
  N       1.118651     -1.126450     -0.050060
  C       1.235050      0.254708      0.003217
  C      -1.277673      0.325630     -0.009702
  C      -0.087704     -1.798687     -0.090392
  C      -1.263066     -1.135890     -0.076985
  H       0.036383      1.950295      0.117308
  H       1.989628     -1.638801     -0.075009
  H      -2.214039     -1.649826     -0.114590
  H      -0.016992     -2.879683     -0.140469
20
Coordinates from ORCA-job thiourea_uracil_opt_freq E -962.689446934451
  S      -0.182230      4.225902      1.528905
  N       1.606465      2.357684      1.750498
  N       2.451779      4.485201      1.458947
  C       1.374131      3.672045      1.587989
  H       2.526446      1.944428      1.708643
  H       0.833390      1.714415      1.707401
  H       2.309877      5.473290      1.328458
  H       3.397580      4.132353      1.490233
  O       2.328931      0.743359      0.023544
  O      -2.273106      1.012216     -0.007384
  N       0.017979      0.880137      0.050866
  N       1.094595     -1.178522     -0.070031
  C       1.227518      0.203048     -0.000173
  C      -1.284628      0.301081     -0.019812
  C      -0.117724     -1.835266     -0.122620
  C      -1.284840     -1.157353     -0.103422
  H       0.047071      1.903969      0.134064
  H       1.965794     -1.689902     -0.105059
  H      -2.241811     -1.659340     -0.152775
  H      -0.058182     -2.916151     -0.187597
20
Coordinates from ORCA-job thiourea_uracil_opt_freq E -962.698775866568
  S      -0.202996      4.256715      1.558392
  N       1.662539      2.415665      1.816622
  N       2.459406      4.545128      1.457747
  C       1.392522      3.722760      1.620014
  H       2.584488      2.011317      1.738715
  H       0.892608      1.767320      1.778996
  H       2.287879      5.526548      1.308748
  H       3.412521      4.213639      1.487121
  O       2.327440      0.675988      0.024025
  O      -2.269120      1.001999     -0.031226
  N       0.019965      0.838619      0.054098
  N       1.071275     -1.230376     -0.087919
  C       1.218962      0.150945     -0.005255
  C      -1.290529      0.277245     -0.034973
  C      -0.147405     -1.871079     -0.150223
  C      -1.307084     -1.180223     -0.126542
  H       0.056773      1.859657      0.132906
  H       1.939770     -1.745731     -0.131360
  H      -2.269145     -1.671472     -0.184058
  H      -0.100833     -2.952068     -0.225152
20
Coordinates from ORCA-job thiourea_uracil_opt_freq E -962.704217620281
  S      -0.205424      4.284023      1.589265
  N       1.716715      2.473373      1.875578
  N       2.463996      4.608259      1.461592
  C       1.410821      3.772297      1.650934
  H       2.639083      2.081914      1.748350
  H       0.952743      1.816949      1.855032
  H       2.267334      5.583526      1.301889
  H       3.423898      4.297385      1.488780
  O       2.323468      0.611545      0.025575
  O      -2.266853      0.988777     -0.059315
  N       0.019019      0.796561      0.054227
  N       1.048556     -1.281286     -0.103772
  C       1.209658      0.098477     -0.010029
  C      -1.296069      0.253168     -0.052274
  C      -0.176901     -1.906826     -0.175112
  C      -1.329659     -1.204208     -0.148728
  H       0.066728      1.815870      0.122812
  H       1.912130     -1.804121     -0.153645
  H      -2.296335     -1.685191     -0.213087
  H      -0.143871     -2.987898     -0.257393
20
Coordinates from ORCA-job thiourea_uracil_opt_freq E -962.707792845874
  S      -0.192496      4.310821      1.619598
  N       1.770811      2.532882      1.932148
  N       2.468192      4.674553      1.467077
  C       1.431959      3.822439      1.680993
  H       2.687903      2.153293      1.743163
  H       1.014728      1.866379      1.937056
  H       2.249898      5.643331      1.296074
  H       3.434569      4.384403      1.495026
  O       2.315719      0.550022      0.032584
  O      -2.267626      0.971638     -0.086446
  N       0.013744      0.753358      0.054228
  N       1.025687     -1.331080     -0.118260
  C       1.198301      0.046000     -0.011920
  C      -1.303473      0.226706     -0.071280
  C      -0.206005     -1.943487     -0.201083
  C      -1.352525     -1.230543     -0.174160
  H       0.074235      1.770931      0.115433
  H       1.883571     -1.862695     -0.171997
  H      -2.323167     -1.702044     -0.246639
  H      -0.184989     -3.024312     -0.290918
20
Coordinates from ORCA-job thiourea_uracil_opt_freq E -962.710138898661
  S      -0.170165      4.333197      1.651970
  N       1.827842      2.593075      1.989315
  N       2.471952      4.740300      1.468246
  C       1.456421      3.870980      1.710010
  H       2.731219      2.221065      1.729420
  H       1.081892      1.915618      2.026444
  H       2.232736      5.700583      1.278998
  H       3.444898      4.472946      1.500613
  O       2.304192      0.492753      0.050506
  O      -2.271910      0.952238     -0.111325
  N       0.004045      0.710921      0.057040
  N       1.002575     -1.377913     -0.130091
  C       1.184452     -0.004198     -0.007572
  C      -1.313970      0.198711     -0.088946
  C      -0.233961     -1.979326     -0.230368
  C      -1.375048     -1.257545     -0.205981
  H       0.077271      1.726696      0.118840
  H       1.855223     -1.917768     -0.184062
  H      -2.348713     -1.720381     -0.291730
  H      -0.221913     -3.059358     -0.330650
20
Coordinates from ORCA-job thiourea_uracil_opt_freq E -962.711590352216
  S      -0.145191      4.347013      1.688578
  N       1.890132      2.652362      2.048282
  N       2.475154      4.800606      1.459851
  C       1.483609      3.915058      1.737242
  H       2.770706      2.282059      1.714794
  H       1.156006      1.964629      2.123449
  H       2.213246      5.749012      1.243256
  H       3.454859      4.559594      1.500224
  O       2.289008      0.441323      0.084405
  O      -2.280440      0.931769     -0.130304
  N      -0.009714      0.671472      0.062922
  N       0.979644     -1.419605     -0.139101
  C       1.167920     -0.049529      0.005186
  C      -1.327534      0.171276     -0.109486
  C      -0.259632     -2.011923     -0.264431
  C      -1.396333     -1.283036     -0.245663
  H       0.073657      1.685182      0.137677
  H       1.828556     -1.965700     -0.188592
  H      -2.371810     -1.738350     -0.349433
  H      -0.252806     -3.090618     -0.378180
20
Coordinates from ORCA-job thiourea_uracil_opt_freq E -962.712497550610
  S      -0.120809      4.350179      1.732184
  N       1.958585      2.708847      2.106753
  N       2.477846      4.851012      1.438302
  C       1.513075      3.952141      1.761493
  H       2.809254      2.335126      1.703678
  H       1.237392      2.013062      2.226147
  H       2.190548      5.783786      1.188660
  H       3.464169      4.640040      1.488038
  O       2.269110      0.398224      0.135206
  O      -2.293741      0.910621     -0.150242
  N      -0.028382      0.636777      0.075016
  N       0.957435     -1.453856     -0.142846
  C       1.147856     -0.087408      0.028184
  C      -1.345216      0.144604     -0.123095
  C      -0.281468     -2.039156     -0.302519
  C      -1.415484     -1.305860     -0.292803
  H       0.059890      1.648184      0.172449
  H       1.804795     -2.003035     -0.184100
  H      -2.390510     -1.755098     -0.424216
  H      -0.275308     -3.115595     -0.435613
20
Coordinates from ORCA-job thiourea_uracil_opt_freq E -962.713167364327
  S      -0.097149      4.343277      1.779123
  N       2.031608      2.762676      2.164837
  N       2.479492      4.889727      1.405101
  C       1.543541      3.981744      1.782183
  H       2.848100      2.381821      1.699679
  H       1.323896      2.062128      2.334123
  H       2.164834      5.803295      1.119690
  H       3.471853      4.713058      1.468077
  O       2.244063      0.362673      0.203195
  O      -2.312373      0.887954     -0.160067
  N      -0.050498      0.607934      0.086193
  N       0.936661     -1.480743     -0.145923
  C       1.124845     -0.118316      0.057599
  C      -1.363531      0.121771     -0.149979
  C      -0.298994     -2.060690     -0.344296
  C      -1.431654     -1.325180     -0.345383
  H       0.035390      1.615194      0.219220
  H       1.784039     -2.030748     -0.173844
  H      -2.404745     -1.770351     -0.502930
  H      -0.290342     -3.134629     -0.495925
20
Coordinates from ORCA-job thiourea_uracil_opt_freq E -962.713758325989
  S      -0.072274      4.324613      1.833997
  N       2.110929      2.812822      2.220235
  N       2.478708      4.912842      1.354716
  C       1.575569      4.001471      1.798065
  H       2.891141      2.423225      1.700811
  H       1.419120      2.112027      2.449003
  H       2.133771      5.803830      1.034561
  H       3.476407      4.776154      1.431556
  O       2.211004      0.337286      0.289606
  O      -2.335167      0.865339     -0.179133
  N      -0.078611      0.584863      0.108409
  N       0.917036     -1.498631     -0.141861
  C       1.096913     -0.140998      0.099384
  C      -1.386707      0.098788     -0.157311
  C      -0.310889     -2.074783     -0.389855
  C      -1.444125     -1.340312     -0.404682
  H      -0.004223      1.586387      0.281212
  H       1.766355     -2.046190     -0.154690
  H      -2.411346     -1.781906     -0.603422
  H      -0.294575     -3.144233     -0.569924
20
Coordinates from ORCA-job thiourea_uracil_opt_freq E -962.714299887027
  S      -0.052420      4.297190      1.876913
  N       2.174243      2.845254      2.263779
  N       2.475811      4.908695      1.295777
  C       1.600312      4.003438      1.803633
  H       2.930609      2.449169      1.713705
  H       1.498244      2.150806      2.548363
  H       2.106479      5.780084      0.949412
  H       3.476527      4.808351      1.387879
  O       2.176221      0.331457      0.380015
  O      -2.361841      0.844511     -0.183069
  N      -0.107389      0.574585      0.129801
  N       0.905032     -1.498486     -0.137221
  C       1.070202     -0.146272      0.143361
  C      -1.406599      0.085888     -0.173571
  C      -0.312198     -2.075241     -0.430761
  C      -1.449120     -1.346693     -0.457362
  H      -0.049995      1.569490      0.348411
  H       1.758011     -2.040468     -0.134560
  H      -2.408715     -1.789055     -0.688743
  H      -0.284378     -3.140107     -0.635087
20
Coordinates from ORCA-job thiourea_uracil_opt_freq E -962.714780710293
  S      -0.042194      4.265559      1.895250
  N       2.209286      2.854113      2.292158
  N       2.471985      4.875975      1.232321
  C       1.613385      3.986683      1.796013
  H       2.961721      2.455000      1.739674
  H       1.544460      2.169264      2.621461
  H       2.089612      5.735549      0.870405
  H       3.473329      4.799860      1.339938
  O       2.145037      0.348273      0.460942
  O      -2.387778      0.828957     -0.175142
  N      -0.133880      0.578515      0.157497
  N       0.903482     -1.477998     -0.132068
  C       1.048709     -0.131489      0.186089
  C      -1.422664      0.082457     -0.175083
  C      -0.301323     -2.060038     -0.463062
  C      -1.445448     -1.342960     -0.494920
  H      -0.096190      1.565127      0.415155
  H       1.762082     -2.010924     -0.120580
  H      -2.395873     -1.789844     -0.753605
  H      -0.258704     -3.119482     -0.691766
20
Coordinates from ORCA-job thiourea_uracil_opt_freq E -962.715426944598
  S      -0.032158      4.200348      1.912601
  N       2.257820      2.860154      2.333186
  N       2.455298      4.804931      1.126190
  C       1.627756      3.945784      1.778527
  H       3.007605      2.450626      1.787148
  H       1.614061      2.190645      2.726484
  H       2.050539      5.645373      0.743671
  H       3.456540      4.773605      1.256498
  O       2.096936      0.380684      0.588196
  O      -2.421960      0.815344     -0.159476
  N      -0.170860      0.591344      0.207180
  N       0.905550     -1.437628     -0.121279
  C       1.018601     -0.102463      0.255135
  C      -1.442267      0.087367     -0.170837
  C      -0.279345     -2.024649     -0.509574
  C      -1.434124     -1.324506     -0.548278
  H      -0.158550      1.563657      0.520507
  H       1.771564     -1.958008     -0.098784
  H      -2.369591     -1.776112     -0.849414
  H      -0.214378     -3.073901     -0.777006
20
Coordinates from ORCA-job thiourea_uracil_opt_freq E -962.716106304951
  S      -0.023726      4.083899      1.938716
  N       2.327748      2.866308      2.384196
  N       2.411244      4.685651      0.983114
  C       1.640768      3.872188      1.755864
  H       3.071119      2.435650      1.846759
  H       1.722025      2.215985      2.860537
  H       1.964373      5.492945      0.575725
  H       3.409519      4.736428      1.133323
  O       2.035008      0.421656      0.755481
  O      -2.454357      0.817905     -0.150488
  N      -0.211438      0.616381      0.272464
  N       0.910402     -1.380288     -0.098509
  C       0.983407     -0.063304      0.347225
  C      -1.459169      0.110313     -0.167361
  C      -0.248372     -1.965195     -0.561545
  C      -1.412901     -1.281210     -0.614392
  H      -0.223213      1.569631      0.646824
  H       1.782088     -1.890022     -0.059617
  H      -2.328148     -1.732764     -0.972135
  H      -0.157342     -2.999560     -0.875504
20
Coordinates from ORCA-job thiourea_uracil_opt_freq E -962.716473973896
  S      -0.023193      3.986692      1.958673
  N       2.374504      2.870315      2.412989
  N       2.365524      4.599155      0.897910
  C       1.642634      3.814232      1.745305
  H       3.113294      2.422899      1.882879
  H       1.801193      2.225158      2.937670
  H       1.882507      5.378315      0.475753
  H       3.359808      4.709973      1.048168
  O       2.004110      0.440889      0.852600
  O      -2.460990      0.839538     -0.159927
  N      -0.227718      0.639213      0.311481
  N       0.914287     -1.344121     -0.078200
  C       0.968101     -0.038787      0.402189
  C      -1.460770      0.138377     -0.168563
  C      -0.230299     -1.921935     -0.583855
  C      -1.396180     -1.241806     -0.648985
  H      -0.245960      1.584622      0.704339
  H       1.785649     -1.853387     -0.028569
  H      -2.299839     -1.688800     -1.040397
  H      -0.127627     -2.947948     -0.920785
20
Coordinates from ORCA-job thiourea_uracil_opt_freq E -962.716739450363
  S      -0.022596      3.934285      1.968290
  N       2.403904      2.886424      2.429103
  N       2.335735      4.574691      0.869368
  C       1.642882      3.794942      1.747681
  H       3.135691      2.423993      1.901113
  H       1.851778      2.233639      2.969072
  H       1.827947      5.331689      0.435403
  H       3.328863      4.711335      1.009186
  O       1.996719      0.431409      0.891363
  O      -2.452347      0.861363     -0.177942
  N      -0.229127      0.643468      0.332287
  N       0.911407     -1.340472     -0.067132
  C       0.964475     -0.040333      0.425433
  C      -1.456107      0.154369     -0.172884
  C      -0.229845     -1.908322     -0.592104
  C      -1.390926     -1.222021     -0.664624
  H      -0.239475      1.590522      0.720838
  H       1.778707     -1.856106     -0.013579
  H      -2.291350     -1.660752     -1.072738
  H      -0.127297     -2.931528     -0.937457
20
Coordinates from ORCA-job thiourea_uracil_opt_freq E -962.716870873477
  S      -0.025577      3.914202      1.955706
  N       2.410729      2.899897      2.437627
  N       2.324415      4.570140      0.860079
  C       1.640115      3.791939      1.746412
  H       3.147456      2.431264      1.919926
  H       1.867419      2.240024      2.978150
  H       1.808051      5.314249      0.414854
  H       3.318370      4.707192      0.991349
  O       1.998407      0.419303      0.906245
  O      -2.445801      0.871781     -0.179231
  N      -0.229194      0.638905      0.354004
  N       0.909708     -1.342499     -0.065501
  C       0.964529     -0.046743      0.437501
  C      -1.452978      0.160108     -0.168853
  C      -0.231054     -1.903078     -0.600138
  C      -1.389380     -1.212662     -0.670653
  H      -0.233502      1.587592      0.741076
  H       1.775266     -1.861357     -0.015954
  H      -2.289185     -1.644361     -1.087698
  H      -0.128757     -2.923301     -0.954223
20
Coordinates from ORCA-job thiourea_uracil_opt_freq E -962.716973894912
  S      -0.029543      3.904944      1.930104
  N       2.409094      2.911605      2.444651
  N       2.323701      4.568900      0.854372
  C       1.637932      3.792890      1.740643
  H       3.157327      2.443903      1.942179
  H       1.868726      2.248356      2.983639
  H       1.805333      5.303597      0.396704
  H       3.318354      4.702365      0.980881
  O       1.999715      0.408273      0.917771
  O      -2.444122      0.873911     -0.168015
  N      -0.231418      0.630547      0.377568
  N       0.908723     -1.344301     -0.068684
  C       0.963591     -0.053711      0.447527
  C      -1.452972      0.159989     -0.159151
  C      -0.231258     -1.899154     -0.611357
  C      -1.389197     -1.207414     -0.674877
  H      -0.233836      1.578993      0.768820
  H       1.774792     -1.862899     -0.026208
  H      -2.288625     -1.633066     -1.098992
  H      -0.127282     -2.915134     -0.976899
20
Coordinates from ORCA-job thiourea_uracil_opt_freq E -962.717134793592
  S      -0.038577      3.888220      1.869472
  N       2.398474      2.929265      2.457227
  N       2.329631      4.564110      0.844166
  C       1.633991      3.792421      1.724539
  H       3.175497      2.473086      1.989184
  H       1.859234      2.262906      2.993180
  H       1.811938      5.281977      0.360479
  H       3.324846      4.693074      0.966450
  O       2.001722      0.388563      0.939225
  O      -2.445285      0.871912     -0.134168
  N      -0.236494      0.614856      0.421759
  N       0.908419     -1.344164     -0.078359
  C       0.961599     -0.064680      0.465760
  C      -1.454992      0.156899     -0.135212
  C      -0.229755     -1.889423     -0.634318
  C      -1.389187     -1.198577     -0.680237
  H      -0.240175      1.561157      0.822135
  H       1.777476     -1.858805     -0.051479
  H      -2.288055     -1.614196     -1.115457
  H      -0.121274     -2.896005     -1.023669
20
Coordinates from ORCA-job thiourea_uracil_opt_freq E -962.717266403926
  S      -0.040747      3.872707      1.810659
  N       2.394644      2.952036      2.472483
  N       2.342672      4.566837      0.838682
  C       1.637572      3.795826      1.709855
  H       3.196541      2.511763      2.033498
  H       1.854542      2.286220      3.006680
  H       1.824998      5.264421      0.326345
  H       3.336552      4.703409      0.960919
  O       1.995835      0.365722      0.964601
  O      -2.452729      0.860792     -0.097793
  N      -0.244711      0.595032      0.456885
  N       0.904990     -1.348131     -0.089727
  C       0.954667     -0.080200      0.482423
  C      -1.461459      0.147229     -0.113815
  C      -0.230579     -1.883831     -0.659472
  C      -1.392369     -1.195272     -0.689106
  H      -0.251112      1.538118      0.869576
  H       1.777507     -1.857423     -0.075384
  H      -2.290258     -1.602014     -1.134658
  H      -0.117520     -2.880646     -1.071975
20
Coordinates from ORCA-job thiourea_uracil_opt_freq E -962.717356565504
  S      -0.044523      3.863874      1.756362
  N       2.380874      2.961081      2.481347
  N       2.357745      4.572100      0.841958
  C       1.638721      3.797056      1.696440
  H       3.209398      2.544735      2.070986
  H       1.834619      2.292799      3.007246
  H       1.846780      5.257355      0.306536
  H       3.351020      4.710053      0.967869
  O       1.996386      0.347642      0.973369
  O      -2.460265      0.847596     -0.061331
  N      -0.247865      0.584626      0.475970
  N       0.904739     -1.347713     -0.102235
  C       0.953355     -0.087870      0.488968
  C      -1.465932      0.138626     -0.093517
  C      -0.231048     -1.879166     -0.674121
  C      -1.395836     -1.195522     -0.687507
  H      -0.258243      1.526215      0.887475
  H       1.780297     -1.852023     -0.099643
  H      -2.294598     -1.599359     -1.133856
  H      -0.116589     -2.869508     -1.101642
20
Coordinates from ORCA-job thiourea_uracil_opt_freq E -962.717419475918
  S      -0.035095      3.854037      1.740185
  N       2.393192      2.978631      2.493796
  N       2.369381      4.577803      0.841663
  C       1.651012      3.800352      1.693941
  H       3.229409      2.573540      2.088662
  H       1.846388      2.312299      3.019252
  H       1.856455      5.249421      0.290779
  H       3.359260      4.734678      0.973656
  O       1.977866      0.339546      0.994388
  O      -2.475661      0.829042     -0.045793
  N      -0.259065      0.574862      0.476974
  N       0.899971     -1.350708     -0.108413
  C       0.941688     -0.096040      0.495482
  C      -1.476441      0.127055     -0.089801
  C      -0.232761     -1.880280     -0.687490
  C      -1.400524     -1.200852     -0.697871
  H      -0.270271      1.513631      0.898012
  H       1.776872     -1.852639     -0.104842
  H      -2.296970     -1.605126     -1.148334
  H      -0.115670     -2.866659     -1.123570
20
Coordinates from ORCA-job thiourea_uracil_opt_freq E -962.717466938130
  S      -0.032129      3.852668      1.732753
  N       2.393531      2.979885      2.495723
  N       2.375093      4.581359      0.844892
  C       1.654653      3.800594      1.692609
  H       3.236933      2.583557      2.096974
  H       1.844418      2.309170      3.014002
  H       1.864783      5.252894      0.291498
  H       3.363898      4.740610      0.982953
  O       1.972861      0.340313      0.994913
  O      -2.483261      0.819989     -0.039753
  N      -0.262961      0.575655      0.471191
  N       0.899934     -1.348796     -0.111921
  C       0.939308     -0.094589      0.493643
  C      -1.480633      0.122851     -0.088215
  C      -0.232998     -1.881016     -0.687913
  C      -1.402504     -1.205001     -0.696784
  H      -0.273680      1.514156      0.890183
  H       1.776572     -1.851133     -0.107593
  H      -2.298552     -1.613111     -1.144464
  H      -0.116232     -2.867462     -1.124013
20
Coordinates from ORCA-job thiourea_uracil_opt_freq E -962.717534360994
  S      -0.023735      3.848072      1.712925
  N       2.397250      2.986392      2.498995
  N       2.387575      4.593107      0.851811
  C       1.663722      3.803485      1.688611
  H       3.256596      2.607397      2.117628
  H       1.845118      2.302783      2.998084
  H       1.881614      5.265558      0.295763
  H       3.373593      4.756892      1.004550
  O       1.960555      0.341782      0.997198
  O      -2.499422      0.801121     -0.030665
  N      -0.273639      0.573403      0.463094
  N       0.898293     -1.347018     -0.118861
  C       0.932240     -0.094341      0.490815
  C      -1.490835      0.112602     -0.085758
  C      -0.234687     -1.884358     -0.690030
  C      -1.407480     -1.214615     -0.696166
  H      -0.281573      1.511463      0.881566
  H       1.773783     -1.851208     -0.111944
  H      -2.302288     -1.629473     -1.139988
  H      -0.117642     -2.870451     -1.126953
20
Coordinates from ORCA-job thiourea_uracil_opt_freq E -962.717610916812
  S      -0.011590      3.848411      1.681084
  N       2.401422      2.996685      2.498602
  N       2.406386      4.624553      0.870791
  C       1.676254      3.815660      1.683202
  H       3.281569      2.641977      2.142087
  H       1.846132      2.292397      2.965444
  H       1.906317      5.302078      0.315903
  H       3.388970      4.789868      1.042655
  O       1.949016      0.336210      0.991629
  O      -2.515452      0.779664     -0.025021
  N      -0.285251      0.564114      0.453778
  N       0.892697     -1.353627     -0.127620
  C       0.923696     -0.101566      0.483609
  C      -1.503057      0.096787     -0.084620
  C      -0.241822     -1.896445     -0.690862
  C      -1.417015     -1.231310     -0.693356
  H      -0.288275      1.503489      0.868906
  H       1.766165     -1.861172     -0.117258
  H      -2.311805     -1.652082     -1.131578
  H      -0.125322     -2.883096     -1.126700
20
Coordinates from ORCA-job thiourea_uracil_opt_freq E -962.717747493184
  S       0.011071      3.835621      1.620737
  N       2.413585      3.014694      2.493272
  N       2.433850      4.682212      0.903959
  C       1.698478      3.834709      1.670701
  H       3.329077      2.706874      2.185447
  H       1.861455      2.272636      2.903063
  H       1.938006      5.367417      0.355129
  H       3.408873      4.854812      1.108104
  O       1.929835      0.321260      0.986330
  O      -2.537392      0.751505     -0.024304
  N      -0.304214      0.545101      0.444913
  N       0.879892     -1.369223     -0.137883
  C       0.907657     -0.118423      0.475737
  C      -1.522293      0.072580     -0.085758
  C      -0.256463     -1.918216     -0.692210
  C      -1.433792     -1.257064     -0.691027
  H      -0.300050      1.487231      0.854889
  H       1.749865     -1.882447     -0.119907
  H      -2.328638     -1.683187     -1.123983
  H      -0.139765     -2.905496     -1.126534
20
Coordinates from ORCA-job thiourea_uracil_opt_freq E -962.717969478624
  S       0.045479      3.829158      1.553835
  N       2.437134      3.031499      2.467886
  N       2.463841      4.784112      0.970275
  C       1.729443      3.871039      1.658343
  H       3.387968      2.786654      2.215173
  H       1.898017      2.238024      2.792071
  H       1.967013      5.489924      0.449495
  H       3.427953      4.962724      1.215721
  O       1.913410      0.292258      0.960896
  O      -2.552385      0.729655     -0.052934
  N      -0.320454      0.517730      0.420395
  N       0.856098     -1.407396     -0.141347
  C       0.889387     -0.149940      0.457178
  C      -1.541720      0.043395     -0.102478
  C      -0.285381     -1.962675     -0.679885
  C      -1.459922     -1.296605     -0.684560
  H      -0.305821      1.466789      0.814374
  H       1.719378     -1.930993     -0.106653
  H      -2.357835     -1.725840     -1.108200
  H      -0.172566     -2.956916     -1.098909
20
Coordinates from ORCA-job thiourea_uracil_opt_freq E -962.718404963809
  S       0.085758      3.813071      1.502047
  N       2.480316      3.038226      2.413387
  N       2.478300      4.905750      1.059257
  C       1.763051      3.910615      1.647317
  H       3.457549      2.862700      2.206562
  H       1.972422      2.190536      2.638828
  H       1.963663      5.639969      0.598433
  H       3.428384      5.092745      1.348242
  O       1.901482      0.258715      0.925243
  O      -2.551203      0.729603     -0.127543
  N      -0.329905      0.491724      0.383312
  N       0.823201     -1.461002     -0.124547
  C       0.870731     -0.187603      0.436291
  C      -1.554684      0.022231     -0.142441
  C      -0.324117     -2.019746     -0.648526
  C      -1.488864     -1.336837     -0.678401
  H      -0.304987      1.450385      0.754600
  H       1.677181     -1.997170     -0.061060
  H      -2.391367     -1.763833     -1.094860
  H      -0.217875     -3.027484     -1.035465
20
Coordinates from ORCA-job thiourea_uracil_opt_freq E -962.719095335042
  S       0.120150      3.800430      1.486830
  N       2.537150      3.027062      2.314039
  N       2.471253      5.035187      1.180830
  C       1.789845      3.952648      1.644172
  H       3.525914      2.918666      2.116770
  H       2.073061      2.135977      2.440628
  H       1.922432      5.800849      0.820766
  H       3.408820      5.224355      1.506074
  O       1.905506      0.225036      0.867921
  O      -2.520583      0.756201     -0.258533
  N      -0.322373      0.473274      0.325127
  N       0.781865     -1.528145     -0.077447
  C       0.858407     -0.226802      0.409113
  C      -1.552134      0.013736     -0.211347
  C      -0.372585     -2.086485     -0.587035
  C      -1.517518     -1.373577     -0.668521
  H      -0.290638      1.445550      0.662151
  H       1.626452     -2.073675      0.023551
  H      -2.427344     -1.792190     -1.077969
  H      -0.278643     -3.115504     -0.916445
20
Coordinates from ORCA-job thiourea_uracil_opt_freq E -962.719793341483
  S       0.157819      3.775809      1.426338
  N       2.586480      3.021963      2.219018
  N       2.464589      5.131308      1.292099
  C       1.817268      3.982022      1.627670
  H       3.588828      2.984433      2.059710
  H       2.164006      2.095713      2.242815
  H       1.885759      5.908655      1.012066
  H       3.384392      5.324477      1.662416
  O       1.902920      0.196295      0.830872
  O      -2.499494      0.767994     -0.353176
  N      -0.319249      0.458734      0.282288
  N       0.746965     -1.575504     -0.035653
  C       0.845272     -0.255840      0.393947
  C      -1.551692      0.004243     -0.260554
  C      -0.411597     -2.132820     -0.536577
  C      -1.541077     -1.400627     -0.659260
  H      -0.284274      1.439666      0.591230
  H       1.585693     -2.124667      0.091844
  H      -2.455548     -1.813560     -1.064327
  H      -0.328025     -3.175702     -0.822086
20
Coordinates from ORCA-job thiourea_uracil_opt_freq E -962.719999003842
  S       0.167749      3.716391      1.391973
  N       2.641225      2.978336      2.048193
  N       2.423460      5.183915      1.424841
  C       1.821558      3.976474      1.616041
  H       3.630003      3.040987      1.863983
  H       2.282867      2.045922      2.031340
  H       1.798496      5.956619      1.244073
  H       3.321995      5.403108      1.833288
  O       1.928378      0.172892      0.816761
  O      -2.434720      0.819070     -0.478249
  N      -0.286695      0.465319      0.234699
  N       0.701589     -1.624638      0.067673
  C       0.840853     -0.279712      0.404412
  C      -1.519729      0.025234     -0.326883
  C      -0.451644     -2.161116     -0.459354
  C      -1.550848     -1.397168     -0.659518
  H      -0.267621      1.459340      0.513324
  H       1.550834     -2.157081      0.196913
  H      -2.468029     -1.791178     -1.076535
  H      -0.390688     -3.220117     -0.686298
20
Coordinates from ORCA-job thiourea_uracil_opt_freq E -962.721270839789
  S       0.217419      3.739726      1.255647
  N       2.668431      2.989648      1.954618
  N       2.426391      5.247167      1.556238
  C       1.851285      4.012054      1.584327
  H       3.675855      3.115445      1.866989
  H       2.335948      2.023862      1.775258
  H       1.789867      6.022434      1.437762
  H       3.301411      5.433186      2.027123
  O       1.915562      0.156272      0.765675
  O      -2.433779      0.799799     -0.538540
  N      -0.286645      0.455473      0.181373
  N       0.680934     -1.645613      0.094236
  C       0.832642     -0.290383      0.378489
  C      -1.525647      0.004426     -0.356505
  C      -0.479589     -2.193809     -0.404203
  C      -1.571939     -1.429532     -0.630935
  H      -0.257080      1.450950      0.420865
  H       1.522359     -2.184211      0.248025
  H      -2.494253     -1.832624     -1.027477
  H      -0.430135     -3.261674     -0.588291
20
Coordinates from ORCA-job thiourea_uracil_opt_freq E -962.722107480820
  S       0.209395      3.728606      1.255438
  N       2.647139      2.977859      2.035501
  N       2.437121      5.202970      1.457930
  C       1.846366      3.980190      1.578716
  H       3.656894      3.046225      1.970856
  H       2.299223      2.028498      1.886247
  H       1.821216      5.984943      1.292196
  H       3.309222      5.383711      1.935279
  O       1.893913      0.196867      0.814908
  O      -2.487194      0.774444     -0.459712
  N      -0.317037      0.475275      0.210430
  N       0.714076     -1.598686      0.052513
  C       0.832048     -0.256016      0.393674
  C      -1.547610      0.007548     -0.314092
  C      -0.442805     -2.159203     -0.447489
  C      -1.555139     -1.417577     -0.637963
  H      -0.276383      1.465473      0.483065
  H       1.549213     -2.149058      0.199217
  H      -2.468345     -1.840635     -1.034773
  H      -0.382280     -3.218837     -0.671266
20
Coordinates from ORCA-job thiourea_uracil_opt_freq E -962.723037748199
  S       0.219206      3.743454      1.182716
  N       2.649755      2.961995      1.975104
  N       2.431861      5.210484      1.510683
  C       1.847133      3.978783      1.560766
  H       3.657890      3.058236      1.936503
  H       2.318520      2.014832      1.797529
  H       1.815706      5.996453      1.365426
  H       3.287673      5.379767      2.021582
  O       1.894410      0.202563      0.810850
  O      -2.483056      0.774977     -0.468736
  N      -0.309709      0.479182      0.190790
  N       0.708461     -1.603901      0.077436
  C       0.832102     -0.255414      0.392564
  C      -1.542552      0.009067     -0.319624
  C      -0.447693     -2.163689     -0.423674
  C      -1.556164     -1.420152     -0.628820
  H      -0.263715      1.470960      0.455912
  H       1.545847     -2.152110      0.217750
  H      -2.469956     -1.846104     -1.020800
  H      -0.396685     -3.226786     -0.633281
20
Coordinates from ORCA-job thiourea_uracil_opt_freq E -962.723902044257
  S       0.238940      3.773382      1.083214
  N       2.656472      2.950067      1.912051
  N       2.424984      5.216386      1.575226
  C       1.852125      3.977488      1.538772
  H       3.660850      3.083763      1.913066
  H       2.344622      2.004028      1.690182
  H       1.810968      6.006500      1.445378
  H       3.261106      5.372042      2.122704
  O       1.891708      0.203798      0.815435
  O      -2.485603      0.769881     -0.470189
  N      -0.305960      0.481744      0.170531
  N       0.704026     -1.610011      0.098123
  C       0.831018     -0.257327      0.393880
  C      -1.541288      0.007756     -0.320284
  C      -0.452702     -2.169331     -0.400959
  C      -1.559018     -1.425434     -0.616159
  H      -0.247540      1.479935      0.415852
  H       1.540455     -2.160319      0.233921
  H      -2.473246     -1.856638     -1.000878
  H      -0.412882     -3.235114     -0.599190
20
Coordinates from ORCA-job thiourea_uracil_opt_freq E -962.724431630736
  S       0.247167      3.789182      1.010385
  N       2.657752      2.931784      1.840483
  N       2.408963      5.210453      1.633636
  C       1.848675      3.969630      1.517396
  H       3.657411      3.085230      1.878096
  H       2.366972      1.989223      1.573132
  H       1.787914      5.999906      1.537988
  H       3.230579      5.344749      2.208173
  O       1.899682      0.212026      0.803001
  O      -2.472264      0.780151     -0.493913
  N      -0.294050      0.491389      0.153144
  N       0.701801     -1.606531      0.123709
  C       0.836634     -0.249225      0.390305
  C      -1.532583      0.015627     -0.329236
  C      -0.457256     -2.169148     -0.366760
  C      -1.558875     -1.422791     -0.597220
  H      -0.227244      1.493835      0.373270
  H       1.536552     -2.158199      0.264150
  H      -2.475195     -1.855937     -0.974775
  H      -0.423598     -3.238757     -0.544291
20
Coordinates from ORCA-job thiourea_uracil_opt_freq E -962.723405362380
  S       0.266829      3.735121      0.845647
  N       2.707645      2.878163      1.672622
  N       2.343200      5.158739      1.706429
  C       1.849136      3.905018      1.449049
  H       3.702617      3.111170      1.809310
  H       2.435601      1.922479      1.383491
  H       1.671742      5.914080      1.682929
  H       3.128611      5.283050      2.334182
  O       1.920896      0.240640      0.852040
  O      -2.450767      0.822872     -0.524653
  N      -0.285561      0.528839      0.167005
  N       0.698282     -1.580351      0.182503
  C       0.841138     -0.220550      0.427220
  C      -1.520634      0.053925     -0.333195
  C      -0.457670     -2.141465     -0.319836
  C      -1.550625     -1.388593     -0.578055
  H      -0.204144      1.555187      0.355233
  H       1.530208     -2.133245      0.335607
  H      -2.463951     -1.818768     -0.966634
  H      -0.423519     -3.213718     -0.480218
20
Coordinates from ORCA-job thiourea_uracil_opt_freq E -962.673357519251
  S       0.303684      3.831615      0.905157
  N       2.680349      2.964302      1.689844
  N       2.372242      5.022400      1.701715
  C       1.869056      3.928924      1.473111
  H       3.609327      3.100238      1.779311
  H       2.344776      2.045143      1.427729
  H       1.731073      5.713803      1.649507
  H       3.158913      5.124841      2.256428
  O       1.854268      0.282200      0.808874
  O      -2.462734      0.762357     -0.535325
  N      -0.292683      0.528004      0.172135
  N       0.713564     -1.523213      0.192398
  C       0.821724     -0.184158      0.423533
  C      -1.521876      0.029352     -0.332026
  C      -0.428414     -2.105269     -0.303965
  C      -1.533342     -1.390187     -0.585143
  H      -0.229275      1.525734      0.356806
  H       1.561346     -2.047827      0.361215
  H      -2.439140     -1.833839     -0.986419
  H      -0.373822     -3.161825     -0.454209
20
Coordinates from ORCA-job thiourea_uracil_opt_freq E -962.720704857243
  S       0.297676      3.819556      0.893636
  N       2.695813      2.920537      1.688889
  N       2.394384      5.213165      1.738912
  C       1.875128      3.966006      1.473214
  H       3.632602      3.058592      1.780988
  H       2.371682      1.997621      1.421234
  H       1.729807      5.957740      1.690191
  H       3.191588      5.318662      2.333217
  O       1.887975      0.231529      0.796049
  O      -2.458234      0.785381     -0.534742
  N      -0.289144      0.495031      0.160132
  N       0.697184     -1.603420      0.172119
  C       0.831068     -0.243601      0.406541
  C      -1.526462      0.019496     -0.337342
  C      -0.461364     -2.168190     -0.319568
  C      -1.557142     -1.418269     -0.590448
  H      -0.203878      1.503647      0.353562
  H       1.529001     -2.152848      0.334381
  H      -2.471990     -1.848708     -0.986001
  H      -0.426659     -3.239333     -0.474287
20
Coordinates from ORCA-job thiourea_uracil_opt_freq E -962.715229275922
  S       0.221886      3.812168      0.863726
  N       2.669632      2.915428      1.704622
  N       2.376013      5.160230      1.700850
  C       1.827532      3.942821      1.451833
  H       3.749250      3.128960      1.850271
  H       2.354201      1.977165      1.446597
  H       1.716154      5.942515      1.643635
  H       3.204847      5.273456      2.303848
  O       1.923606      0.212124      0.841147
  O      -2.451090      0.816473     -0.501412
  N      -0.286358      0.490264      0.176736
  N       0.696815     -1.603890      0.160262
  C       0.839032     -0.249466      0.421524
  C      -1.523434      0.034647     -0.324819
  C      -0.457840     -2.154973     -0.340406
  C      -1.552150     -1.398618     -0.585458
  H      -0.221635      1.498194      0.357480
  H       1.532717     -2.152993      0.315596
  H      -2.464791     -1.811855     -0.974257
  H      -0.415351     -3.220052     -0.511101
20
Coordinates from ORCA-job thiourea_uracil_opt_freq E -962.721352451550
  S       0.281845      3.824350      0.953311
  N       2.674552      2.889491      1.694083
  N       2.381985      5.184866      1.687483
  C       1.854591      3.956046      1.472558
  H       3.693928      3.061418      1.815591
  H       2.369767      1.948072      1.425178
  H       1.743276      5.989467      1.680650
  H       3.180572      5.277270      2.254994
  O       1.899338      0.254384      0.830010
  O      -2.461604      0.801392     -0.530971
  N      -0.303649      0.520991      0.181345
  N       0.697300     -1.590830      0.176000
  C       0.826194     -0.216718      0.428298
  C      -1.529256      0.032400     -0.340228
  C      -0.451959     -2.172643     -0.338179
  C      -1.546706     -1.425630     -0.602316
  H      -0.243532      1.538782      0.382202
  H       1.529439     -2.139417      0.347108
  H      -2.453863     -1.865855     -1.008803
  H      -0.403180     -3.255242     -0.507638
20
Coordinates from ORCA-job thiourea_uracil_opt_freq E -962.704915767308
  S       0.307785      3.808174      0.805982
  N       2.641097      2.904943      1.679816
  N       2.421720      5.223637      1.742555
  C       1.880538      3.961993      1.440520
  H       3.535181      2.998963      1.816998
  H       2.305642      2.000217      1.383436
  H       1.803403      5.938947      1.699270
  H       3.210324      5.303647      2.437022
  O       1.886573      0.243639      0.783915
  O      -2.475072      0.740651     -0.507706
  N      -0.291214      0.510951      0.126796
  N       0.716346     -1.567309      0.146163
  C       0.842338     -0.219899      0.375787
  C      -1.529206      0.008319     -0.335401
  C      -0.444901     -2.146824     -0.313178
  C      -1.547498     -1.420336     -0.551691
  H      -0.199270      1.520997      0.306693
  H       1.545675     -2.115011      0.315416
  H      -2.461086     -1.871062     -0.900602
  H      -0.409337     -3.212045     -0.451114
20
Coordinates from ORCA-job thiourea_uracil_opt_freq E -962.724756615356
  S       0.264352      3.811616      0.851120
  N       2.656492      2.899877      1.688214
  N       2.383980      5.188195      1.716871
  C       1.850208      3.950355      1.448194
  H       3.650179      3.036306      1.834449
  H       2.342022      1.973796      1.401513
  H       1.733797      5.962289      1.683672
  H       3.184915      5.281547      2.344827
  O       1.905967      0.233105      0.804519
  O      -2.453248      0.803058     -0.510454
  N      -0.281627      0.507553      0.153867
  N       0.708982     -1.589726      0.155362
  C       0.844449     -0.232423      0.398408
  C      -1.518117      0.035505     -0.328461
  C      -0.450359     -2.154016     -0.321081
  C      -1.546567     -1.404397     -0.567928
  H      -0.194455      1.516798      0.342367
  H       1.535328     -2.146672      0.322497
  H      -2.461647     -1.835757     -0.941960
  H      -0.415614     -3.224412     -0.475319
20
Coordinates from ORCA-job thiourea_uracil_opt_freq E -962.721866923449
  S       0.251933      3.890370      0.816088
  N       2.607886      2.896374      1.705912
  N       2.393701      5.194477      1.707038
  C       1.826915      3.972539      1.449396
  H       3.597977      3.050987      1.870276
  H       2.272017      1.962159      1.441915
  H       1.786403      5.970272      1.611244
  H       3.184926      5.225676      2.306816
  O       1.966011      0.204939      0.857382
  O      -2.439351      0.796994     -0.429832
  N      -0.255676      0.513791      0.184813
  N       0.717205     -1.593088      0.144582
  C       0.876328     -0.234371      0.426948
  C      -1.504763      0.031834     -0.285861
  C      -0.456665     -2.159870     -0.357864
  C      -1.550732     -1.413676     -0.575373
  H      -0.168313      1.536268      0.356509
  H       1.547341     -2.150419      0.282255
  H      -2.477151     -1.849695     -0.960408
  H      -0.436957     -3.232966     -0.551160
20
Coordinates from ORCA-job thiourea_uracil_opt_freq E -962.724671385315
  S       0.268067      3.829869      0.877056
  N       2.659866      2.897596      1.688483
  N       2.377064      5.185669      1.701580
  C       1.846309      3.959844      1.450389
  H       3.644228      3.040564      1.824151
  H       2.348679      1.958093      1.423449
  H       1.735224      5.973315      1.672125
  H       3.176135      5.274375      2.325367
  O       1.920989      0.225704      0.830753
  O      -2.446859      0.808451     -0.500976
  N      -0.276635      0.515741      0.157810
  N       0.706797     -1.593955      0.153325
  C       0.848730     -0.230585      0.409576
  C      -1.515103      0.038369     -0.326819
  C      -0.454598     -2.160985     -0.332300
  C      -1.548527     -1.408954     -0.578287
  H      -0.200035      1.527774      0.349898
  H       1.534446     -2.150433      0.320980
  H      -2.464384     -1.841310     -0.952523
  H      -0.421358     -3.236546     -0.493361
20
Coordinates from ORCA-job thiourea_uracil_opt_freq E -962.715648881391
  S       0.264830      3.780816      0.839447
  N       2.608547      2.886025      1.665026
  N       2.410690      5.177697      1.741364
  C       1.845232      3.928132      1.445677
  H       3.618355      2.995076      1.839270
  H       2.286891      1.993580      1.377044
  H       1.784331      5.948220      1.725706
  H       3.180201      5.292852      2.313046
  O       1.872011      0.253042      0.774335
  O      -2.469392      0.804006     -0.529096
  N      -0.290993      0.498961      0.149689
  N       0.725088     -1.585607      0.157998
  C       0.834100     -0.239303      0.384237
  C      -1.523856      0.040588     -0.333091
  C      -0.423648     -2.137211     -0.299218
  C      -1.529964     -1.384891     -0.553571
  H      -0.191312      1.509195      0.340898
  H       1.552982     -2.141059      0.327296
  H      -2.437887     -1.809542     -0.923136
  H      -0.377171     -3.197983     -0.442243
20
Coordinates from ORCA-job thiourea_uracil_opt_freq E -962.724857280796
  S       0.254648      3.807469      0.846691
  N       2.647864      2.895241      1.678487
  N       2.370415      5.186916      1.715802
  C       1.839118      3.952503      1.444095
  H       3.640859      3.029329      1.834915
  H       2.337906      1.965314      1.389228
  H       1.719927      5.957520      1.684518
  H       3.173043      5.273656      2.332971
  O       1.924908      0.221968      0.797454
  O      -2.433134      0.816459     -0.506073
  N      -0.261095      0.509617      0.170265
  N       0.711678     -1.593332      0.161994
  C       0.858813     -0.236522      0.405337
  C      -1.504957      0.043825     -0.320199
  C      -0.456101     -2.150657     -0.318423
  C      -1.547872     -1.394717     -0.566441
  H      -0.172430      1.519694      0.357057
  H       1.536045     -2.150687      0.325472
  H      -2.471324     -1.819674     -0.952578
  H      -0.429273     -3.221328     -0.479896
20
Coordinates from ORCA-job thiourea_uracil_opt_freq E -962.723009645660
  S       0.284556      3.843384      0.851340
  N       2.632821      2.887301      1.680406
  N       2.398043      5.168297      1.702472
  C       1.848147      3.947641      1.438248
  H       3.612814      3.033045      1.857108
  H       2.324209      1.948037      1.404022
  H       1.789485      5.972863      1.685109
  H       3.176560      5.255219      2.337251
  O       1.915161      0.249117      0.860845
  O      -2.474253      0.793348     -0.490593
  N      -0.297415      0.530459      0.134555
  N       0.716636     -1.575147      0.130521
  C       0.841308     -0.210950      0.402890
  C      -1.529670      0.035412     -0.326019
  C      -0.438744     -2.158185     -0.337650
  C      -1.540576     -1.418871     -0.565784
  H      -0.225509      1.549425      0.320604
  H       1.545520     -2.136465      0.313664
  H      -2.445797     -1.865400     -0.905645
  H      -0.394259     -3.235937     -0.492668
20
Coordinates from ORCA-job thiourea_uracil_opt_freq E -962.725111903059
  S       0.264464      3.797305      0.850425
  N       2.664794      2.895288      1.671781
  N       2.360465      5.181340      1.715381
  C       1.841972      3.946860      1.444167
  H       3.650379      3.041713      1.831188
  H       2.372924      1.959248      1.382013
  H       1.707386      5.950806      1.688028
  H       3.151536      5.277348      2.328876
  O       1.924802      0.217633      0.832241
  O      -2.434694      0.821109     -0.504086
  N      -0.265747      0.516337      0.161965
  N       0.707717     -1.593867      0.156547
  C       0.854094     -0.235608      0.412096
  C      -1.506999      0.048348     -0.323032
  C      -0.457962     -2.150818     -0.324098
  C      -1.548291     -1.393338     -0.570027
  H      -0.178972      1.528707      0.349004
  H       1.530591     -2.153741      0.327792
  H      -2.468327     -1.818904     -0.945183
  H      -0.431097     -3.223171     -0.484400
20
Coordinates from ORCA-job thiourea_uracil_opt_freq E -962.723855111955
  S       0.262211      3.897011      0.796398
  N       2.588004      2.882357      1.659354
  N       2.406789      5.169847      1.732748
  C       1.833615      3.956149      1.425796
  H       3.577248      2.999596      1.860697
  H       2.253351      1.968867      1.359485
  H       1.798074      5.974752      1.698909
  H       3.201860      5.219838      2.387908
  O       1.921326      0.253734      0.786368
  O      -2.457798      0.795051     -0.485915
  N      -0.263748      0.517041      0.148744
  N       0.731567     -1.573840      0.148116
  C       0.862883     -0.216553      0.389864
  C      -1.514411      0.031733     -0.311272
  C      -0.436816     -2.155083     -0.309821
  C      -1.541856     -1.414737     -0.544835
  H      -0.172470      1.530488      0.322130
  H       1.557530     -2.135115      0.319529
  H      -2.466552     -1.859696     -0.914765
  H      -0.401770     -3.228841     -0.468763
20
Coordinates from ORCA-job thiourea_uracil_opt_freq E -962.725168936223
  S       0.261916      3.837185      0.841797
  N       2.636104      2.896498      1.671203
  N       2.378721      5.186869      1.724174
  C       1.838603      3.962055      1.441386
  H       3.624153      3.029788      1.840666
  H       2.325637      1.966660      1.377995
  H       1.743623      5.969345      1.695279
  H       3.173365      5.262859      2.345914
  O       1.928844      0.219837      0.808147
  O      -2.436718      0.813972     -0.503843
  N      -0.263210      0.511350      0.154962
  N       0.713680     -1.595808      0.150551
  C       0.858660     -0.236523      0.400539
  C      -1.507500      0.040892     -0.323129
  C      -0.454030     -2.157527     -0.320072
  C      -1.547603     -1.402584     -0.562110
  H      -0.178526      1.523716      0.339778
  H       1.537293     -2.154856      0.323289
  H      -2.468875     -1.830598     -0.929183
  H      -0.425102     -3.230537     -0.476667
20
Coordinates from ORCA-job thiourea_uracil_opt_freq E -962.725108712564
  S       0.278104      3.801387      0.817151
  N       2.669402      2.896616      1.641391
  N       2.358065      5.176811      1.737770
  C       1.847767      3.944932      1.431893
  H       3.652623      3.047725      1.825392
  H       2.392881      1.967720      1.322065
  H       1.701485      5.943446      1.724466
  H       3.141316      5.269405      2.369894
  O       1.919381      0.222609      0.833333
  O      -2.436763      0.816431     -0.507760
  N      -0.267013      0.519219      0.159441
  N       0.706023     -1.590051      0.168133
  C       0.850488     -0.231628      0.415547
  C      -1.508855      0.046336     -0.323745
  C      -0.459897     -2.151972     -0.314838
  C      -1.550244     -1.397302     -0.565579
  H      -0.179811      1.533787      0.338959
  H       1.527715     -2.150352      0.347935
  H      -2.471033     -1.826927     -0.947011
  H      -0.432595     -3.225598     -0.473761
20
Coordinates from ORCA-job thiourea_uracil_opt_freq E -962.724692515193
  S       0.234103      3.779820      0.865624
  N       2.642791      2.880558      1.706854
  N       2.350492      5.159746      1.668312
  C       1.821460      3.918240      1.449897
  H       3.625525      3.012324      1.863230
  H       2.341374      1.941718      1.464145
  H       1.698533      5.936940      1.596930
  H       3.153712      5.270686      2.266688
  O       1.938727      0.216799      0.851283
  O      -2.427849      0.843807     -0.462348
  N      -0.251091      0.521613      0.184076
  N       0.722111     -1.584127      0.136923
  C       0.869172     -0.234947      0.418330
  C      -1.496541      0.065983     -0.297905
  C      -0.447252     -2.132258     -0.343802
  C      -1.539597     -1.371620     -0.566371
  H      -0.150364      1.535338      0.377249
  H       1.542087     -2.155666      0.291724
  H      -2.462422     -1.792119     -0.944132
  H      -0.425933     -3.200240     -0.526033
20
Coordinates from ORCA-job thiourea_uracil_opt_freq E -962.725081049584
  S       0.260340      3.831286      0.834993
  N       2.647505      2.898121      1.669332
  N       2.363804      5.184495      1.739069
  C       1.835040      3.958105      1.443027
  H       3.632151      3.045274      1.844206
  H       2.356498      1.970153      1.349037
  H       1.723724      5.961743      1.707431
  H       3.158913      5.258640      2.360938
  O       1.937035      0.213162      0.792777
  O      -2.429304      0.824006     -0.520281
  N      -0.255171      0.511489      0.143697
  N       0.709721     -1.599272      0.149995
  C       0.862741     -0.239103      0.392022
  C      -1.503228      0.045417     -0.331138
  C      -0.460838     -2.157832     -0.309487
  C      -1.551226     -1.399128     -0.554451
  H      -0.167889      1.522705      0.328390
  H       1.530631     -2.161332      0.324329
  H      -2.474250     -1.823924     -0.908620
  H      -0.437160     -3.231408     -0.454590
20
Coordinates from ORCA-job thiourea_uracil_opt_freq E -962.725126030988
  S       0.266865      3.815048      0.848885
  N       2.650186      2.898929      1.666189
  N       2.373047      5.185611      1.720338
  C       1.842629      3.955460      1.439747
  H       3.637407      3.042203      1.839379
  H       2.352944      1.966047      1.378583
  H       1.730634      5.962674      1.699962
  H       3.166595      5.277822      2.340230
  O       1.925429      0.217427      0.817473
  O      -2.437426      0.811105     -0.495754
  N      -0.265714      0.514332      0.155944
  N       0.710610     -1.594612      0.155552
  C       0.854681     -0.236187      0.403799
  C      -1.509556      0.040910     -0.322311
  C      -0.457382     -2.156633     -0.322485
  C      -1.550749     -1.401891     -0.567433
  H      -0.182649      1.528425      0.338716
  H       1.534184     -2.153214      0.334709
  H      -2.474568     -1.830773     -0.948332
  H      -0.428131     -3.230090     -0.482516
20
Coordinates from ORCA-job thiourea_uracil_opt_freq E -962.725163356810
  S       0.267311      3.817676      0.812481
  N       2.651012      2.893933      1.643781
  N       2.354280      5.174573      1.743962
  C       1.836728      3.947058      1.432789
  H       3.630983      3.039608      1.834571
  H       2.372808      1.965985      1.318512
  H       1.704034      5.949690      1.723901
  H       3.141958      5.254416      2.369600
  O       1.937087      0.216580      0.811660
  O      -2.423457      0.829870     -0.510846
  N      -0.253076      0.518030      0.153989
  N       0.710414     -1.594458      0.162377
  C       0.863290     -0.235185      0.404912
  C      -1.499307      0.052273     -0.322104
  C      -0.460946     -2.152723     -0.308033
  C      -1.549364     -1.392967     -0.553984
  H      -0.160838      1.532773      0.330433
  H       1.529691     -2.158995      0.337896
  H      -2.474181     -1.818341     -0.923388
  H      -0.439391     -3.227203     -0.461833
