20
Coordinates from ORCA-job thiourea_uracil_opt_freq E -962.725163356810
  S           0.26731053145460      3.81767640163496      0.81248130672612
  N           2.65101242784519      2.89393252766212      1.64378117833326
  N           2.35428010249986      5.17457342511488      1.74396177481702
  C           1.83672797411387      3.94705840510877      1.43278926819294
  H           3.63098270167749      3.03960793428744      1.83457053716899
  H           2.37280826297939      1.96598510969424      1.31851217582118
  H           1.70403371761648      5.94969030016880      1.72390088830300
  H           3.14195790789118      5.25441582361509      2.36959962968669
  O           1.93708735114952      0.21657998810609      0.81166024765385
  O          -2.42345691334134      0.82987017323953     -0.51084620504852
  N          -0.25307622508820      0.51803046555993      0.15398912655382
  N           0.71041413823786     -1.59445810376014      0.16237724891735
  C           0.86328975405637     -0.23518534090816      0.40491151363481
  C          -1.49930669634188      0.05227325491435     -0.32210408331053
  C          -0.46094600080655     -2.15272255759289     -0.30803251637137
  C          -1.54936431122905     -1.39296671111815     -0.55398409868742
  H          -0.16083770406858      1.53277331784834      0.33043275304424
  H           1.52969080709235     -2.15899478472336      0.33789618779479
  H          -2.47418107400060     -1.81834140463308     -0.92338824441601
  H          -0.43939075173800     -3.22720322421884     -0.46183268881423
