12
Coordinates from ORCA-job uracil_opt_freq E -414.624507360744
  O           2.32107510041509      0.95794037803126      0.00012769860581
  O          -2.26726117617299      1.08397949131696     -0.00007470827148
  N           0.01781257678046      0.99209216038165     -0.00005782861106
  N           1.16377421615808     -1.02462736070941      0.00012603812689
  C           1.25305103631707      0.36668588264789      0.00006387812419
  C          -1.26005253735816      0.38998466240014     -0.00014524086874
  C          -0.03044772064563     -1.71082346207610      0.00011944675572
  C          -1.22131297090179     -1.06978815298118      0.00001889754216
  H           0.03903095026718      2.00623750259005     -0.00006493655261
  H           2.04991802777872     -1.51068009553165      0.00022976882937
  H          -2.16073120898348     -1.60562324364407      0.00004398927360
  H           0.05474370634546     -2.79227776242553      0.00021299704615
