12
Coordinates from ORCA-job uracil_opt_freq E -414.621079007213
  O       2.326400      0.965100      0.000100
  O      -2.297200      1.023200      0.000500
  N       0.018000      1.019900     -0.000200
  N       1.163700     -1.022100      0.000100
  C       1.252400      0.362900      0.000000
  C      -1.231500      0.414100     -0.000400
  C      -0.026800     -1.695500      0.000200
  C      -1.204900     -1.067600     -0.000200
  H       0.038200      2.035700     -0.000100
  H       2.018700     -1.570200      0.000400
  H      -2.144300     -1.606300     -0.000200
  H       0.046900     -2.776100      0.000400
12
Coordinates from ORCA-job uracil_opt_freq E -414.623613898239
  O       2.317240      0.967411     -0.000034
  O      -2.281821      1.053521     -0.000086
  N       0.017501      1.003564     -0.000035
  N       1.168842     -1.019674      0.000173
  C       1.253890      0.363225      0.000049
  C      -1.243405      0.402174      0.000331
  C      -0.028457     -1.706108      0.000148
  C      -1.215517     -1.069652     -0.000049
  H       0.042666      2.017497     -0.000230
  H       2.033702     -1.539871      0.000358
  H      -2.156892     -1.600175     -0.000210
  H       0.051851     -2.788812      0.000184
12
Coordinates from ORCA-job uracil_opt_freq E -414.624389709592
  O       2.314777      0.967144      0.000365
  O      -2.268083      1.079011      0.000464
  N       0.016057      0.991238     -0.000290
  N       1.167822     -1.020770      0.000014
  C       1.254324      0.364975      0.000031
  C      -1.255627      0.391259     -0.000924
  C      -0.030531     -1.712786      0.000047
  C      -1.221504     -1.070821     -0.000078
  H       0.043566      2.005072      0.000058
  H       2.047186     -1.518116      0.000312
  H      -2.164728     -1.598971      0.000245
  H       0.056342     -2.794135      0.000358
12
Coordinates from ORCA-job uracil_opt_freq E -414.624462428887
  O       2.317429      0.964044     -0.000231
  O      -2.267099      1.083376     -0.000872
  N       0.016192      0.990517      0.000216
  N       1.165656     -1.022643      0.000279
  C       1.253984      0.365820      0.000104
  C      -1.258999      0.389786      0.001256
  C      -0.030725     -1.712620      0.000195
  C      -1.221461     -1.070658      0.000178
  H       0.042582      2.004467     -0.000351
  H       2.048512     -1.514066      0.000226
  H      -2.163780     -1.601230     -0.000318
  H       0.057309     -2.793694     -0.000082
12
Coordinates from ORCA-job uracil_opt_freq E -414.624490373128
  O       2.320358      0.959604      0.000836
  O      -2.267397      1.084936      0.001406
  N       0.016938      0.991294     -0.000633
  N       1.163545     -1.024492     -0.000195
  C       1.253253      0.366556      0.000008
  C      -1.261033      0.389507     -0.002697
  C      -0.030645     -1.711389     -0.000055
  C      -1.221050     -1.070143     -0.000249
  H       0.040955      2.005402      0.000429
  H       2.049224     -1.511442      0.000285
  H      -2.161654     -1.604216      0.000759
  H       0.057106     -2.792517      0.000706
12
Coordinates from ORCA-job uracil_opt_freq E -414.624488148841
  O       2.321141      0.957948     -0.000309
  O      -2.267707      1.084242     -0.001058
  N       0.017495      0.992024      0.000302
  N       1.163263     -1.024857      0.000320
  C       1.252947      0.366717      0.000100
  C      -1.260812      0.389861      0.001525
  C      -0.030521     -1.710747      0.000232
  C      -1.221010     -1.069863      0.000212
  H       0.039993      2.006181     -0.000390
  H       2.049471     -1.511018      0.000191
  H      -2.160767     -1.605329     -0.000401
  H       0.056106     -2.792059     -0.000123
12
Coordinates from ORCA-job uracil_opt_freq E -414.624496239283
  O       2.320972      0.958114      0.000032
  O      -2.267518      1.083954     -0.000283
  N       0.017630      0.992054      0.000015
  N       1.163622     -1.024660      0.000165
  C       1.253016      0.366674      0.000081
  C      -1.260343      0.389951      0.000209
  C      -0.030493     -1.710824      0.000140
  C      -1.221190     -1.069850      0.000059
  H       0.039655      2.006196     -0.000135
  H       2.049642     -1.510979      0.000223
  H      -2.160864     -1.605323     -0.000047
  H       0.055471     -2.792208      0.000140
12
Coordinates from ORCA-job uracil_opt_freq E -414.624507360744
  O       2.321075      0.957940      0.000128
  O      -2.267261      1.083979     -0.000075
  N       0.017813      0.992092     -0.000058
  N       1.163774     -1.024627      0.000126
  C       1.253051      0.366686      0.000064
  C      -1.260053      0.389985     -0.000145
  C      -0.030448     -1.710823      0.000119
  C      -1.221313     -1.069788      0.000019
  H       0.039031      2.006238     -0.000065
  H       2.049918     -1.510680      0.000230
  H      -2.160731     -1.605623      0.000044
  H       0.054744     -2.792278      0.000213
