8
Coordinates from ORCA-job urea_opt_freq E -225.166369411852
  O      -1.304200     -0.000800      0.000100
  N       0.690300     -1.147900      0.000100
  N       0.688800      1.148900      0.000100
  C      -0.074900     -0.000100     -0.000300
  H       1.704100     -1.111100     -0.000200
  H       0.260500     -2.066900      0.000100
  H       0.257800      2.067200      0.000200
  H       1.702600      1.113400      0.000000
8
Coordinates from ORCA-job urea_opt_freq E -225.167307690023
  O      -1.282649     -0.000800     -0.000035
  N       0.695157     -1.156644      0.000258
  N       0.693636      1.157602      0.000242
  C      -0.056575     -0.000060      0.000538
  H       1.701529     -1.146216     -0.000235
  H       0.238306     -2.052306     -0.000377
  H       0.235571      2.052656     -0.000278
  H       1.700026      1.148468     -0.000013
8
Coordinates from ORCA-job urea_opt_freq E -225.167739611795
  O      -1.263245     -0.000805      0.000209
  N       0.701505     -1.163012      0.000092
  N       0.699972      1.163957      0.000042
  C      -0.038016     -0.000006     -0.000701
  H       1.706655     -1.181322     -0.000185
  H       0.207867     -2.037807      0.000233
  H       0.205153      2.038117      0.000331
  H       1.705109      1.183579      0.000079
8
Coordinates from ORCA-job urea_opt_freq E -225.167773018273
  O      -1.257137     -0.000815     -0.000327
  N       0.705553     -1.164496      0.000574
  N       0.704021      1.165446      0.000480
  C      -0.030238      0.000009      0.001897
  H       1.711447     -1.196104     -0.000419
  H       0.192080     -2.029925     -0.001049
  H       0.189399      2.030203     -0.000954
  H       1.709875      1.198382     -0.000102
8
Coordinates from ORCA-job urea_opt_freq E -225.167847887798
  O      -1.257860     -0.000817      0.000535
  N       0.706274     -1.163979     -0.000072
  N       0.704743      1.164934     -0.000206
  C      -0.030147      0.000002     -0.002257
  H       1.712575     -1.196166     -0.000108
  H       0.190543     -2.028878      0.000930
  H       0.187871      2.029153      0.001019
  H       1.711001      1.198451      0.000257
8
Coordinates from ORCA-job urea_opt_freq E -225.167836332987
  O      -1.258558     -0.000816     -0.000016
  N       0.706233     -1.163671      0.000392
  N       0.704702      1.164627      0.000225
  C      -0.030721     -0.000003      0.000333
  H       1.712619     -1.194951     -0.000356
  H       0.191175     -2.029085     -0.000306
  H       0.188504      2.029361     -0.000225
  H       1.711046      1.197238      0.000053
8
Coordinates from ORCA-job urea_opt_freq E -225.167827831911
  O      -1.258611     -0.000815      0.000018
  N       0.706160     -1.163655      0.000402
  N       0.704629      1.164611      0.000192
  C      -0.030874     -0.000005      0.000156
  H       1.712504     -1.194550     -0.000378
  H       0.191466     -2.029199     -0.000226
  H       0.188794      2.029477     -0.000153
  H       1.710932      1.196836      0.000089
