20
Coordinates from ORCA-job urea_uracil_opt_freq E -639.806987520820
  O           0.64055395931474      4.67212498674666      2.68138399049004
  N           2.16679741433567      2.95391654101383      2.70386651328342
  N           1.22212075427225      3.65702069194413      0.69158698417715
  C           1.30266984743066      3.82649135889206      2.09403109677231
  H           2.38096985591644      2.06956058424661      2.24867603924372
  H           2.12373055560740      2.95860644077540      3.71284703957063
  H           0.74932839221646      4.44646582999982      0.26480989266714
  H           2.10801379073338      3.44903735376226      0.24059061599237
  O           2.23918353083118      0.43060575492215      1.05266546343428
  O          -1.75639431429949      1.28838031150212     -1.04113976529639
  N           0.21926638944995      0.84269100744869      0.02467268596697
  N           1.04255774215576     -1.32104721715970      0.19715751651905
  C           1.23362483221815      0.02721046947992      0.46690869164438
  C          -0.94427023969626      0.45079620238345     -0.67619592895814
  C          -0.06491387766501     -1.81044353108210     -0.46358417761375
  C          -1.04645314152127     -0.99040957292269     -0.89944344012119
  H           0.34623542841387      1.84795416235082      0.20934482566470
  H           1.77912017661513     -1.93463058432732      0.51751626971676
  H          -1.91688603715481     -1.36609891520012     -1.42022253683103
  H          -0.08621905917424     -2.88563687477604     -0.60479577632247
