8
Coordinates from ORCA-job urea_opt_freq E -225.167827831911
  O          -1.25861117956596     -0.00081496094217      0.00001783437523
  N           0.70616014836999     -1.16365462275717      0.00040150041836
  N           0.70462880761291      1.16461057507948      0.00019224337597
  C          -0.03087376615321     -0.00000482143687      0.00015623805744
  H           1.71250443682581     -1.19454977042762     -0.00037760168566
  H           0.19146558262315     -2.02919944999643     -0.00022554483674
  H           0.18879406055567      2.02947662130816     -0.00015335127319
  H           1.71093190973163      1.19683642917262      0.00008868156861
