20
Coordinates from ORCA-job urea_uracil_opt_freq E -639.705101303594
  O       0.077964      4.035305      1.500097
  N       1.444605      2.184315      1.500097
  N       2.364804      4.288722      1.500097
  C       1.204249      3.542699      1.499697
  H       2.387983      1.811244      1.499797
  H       0.682178      1.514991      1.500097
  H       2.338481      5.302794      1.500197
  H       3.279172      3.849425      1.499997
  O       2.326400      0.965100      0.000100
  O      -2.297200      1.023200      0.000500
  N       0.018000      1.019900     -0.000200
  N       1.163700     -1.022100      0.000100
  C       1.252400      0.362900      0.000000
  C      -1.231500      0.414100     -0.000400
  C      -0.026800     -1.695500      0.000200
  C      -1.204900     -1.067600     -0.000200
  H       0.038200      2.035700     -0.000100
  H       2.018700     -1.570200      0.000400
  H      -2.144300     -1.606300     -0.000200
  H       0.046900     -2.776100      0.000400
20
Coordinates from ORCA-job urea_uracil_opt_freq E -639.729802933868
  O       0.110548      4.091813      1.565510
  N       1.464678      2.245595      1.509389
  N       2.394026      4.355220      1.541966
  C       1.239497      3.599010      1.545633
  H       2.391135      1.859447      1.467149
  H       0.701087      1.583689      1.482128
  H       2.347560      5.362876      1.559772
  H       3.309893      3.931716      1.519382
  O       2.314777      0.914832     -0.035205
  O      -2.299036      1.005965     -0.030330
  N       0.008833      0.968713     -0.028042
  N       1.148004     -1.064255     -0.008384
  C       1.239852      0.317948     -0.025091
  C      -1.254274      0.368225     -0.024731
  C      -0.049939     -1.744642     -0.000190
  C      -1.232411     -1.107357     -0.008333
  H       0.047056      1.987154     -0.033556
  H       2.007131     -1.598543     -0.004322
  H      -2.174728     -1.638219     -0.003280
  H       0.025347     -2.826591      0.011211
20
Coordinates from ORCA-job urea_uracil_opt_freq E -639.747416017775
  O       0.130681      4.124603      1.648266
  N       1.492865      2.297661      1.506099
  N       2.403036      4.422410      1.586245
  C       1.265366      3.643240      1.591498
  H       2.411204      1.901780      1.412194
  H       0.730994      1.638062      1.459763
  H       2.317418      5.424377      1.636158
  H       3.328909      4.028396      1.530856
  O       2.312201      0.851096     -0.079642
  O      -2.282428      1.013679     -0.066025
  N       0.014338      0.921752     -0.061579
  N       1.129359     -1.114418     -0.013890
  C       1.235326      0.265908     -0.054801
  C      -1.268152      0.335669     -0.048979
  C      -0.078417     -1.788247      0.008213
  C      -1.257579     -1.132117     -0.009079
  H       0.077838      1.938415     -0.080501
  H       1.992543     -1.640068     -0.005369
  H      -2.206960     -1.649202      0.004899
  H      -0.009506     -2.870402      0.036348
20
Coordinates from ORCA-job urea_uracil_opt_freq E -639.764750434523
  O       0.164487      4.186412      1.769496
  N       1.529494      2.376154      1.495662
  N       2.423161      4.510402      1.649377
  C       1.298873      3.714857      1.652281
  H       2.436300      1.968806      1.325426
  H       0.760587      1.726030      1.433705
  H       2.298756      5.504881      1.752565
  H       3.357601      4.146015      1.546883
  O       2.309156      0.763484     -0.139666
  O      -2.273676      1.002469     -0.123215
  N       0.014332      0.860829     -0.107875
  N       1.101818     -1.185865     -0.019042
  C       1.225216      0.194707     -0.094369
  C      -1.286687      0.289895     -0.085126
  C      -0.112684     -1.843603      0.020416
  C      -1.283705     -1.170207     -0.011603
  H       0.098757      1.874139     -0.146089
  H       1.969482     -1.705599     -0.004060
  H      -2.239396     -1.676530      0.013508
  H      -0.052836     -2.924681      0.072402
20
Coordinates from ORCA-job urea_uracil_opt_freq E -639.778105988543
  O       0.200913      4.234214      1.936186
  N       1.574618      2.463223      1.483597
  N       2.438922      4.607540      1.709227
  C       1.330603      3.790625      1.724031
  H       2.459945      2.059053      1.210557
  H       0.798902      1.822069      1.432971
  H       2.279839      5.587209      1.881088
  H       3.376358      4.280039      1.539618
  O       2.313433      0.657223     -0.197943
  O      -2.262973      0.985808     -0.201201
  N       0.020222      0.797124     -0.158882
  N       1.071911     -1.266810     -0.020651
  C       1.218029      0.111923     -0.133768
  C      -1.297348      0.247748     -0.130605
  C      -0.151288     -1.898619      0.034287
  C      -1.310332     -1.206239     -0.016579
  H       0.120538      1.807257     -0.228323
  H       1.938396     -1.787928      0.003261
  H      -2.272705     -1.699916      0.019383
  H      -0.108945     -2.978948      0.114421
20
Coordinates from ORCA-job urea_uracil_opt_freq E -639.785715065148
  O       0.243063      4.268244      2.095084
  N       1.613393      2.542812      1.480857
  N       2.456465      4.692499      1.747278
  C       1.361931      3.857136      1.793642
  H       2.471060      2.149448      1.112590
  H       0.828244      1.910433      1.462172
  H       2.284620      5.659609      1.972515
  H       3.388524      4.391911      1.511691
  O       2.315147      0.569010     -0.228450
  O      -2.259967      0.956357     -0.275649
  N       0.021335      0.743116     -0.194747
  N       1.047323     -1.332636     -0.019614
  C       1.209719      0.043020     -0.156172
  C      -1.303225      0.209249     -0.176504
  C      -0.182897     -1.945609      0.038071
  C      -1.333330     -1.241609     -0.031946
  H       0.123969      1.750394     -0.289573
  H       1.910396     -1.859009      0.014382
  H      -2.299925     -1.726724      0.006686
  H      -0.156809     -3.025057      0.138364
20
Coordinates from ORCA-job urea_uracil_opt_freq E -639.790118142000
  O       0.291226      4.285354      2.250567
  N       1.648915      2.612406      1.487183
  N       2.467296      4.771892      1.763260
  C       1.393068      3.913345      1.856060
  H       2.473143      2.237746      1.033799
  H       0.861585      1.983388      1.520193
  H       2.295349      5.727695      2.031144
  H       3.387767      4.494689      1.464087
  O       2.316060      0.493581     -0.236415
  O      -2.254222      0.927978     -0.343964
  N       0.023044      0.695800     -0.218043
  N       1.025548     -1.388938     -0.017703
  C       1.203098     -0.017290     -0.166598
  C      -1.303776      0.176097     -0.215633
  C      -0.212331     -1.988300      0.033061
  C      -1.355243     -1.273538     -0.055423
  H       0.124651      1.700916     -0.333922
  H       1.882392     -1.923863      0.026876
  H      -2.326344     -1.749216     -0.022731
  H      -0.202188     -3.067146      0.144878
20
Coordinates from ORCA-job urea_uracil_opt_freq E -639.792548584234
  O       0.345732      4.298237      2.392245
  N       1.680833      2.668639      1.510332
  N       2.470799      4.843618      1.756500
  C       1.425658      3.959855      1.916246
  H       2.471115      2.316977      0.985840
  H       0.900154      2.037276      1.603884
  H       2.306105      5.793989      2.047234
  H       3.375888      4.582964      1.400372
  O       2.315145      0.433415     -0.221563
  O      -2.248860      0.903674     -0.396692
  N       0.022975      0.655789     -0.231156
  N       1.005577     -1.436270     -0.018152
  C       1.197006     -0.067544     -0.165691
  C      -1.302926      0.146809     -0.254916
  C      -0.238652     -2.026607      0.016866
  C      -1.374630     -1.302438     -0.087600
  H       0.123335      1.659555     -0.356668
  H       1.855223     -1.981484      0.037298
  H      -2.350293     -1.768731     -0.065610
  H      -0.241146     -3.105130      0.131909
20
Coordinates from ORCA-job urea_uracil_opt_freq E -639.793944520405
  O       0.412194      4.316104      2.528276
  N       1.710015      2.717057      1.544572
  N       2.469444      4.909871      1.730150
  C       1.459258      4.004270      1.967014
  H       2.464817      2.389563      0.959032
  H       0.948159      2.077053      1.705383
  H       2.319238      5.856565      2.038685
  H       3.356488      4.658905      1.325143
  O       2.309129      0.386219     -0.189786
  O      -2.246461      0.879418     -0.447481
  N       0.018271      0.620133     -0.233535
  N       0.986158     -1.476780     -0.016474
  C       1.188498     -0.109692     -0.154197
  C      -1.306452      0.119135     -0.279233
  C      -0.262212     -2.062907     -0.007391
  C      -1.392593     -1.331818     -0.127958
  H       0.119484      1.623348     -0.361857
  H       1.829180     -2.030620      0.049554
  H      -2.371638     -1.791048     -0.129179
  H      -0.271939     -3.142181      0.099958
20
Coordinates from ORCA-job urea_uracil_opt_freq E -639.794848823252
  O       0.485748      4.344158      2.654189
  N       1.737566      2.756746      1.595560
  N       2.459630      4.968305      1.685795
  C       1.494553      4.045193      2.019234
  H       2.455414      2.452280      0.955569
  H       1.004011      2.104505      1.823009
  H       2.326364      5.915213      2.001108
  H       3.328817      4.719889      1.241725
  O       2.301177      0.347298     -0.141039
  O      -2.246998      0.860541     -0.476691
  N       0.012163      0.588154     -0.236076
  N       0.967868     -1.513066     -0.019797
  C       1.179368     -0.145892     -0.137214
  C      -1.310406      0.092186     -0.321680
  C      -0.282965     -2.095861     -0.040700
  C      -1.407858     -1.358722     -0.175360
  H       0.116687      1.592542     -0.349772
  H       1.804878     -2.074326      0.059151
  H      -2.390026     -1.810775     -0.194831
  H      -0.296954     -3.175775      0.058498
20
Coordinates from ORCA-job urea_uracil_opt_freq E -639.795582248800
  O       0.577104      4.394965      2.776144
  N       1.764583      2.797955      1.657869
  N       2.448871      5.022401      1.624215
  C       1.534757      4.093383      2.066672
  H       2.439693      2.511027      0.966712
  H       1.069081      2.132691      1.955032
  H       2.343495      5.970015      1.947920
  H       3.302246      4.766246      1.154034
  O       2.283002      0.318399     -0.078748
  O      -2.256301      0.831917     -0.516386
  N      -0.004134      0.556977     -0.225628
  N       0.949182     -1.545244     -0.019562
  C       1.162694     -0.176256     -0.109744
  C      -1.324924      0.062117     -0.336936
  C      -0.299658     -2.130258     -0.083179
  C      -1.421994     -1.392269     -0.232966
  H       0.102181      1.563039     -0.318991
  H       1.783153     -2.109340      0.070620
  H      -2.403301     -1.843174     -0.289897
  H      -0.310693     -3.211997     -0.006507
20
Coordinates from ORCA-job urea_uracil_opt_freq E -639.796211118747
  O       0.672190      4.470599      2.875980
  N       1.784146      2.841271      1.723160
  N       2.439626      5.067009      1.554572
  C       1.572330      4.147937      2.103274
  H       2.415707      2.559852      0.990198
  H       1.129948      2.166754      2.084239
  H       2.375719      6.012564      1.895383
  H       3.288411      4.791142      1.086645
  O       2.255865      0.300435     -0.008141
  O      -2.276759      0.796559     -0.537040
  N      -0.027990      0.526672     -0.217257
  N       0.933392     -1.572496     -0.024556
  C       1.140281     -0.200083     -0.080879
  C      -1.344393      0.026607     -0.365022
  C      -0.309377     -2.163748     -0.131219
  C      -1.432507     -1.429767     -0.293285
  H       0.076719      1.535526     -0.275275
  H       1.767986     -2.133491      0.077700
  H      -2.410107     -1.883864     -0.381612
  H      -0.312151     -3.246882     -0.076189
20
Coordinates from ORCA-job urea_uracil_opt_freq E -639.796806943090
  O       0.773040      4.577838      2.952218
  N       1.799308      2.889875      1.798179
  N       2.429986      5.103043      1.465253
  C       1.615157      4.211343      2.135834
  H       2.382494      2.597493      1.029271
  H       1.186629      2.211926      2.222657
  H       2.421179      6.042593      1.831014
  H       3.291926      4.796078      1.040632
  O       2.216918      0.291563      0.074773
  O      -2.308651      0.750884     -0.544756
  N      -0.060854      0.497881     -0.201421
  N       0.920135     -1.596596     -0.035219
  C       1.110441     -0.219710     -0.047097
  C      -1.370501     -0.013843     -0.385146
  C      -0.311549     -2.197643     -0.190264
  C      -1.438899     -1.472354     -0.359644
  H       0.032332      1.507700     -0.212948
  H       1.759479     -2.148655      0.076800
  H      -2.408723     -1.934943     -0.483900
  H      -0.300813     -3.281877     -0.165560
20
Coordinates from ORCA-job urea_uracil_opt_freq E -639.797093470308
  O       0.852169      4.678743      2.987554
  N       1.801968      2.934515      1.848748
  N       2.440277      5.125884      1.397694
  C       1.647543      4.267596      2.147350
  H       2.349033      2.614662      1.063831
  H       1.213934      2.265378      2.316979
  H       2.478412      6.056345      1.789301
  H       3.322381      4.788120      1.038528
  O       2.174257      0.296939      0.141998
  O      -2.348054      0.699242     -0.541549
  N      -0.098898      0.473747     -0.183819
  N       0.913031     -1.608537     -0.047405
  C       1.078773     -0.228344     -0.018642
  C      -1.399248     -0.054393     -0.395834
  C      -0.305272     -2.224522     -0.240393
  C      -1.441657     -1.513615     -0.411110
  H      -0.022100      1.485591     -0.155049
  H       1.761019     -2.146081      0.069404
  H      -2.400859     -1.989867     -0.563331
  H      -0.277674     -3.308810     -0.243577
20
Coordinates from ORCA-job urea_uracil_opt_freq E -639.797290749593
  O       0.859397      4.705159      2.977513
  N       1.796941      2.943255      1.857554
  N       2.462532      5.125259      1.390316
  C       1.655584      4.278938      2.146567
  H       2.341796      2.601853      1.079654
  H       1.200899      2.284950      2.331179
  H       2.496339      6.063215      1.767466
  H       3.350578      4.777773      1.052081
  O       2.159597      0.307676      0.159976
  O      -2.365456      0.679768     -0.531880
  N      -0.114588      0.469907     -0.173000
  N       0.914383     -1.604841     -0.054337
  C       1.067902     -0.223773     -0.010174
  C      -1.409860     -0.066469     -0.391599
  C      -0.298404     -2.228748     -0.255513
  C      -1.440616     -1.525954     -0.421302
  H      -0.046635      1.482658     -0.134416
  H       1.767458     -2.134981      0.059875
  H      -2.394709     -2.010304     -0.579688
  H      -0.264101     -3.312746     -0.269597
20
Coordinates from ORCA-job urea_uracil_opt_freq E -639.797640481127
  O       0.883636      4.780938      2.947901
  N       1.779872      2.966568      1.883949
  N       2.521178      5.113509      1.366586
  C       1.675281      4.309694      2.139075
  H       2.313933      2.563776      1.127822
  H       1.165490      2.343445      2.382879
  H       2.554360      6.068979      1.697537
  H       3.415076      4.734711      1.080266
  O       2.116134      0.341994      0.216747
  O      -2.412559      0.625947     -0.502855
  N      -0.158877      0.461141     -0.136682
  N       0.920191     -1.589813     -0.073645
  C       1.038017     -0.207991      0.017225
  C      -1.437736     -0.098551     -0.377517
  C      -0.275767     -2.236519     -0.300559
  C      -1.434581     -1.557462     -0.451978
  H      -0.116800      1.474472     -0.070919
  H       1.786426     -2.099935      0.033220
  H      -2.373540     -2.063608     -0.630333
  H      -0.220696     -3.318699     -0.348043
20
Coordinates from ORCA-job urea_uracil_opt_freq E -639.797898810988
  O       0.918913      4.855473      2.927384
  N       1.765139      2.985820      1.921859
  N       2.560093      5.092546      1.329089
  C       1.696567      4.337343      2.134101
  H       2.279769      2.530522      1.181796
  H       1.145826      2.398975      2.457948
  H       2.607802      6.061779      1.615643
  H       3.451198      4.683577      1.076994
  O       2.073160      0.372937      0.283900
  O      -2.452471      0.578908     -0.478128
  N      -0.199076      0.453361     -0.096272
  N       0.925912     -1.573559     -0.089213
  C       1.010573     -0.193749      0.050825
  C      -1.461247     -0.125984     -0.366275
  C      -0.252867     -2.239172     -0.348504
  C      -1.425654     -1.581694     -0.489026
  H      -0.180611      1.465270     -0.000278
  H       1.802165     -2.067389      0.012935
  H      -2.350113     -2.104492     -0.692764
  H      -0.176043     -3.317877     -0.431335
20
Coordinates from ORCA-job urea_uracil_opt_freq E -639.798382870790
  O       0.982443      4.970633      2.887244
  N       1.732131      3.006364      1.993552
  N       2.610058      5.030657      1.257516
  C       1.726118      4.369801      2.118813
  H       2.207685      2.465932      1.284109
  H       1.113544      2.491415      2.600344
  H       2.696803      6.017952      1.459204
  H       3.480253      4.565636      1.031912
  O       2.001064      0.429978      0.407857
  O      -2.512167      0.507853     -0.434112
  N      -0.263006      0.445918     -0.017686
  N       0.940968     -1.532810     -0.110513
  C       0.968287     -0.162949      0.116053
  C      -1.494757     -0.163082     -0.344826
  C      -0.206567     -2.226744     -0.430309
  C      -1.401923     -1.606953     -0.553514
  H      -0.284471      1.451324      0.132394
  H       1.832202     -2.000718     -0.016345
  H      -2.300974     -2.152616     -0.804901
  H      -0.088656     -3.294995     -0.576117
20
Coordinates from ORCA-job urea_uracil_opt_freq E -639.798836214288
  O       1.025518      5.032566      2.859055
  N       1.707565      3.006230      2.052414
  N       2.614872      4.966862      1.196859
  C       1.738555      4.375256      2.105840
  H       2.154512      2.418610      1.361609
  H       1.100167      2.543407      2.710461
  H       2.738416      5.959483      1.340195
  H       3.457238      4.461722      0.956297
  O       1.963217      0.464040      0.497937
  O      -2.536899      0.480156     -0.406858
  N      -0.293715      0.448435      0.041196
  N       0.954914     -1.498523     -0.116979
  C       0.949436     -0.139659      0.166691
  C      -1.506720     -0.172667     -0.330322
  C      -0.172823     -2.203262     -0.482323
  C      -1.379211     -1.604066     -0.597451
  H      -0.338206      1.446036      0.229193
  H       1.852810     -1.954412     -0.027525
  H      -2.263374     -2.156251     -0.885006
  H      -0.027236     -3.261367     -0.670608
20
Coordinates from ORCA-job urea_uracil_opt_freq E -639.799313172981
  O       1.071795      5.079830      2.837481
  N       1.684695      2.994727      2.125532
  N       2.580800      4.886851      1.120223
  C       1.740366      4.366079      2.092356
  H       2.101681      2.371968      1.446721
  H       1.101002      2.582887      2.836106
  H       2.748700      5.878195      1.211638
  H       3.381352      4.341262      0.833468
  O       1.945411      0.482423      0.591386
  O      -2.538739      0.482853     -0.386070
  N      -0.303717      0.458160      0.100572
  N       0.970941     -1.466522     -0.114546
  C       0.944997     -0.120337      0.221438
  C      -1.503738     -0.162382     -0.319830
  C      -0.141685     -2.169151     -0.529301
  C      -1.352145     -1.579272     -0.642014
  H      -0.363722      1.445489      0.328740
  H       1.870849     -1.918837     -0.028120
  H      -2.226652     -2.125543     -0.968411
  H       0.026844     -3.216084     -0.756695
20
Coordinates from ORCA-job urea_uracil_opt_freq E -639.799673882781
  O       1.132234      5.130893      2.820709
  N       1.662541      2.993892      2.198348
  N       2.543298      4.807458      1.043779
  C       1.745552      4.360173      2.084083
  H       2.040480      2.331478      1.531537
  H       1.103945      2.633957      2.955191
  H       2.750037      5.794792      1.083841
  H       3.305010      4.223479      0.728454
  O       1.928198      0.493129      0.678318
  O      -2.539294      0.484099     -0.365460
  N      -0.310963      0.463063      0.152265
  N       0.986437     -1.439235     -0.114945
  C       0.940540     -0.107064      0.270053
  C      -1.499473     -0.153485     -0.310772
  C      -0.111971     -2.136531     -0.575236
  C      -1.326274     -1.554690     -0.685025
  H      -0.384833      1.439362      0.422145
  H       1.889336     -1.886029     -0.031299
  H      -2.191138     -2.094447     -1.046437
  H       0.075373     -3.171700     -0.838873
20
Coordinates from ORCA-job urea_uracil_opt_freq E -639.800248099866
  O       1.225887      5.192985      2.784464
  N       1.629844      2.987529      2.317066
  N       2.448978      4.659399      0.923859
  C       1.740623      4.334418      2.069789
  H       1.944650      2.265651      1.674484
  H       1.113383      2.711691      3.136259
  H       2.706834      5.634187      0.870675
  H       3.133947      4.012627      0.558732
  O       1.929995      0.492070      0.803463
  O      -2.515626      0.518882     -0.334986
  N      -0.297687      0.481189      0.228497
  N       1.015430     -1.398273     -0.112174
  C       0.952305     -0.089249      0.341981
  C      -1.474345     -0.115795     -0.295518
  C      -0.067610     -2.073486     -0.637699
  C      -1.281780     -1.492395     -0.743416
  H      -0.386409      1.437544      0.556673
  H       1.919766     -1.843458     -0.034640
  H      -2.136881     -2.012094     -1.154521
  H       0.137733     -3.090827     -0.952313
20
Coordinates from ORCA-job urea_uracil_opt_freq E -639.789520700281
  O       1.701034      5.361457      2.499947
  N       1.517131      3.038682      2.682230
  N       2.079192      4.026286      0.585228
  C       1.769486      4.216297      1.981625
  H       1.587956      2.089510      2.155864
  H       1.211605      3.141372      3.679814
  H       2.509730      4.865820      0.162729
  H       2.453775      3.133761      0.235075
  O       1.857953      0.546943      1.235070
  O      -2.489230      0.561068     -0.200339
  N      -0.302309      0.527239      0.485590
  N       1.138530     -1.187404     -0.124276
  C       0.955138      0.000609      0.577605
  C      -1.413259     -0.013063     -0.226562
  C       0.135548     -1.794664     -0.863990
  C      -1.104435     -1.262324     -0.939295
  H      -0.462836      1.393364      1.021946
  H       2.067098     -1.585169     -0.071024
  H      -1.900154     -1.728374     -1.512150
  H       0.427083     -2.718815     -1.364411
20
Coordinates from ORCA-job urea_uracil_opt_freq E -639.798971874702
  O       1.600482      5.325028      2.586330
  N       1.598209      3.011463      2.653575
  N       2.023370      4.135464      0.622456
  C       1.745167      4.227689      2.016327
  H       1.675858      2.117911      2.140260
  H       1.310108      3.021424      3.625917
  H       2.374171      5.015428      0.239537
  H       2.478014      3.304558      0.243220
  O       1.920545      0.471136      1.167397
  O      -2.425836      0.647342     -0.316144
  N      -0.255091      0.549658      0.405073
  N       1.108400     -1.259072     -0.083426
  C       0.984504     -0.028568      0.548160
  C      -1.380070      0.020830     -0.288738
  C       0.084773     -1.860420     -0.796707
  C      -1.126870     -1.277417     -0.918814
  H      -0.389720      1.448800      0.864171
  H       2.014614     -1.699223      0.001490
  H      -1.936905     -1.737035     -1.472134
  H       0.335310     -2.822402     -1.237275
20
Coordinates from ORCA-job urea_uracil_opt_freq E -639.800681727390
  O       1.627949      5.315434      2.602576
  N       1.615028      3.036960      2.618615
  N       2.061652      4.188994      0.664425
  C       1.771246      4.250843      2.022157
  H       1.670364      2.162465      2.113823
  H       1.357851      3.049565      3.587407
  H       2.399820      5.062863      0.302050
  H       2.556695      3.380547      0.323036
  O       1.874469      0.490600      1.155732
  O      -2.462758      0.590382     -0.329938
  N      -0.290769      0.519103      0.384266
  N       1.096677     -1.268497     -0.093516
  C       0.957226     -0.039159      0.527692
  C      -1.407462     -0.020463     -0.301100
  C       0.079292     -1.883495     -0.796301
  C      -1.140927     -1.314873     -0.920707
  H      -0.423571      1.423380      0.840192
  H       2.005652     -1.701323     -0.002300
  H      -1.943461     -1.788820     -1.467129
  H       0.334064     -2.841909     -1.230305
20
Coordinates from ORCA-job urea_uracil_opt_freq E -639.801101897301
  O       1.581663      5.317868      2.621393
  N       1.604996      3.026217      2.606447
  N       2.103599      4.216104      0.672360
  C       1.759639      4.257948      2.026489
  H       1.676758      2.153643      2.103791
  H       1.321207      3.015263      3.568526
  H       2.425839      5.107790      0.318742
  H       2.620237      3.414369      0.331386
  O       1.895964      0.484402      1.121796
  O      -2.465481      0.587188     -0.324127
  N      -0.288249      0.525315      0.378350
  N       1.094050     -1.272734     -0.100739
  C       0.964219     -0.036356      0.513788
  C      -1.409363     -0.023517     -0.293788
  C       0.069389     -1.894008     -0.785214
  C      -1.150636     -1.327046     -0.901642
  H      -0.427020      1.433603      0.808473
  H       2.003791     -1.706024     -0.015681
  H      -1.958786     -1.808543     -1.435733
  H       0.317221     -2.858888     -1.213941
20
Coordinates from ORCA-job urea_uracil_opt_freq E -639.801180849119
  O       1.596151      5.325913      2.606462
  N       1.602884      3.033248      2.619271
  N       2.093382      4.196675      0.667355
  C       1.764150      4.257418      2.023369
  H       1.669529      2.153863      2.115166
  H       1.326939      3.036587      3.587983
  H       2.419648      5.081264      0.301909
  H       2.599545      3.387211      0.330919
  O       1.893523      0.484772      1.131628
  O      -2.465541      0.587077     -0.319735
  N      -0.289468      0.523103      0.386184
  N       1.097051     -1.268004     -0.103375
  C       0.962598     -0.037137      0.519608
  C      -1.409418     -0.023298     -0.291547
  C       0.074525     -1.886739     -0.793604
  C      -1.146753     -1.321684     -0.907652
  H      -0.430117      1.429634      0.821056
  H       2.007908     -1.698677     -0.019307
  H      -1.953278     -1.800702     -1.446281
  H       0.325779     -2.847929     -1.228734
20
Coordinates from ORCA-job urea_uracil_opt_freq E -639.801283207547
  O       1.600021      5.333245      2.588132
  N       1.607866      3.042877      2.637081
  N       2.068770      4.172903      0.661646
  C       1.761002      4.256708      2.020195
  H       1.674422      2.158821      2.144321
  H       1.348606      3.061829      3.611253
  H       2.384313      5.051794      0.277377
  H       2.577196      3.361180      0.337111
  O       1.900729      0.472483      1.139653
  O      -2.454758      0.600594     -0.322652
  N      -0.281823      0.522612      0.389524
  N       1.098034     -1.270098     -0.104726
  C       0.966863     -0.041721      0.523987
  C      -1.402300     -0.015864     -0.294958
  C       0.075555     -1.882088     -0.800961
  C      -1.143562     -1.311566     -0.916433
  H      -0.423006      1.429104      0.828300
  H       2.007501     -1.702841     -0.018267
  H      -1.949773     -1.785248     -1.459754
  H       0.323381     -2.842130     -1.240156
20
Coordinates from ORCA-job urea_uracil_opt_freq E -639.801361821197
  O       1.609616      5.351507      2.569468
  N       1.611167      3.064080      2.659818
  N       2.061979      4.152193      0.661279
  C       1.764523      4.265320      2.019573
  H       1.674403      2.172841      2.179558
  H       1.375341      3.102583      3.640534
  H       2.363358      5.025439      0.254446
  H       2.588031      3.341338      0.364354
  O       1.896564      0.467191      1.141153
  O      -2.458602      0.593636     -0.321162
  N      -0.286395      0.514384      0.390564
  N       1.097467     -1.269816     -0.115572
  C       0.962742     -0.045681      0.521804
  C      -1.405593     -0.022448     -0.297426
  C       0.076840     -1.881585     -0.813943
  C      -1.144832     -1.313619     -0.926145
  H      -0.431576      1.421329      0.831662
  H       2.008466     -1.699045     -0.027674
  H      -1.948513     -1.788400     -1.471923
  H       0.324052     -2.838651     -1.259692
20
Coordinates from ORCA-job urea_uracil_opt_freq E -639.801453383423
  O       1.600400      5.354123      2.546548
  N       1.615258      3.069381      2.679250
  N       2.043893      4.121041      0.657345
  C       1.757029      4.259134      2.015315
  H       1.686801      2.173504      2.211075
  H       1.394707      3.123726      3.662885
  H       2.329134      4.988092      0.226704
  H       2.572027      3.307313      0.372458
  O       1.903202      0.462806      1.145367
  O      -2.450930      0.606447     -0.323070
  N      -0.280891      0.519140      0.393546
  N       1.099989     -1.265372     -0.118139
  C       0.967294     -0.043016      0.523986
  C      -1.399823     -0.012969     -0.298951
  C       0.079287     -1.873196     -0.819017
  C      -1.141386     -1.302709     -0.930898
  H      -0.426462      1.425805      0.832837
  H       2.010137     -1.696285     -0.029263
  H      -1.944651     -1.775026     -1.479340
  H       0.324023     -2.829344     -1.267964
20
Coordinates from ORCA-job urea_uracil_opt_freq E -639.801576397023
  O       1.568661      5.353452      2.495285
  N       1.615192      3.076136      2.718015
  N       2.037176      4.051573      0.657355
  C       1.741354      4.241035      2.006002
  H       1.701215      2.174394      2.269378
  H       1.422077      3.160219      3.703278
  H       2.286414      4.902331      0.172989
  H       2.564583      3.226854      0.401590
  O       1.911271      0.478071      1.137931
  O      -2.450625      0.616534     -0.317468
  N      -0.280143      0.533683      0.398765
  N       1.108598     -1.241250     -0.131334
  C       0.973347     -0.022084      0.518896
  C      -1.397195      0.000315     -0.295526
  C       0.087904     -1.851410     -0.826860
  C      -1.136277     -1.287229     -0.930805
  H      -0.429215      1.438861      0.827547
  H       2.020417     -1.669865     -0.044690
  H      -1.937907     -1.764086     -1.478048
  H       0.332190     -2.804939     -1.281624
20
Coordinates from ORCA-job urea_uracil_opt_freq E -639.801726974155
  O       1.553190      5.354063      2.481153
  N       1.621573      3.079284      2.727783
  N       2.027322      4.036222      0.655241
  C       1.735637      4.237872      2.003738
  H       1.731957      2.174932      2.289655
  H       1.434784      3.171231      3.713766
  H       2.267413      4.884234      0.162418
  H       2.563274      3.215105      0.406777
  O       1.909456      0.477816      1.141325
  O      -2.448876      0.622000     -0.321807
  N      -0.279904      0.535429      0.397923
  N       1.107996     -1.239691     -0.131015
  C       0.972538     -0.020985      0.520339
  C      -1.396567      0.004101     -0.298987
  C       0.088001     -1.848316     -0.829493
  C      -1.135626     -1.282732     -0.935396
  H      -0.428067      1.440845      0.829518
  H       2.019160     -1.668942     -0.042383
  H      -1.936392     -1.758279     -1.484919
  H       0.332166     -2.801592     -1.284962
20
Coordinates from ORCA-job urea_uracil_opt_freq E -639.801677083836
  O       1.592401      5.370090      2.507308
  N       1.636311      3.080520      2.715638
  N       2.048662      4.077448      0.656210
  C       1.767128      4.254105      2.016732
  H       1.752410      2.162636      2.297634
  H       1.434665      3.143511      3.691825
  H       2.344009      4.933100      0.212372
  H       2.574380      3.260635      0.377482
  O       1.853712      0.523947      1.131064
  O      -2.489874      0.570382     -0.335811
  N      -0.317068      0.524914      0.376432
  N       1.101621     -1.232944     -0.124090
  C       0.942306     -0.010703      0.512055
  C      -1.428317     -0.029194     -0.312540
  C       0.090490     -1.862551     -0.826260
  C      -1.140993     -1.315068     -0.941507
  H      -0.462801      1.429520      0.838615
  H       2.016458     -1.650179     -0.031252
  H      -1.935451     -1.802192     -1.490118
  H       0.358988     -2.815384     -1.271111
20
Coordinates from ORCA-job urea_uracil_opt_freq E -639.802173754576
  O       1.525497      5.348544      2.447889
  N       1.629379      3.075697      2.742548
  N       2.034969      4.002741      0.654936
  C       1.731369      4.223375      1.998560
  H       1.804456      2.163854      2.331150
  H       1.440287      3.174147      3.724554
  H       2.290929      4.844187      0.159454
  H       2.557966      3.173965      0.405565
  O       1.879673      0.527544      1.134887
  O      -2.474539      0.601812     -0.324495
  N      -0.302000      0.545887      0.390505
  N       1.110708     -1.213185     -0.132118
  C       0.958027      0.005717      0.514154
  C      -1.413847     -0.000452     -0.302821
  C       0.096477     -1.835244     -0.830779
  C      -1.133547     -1.285036     -0.937463
  H      -0.449911      1.448227      0.837608
  H       2.025464     -1.634192     -0.044312
  H      -1.929930     -1.769108     -1.486184
  H       0.357608     -2.785885     -1.282961
20
Coordinates from ORCA-job urea_uracil_opt_freq E -639.802274971155
  O       1.531775      5.337763      2.433602
  N       1.624337      3.069770      2.747314
  N       2.014258      3.977197      0.649213
  C       1.725509      4.209309      1.990787
  H       1.777164      2.152693      2.346539
  H       1.441542      3.179237      3.731122
  H       2.274685      4.810882      0.140812
  H       2.514457      3.134381      0.397895
  O       1.895904      0.528923      1.137618
  O      -2.462759      0.617743     -0.318750
  N      -0.289625      0.558291      0.396123
  N       1.117868     -1.204918     -0.131514
  C       0.969910      0.013431      0.516532
  C      -1.401780      0.015169     -0.297458
  C       0.102185     -1.822774     -0.829726
  C      -1.125738     -1.269647     -0.934135
  H      -0.438844      1.457970      0.837815
  H       2.031953     -1.629263     -0.047496
  H      -1.924599     -1.750371     -1.482457
  H       0.360835     -2.773193     -1.283159
20
Coordinates from ORCA-job urea_uracil_opt_freq E -639.802367488270
  O       1.447014      5.288000      2.366047
  N       1.640369      3.045399      2.773569
  N       1.935454      3.880697      0.630574
  C       1.679095      4.153076      1.964924
  H       1.876426      2.126111      2.426465
  H       1.477184      3.196216      3.761489
  H       2.175799      4.695610      0.081719
  H       2.406096      3.020041      0.381486
  O       1.926301      0.540751      1.154351
  O      -2.422836      0.687103     -0.332851
  N      -0.254366      0.602826      0.397236
  N       1.128712     -1.184537     -0.115215
  C       0.995750      0.037912      0.526742
  C      -1.367207      0.074465     -0.302349
  C       0.110658     -1.787211     -0.822167
  C      -1.106106     -1.215494     -0.937019
  H      -0.396325      1.498921      0.836460
  H       2.035679     -1.624219     -0.029855
  H      -1.910587     -1.681322     -1.490350
  H       0.361927     -2.741750     -1.270581
20
Coordinates from ORCA-job urea_uracil_opt_freq E -639.802663795922
  O       1.483280      5.286354      2.298913
  N       1.639066      3.060954      2.816957
  N       1.892322      3.778719      0.625063
  C       1.676148      4.125345      1.949273
  H       1.828427      2.112282      2.515052
  H       1.513744      3.257666      3.799383
  H       2.139459      4.555387      0.026040
  H       2.318184      2.886745      0.404494
  O       1.932873      0.581361      1.147613
  O      -2.423670      0.692865     -0.315118
  N      -0.250186      0.624935      0.402427
  N       1.147516     -1.145393     -0.130040
  C       1.004987      0.070610      0.521202
  C      -1.361520      0.091174     -0.295079
  C       0.131535     -1.752736     -0.836848
  C      -1.091195     -1.191790     -0.941150
  H      -0.396961      1.516873      0.852042
  H       2.058732     -1.577415     -0.052971
  H      -1.895288     -1.659829     -1.493406
  H       0.391582     -2.701513     -1.293171
20
Coordinates from ORCA-job urea_uracil_opt_freq E -639.802835654982
  O       1.492521      5.303611      2.272312
  N       1.637745      3.087002      2.844340
  N       1.894767      3.741730      0.632569
  C       1.677113      4.130396      1.951187
  H       1.826137      2.130571      2.557794
  H       1.531034      3.304633      3.818030
  H       2.128084      4.503913      0.012836
  H       2.354107      2.857764      0.451491
  O       1.925348      0.596289      1.131160
  O      -2.436595      0.677030     -0.304828
  N      -0.258812      0.620431      0.396218
  N       1.149421     -1.136141     -0.148782
  C       0.998921      0.076053      0.508481
  C      -1.372501      0.079699     -0.295436
  C       0.133354     -1.750683     -0.851702
  C      -1.096156     -1.198487     -0.947335
  H      -0.407832      1.515959      0.855951
  H       2.065080     -1.557657     -0.073426
  H      -1.898230     -1.672963     -1.496436
  H       0.395527     -2.696555     -1.313749
20
Coordinates from ORCA-job urea_uracil_opt_freq E -639.802978377310
  O       1.471612      5.280562      2.222330
  N       1.654460      3.091000      2.874800
  N       1.812207      3.658187      0.630135
  C       1.652949      4.097720      1.939735
  H       1.854767      2.130048      2.619060
  H       1.583649      3.351527      3.846591
  H       2.019780      4.395327     -0.027741
  H       2.261760      2.765969      0.466993
  O       1.952072      0.595839      1.137230
  O      -2.401232      0.730227     -0.317941
  N      -0.227122      0.647408      0.391119
  N       1.160159     -1.127099     -0.144576
  C       1.021730      0.087343      0.510294
  C      -1.344922      0.119425     -0.304178
  C       0.140166     -1.729916     -0.852617
  C      -1.081934     -1.162156     -0.954470
  H      -0.367032      1.545233      0.848216
  H       2.070883     -1.558453     -0.065215
  H      -1.887826     -1.626263     -1.506696
  H       0.392909     -2.679334     -1.312394
20
Coordinates from ORCA-job urea_uracil_opt_freq E -639.803107997467
  O       1.415085      5.259827      2.235170
  N       1.684371      3.083173      2.883540
  N       1.708006      3.644817      0.631200
  C       1.616288      4.084329      1.946691
  H       1.931924      2.140324      2.635329
  H       1.638011      3.361785      3.855440
  H       1.872511      4.390655     -0.028386
  H       2.194219      2.775368      0.455973
  O       1.997170      0.539611      1.143220
  O      -2.330918      0.815912     -0.367942
  N      -0.169709      0.665883      0.366204
  N       1.155920     -1.166317     -0.122323
  C       1.055239      0.062363      0.512078
  C      -1.298915      0.166007     -0.333268
  C       0.123747     -1.743617     -0.834905
  C      -1.075627     -1.133203     -0.960783
  H      -0.284198      1.576868      0.801294
  H       2.051071     -1.625692     -0.025534
  H      -1.890913     -1.576790     -1.515617
  H       0.345754     -2.708707     -1.276706
20
Coordinates from ORCA-job urea_uracil_opt_freq E -639.803327412140
  O       1.362098      5.232169      2.203374
  N       1.702135      3.085371      2.911519
  N       1.647097      3.574132      0.642463
  C       1.583797      4.054131      1.945922
  H       1.984756      2.140760      2.693784
  H       1.680801      3.400354      3.872248
  H       1.777385      4.305279     -0.041345
  H       2.162813      2.717367      0.485973
  O       2.026025      0.548054      1.120584
  O      -2.300637      0.862776     -0.392784
  N      -0.140381      0.695992      0.342062
  N       1.160656     -1.161076     -0.123764
  C       1.076847      0.077357      0.495254
  C      -1.276686      0.200567     -0.348702
  C       0.119735     -1.734695     -0.825187
  C      -1.071623     -1.110941     -0.956826
  H      -0.239590      1.617329      0.755300
  H       2.050068     -1.630693     -0.021861
  H      -1.893391     -1.552866     -1.503513
  H       0.327131     -2.708771     -1.253824
20
Coordinates from ORCA-job urea_uracil_opt_freq E -639.803693155337
  O       1.270984      5.196612      2.208909
  N       1.736415      3.081147      2.942955
  N       1.566875      3.519957      0.664949
  C       1.533503      4.023768      1.964770
  H       2.064433      2.143386      2.742613
  H       1.746640      3.420606      3.891269
  H       1.634795      4.250722     -0.030184
  H       2.145842      2.703099      0.504255
  O       2.070621      0.548179      1.072239
  O      -2.245882      0.934168     -0.458732
  N      -0.091874      0.732868      0.287898
  N       1.159229     -1.174914     -0.117456
  C       1.109547      0.086247      0.461841
  C      -1.241147      0.245200     -0.386939
  C       0.100928     -1.744120     -0.794250
  C      -1.073243     -1.093801     -0.945029
  H      -0.155767      1.678405      0.653082
  H       2.034748     -1.666152      0.001537
  H      -1.907342     -1.534532     -1.474209
  H       0.279729     -2.738248     -1.188840
20
Coordinates from ORCA-job urea_uracil_opt_freq E -639.804233555505
  O       1.104068      5.122041      2.271135
  N       1.787417      3.049107      2.959826
  N       1.443355      3.479725      0.692910
  C       1.443942      3.973318      2.004172
  H       2.181460      2.137154      2.747278
  H       1.826052      3.390526      3.899665
  H       1.406829      4.228443      0.012172
  H       2.109555      2.741431      0.482700
  O       2.156024      0.532710      0.994331
  O      -2.130116      1.060150     -0.583241
  N       0.005273      0.786312      0.196842
  N       1.152403     -1.210920     -0.086455
  C       1.172381      0.087507      0.412903
  C      -1.167554      0.321107     -0.453094
  C       0.060950     -1.764126     -0.720639
  C      -1.075783     -1.062034     -0.913987
  H       0.015325      1.767320      0.477177
  H       1.997610     -1.743623      0.067589
  H      -1.934000     -1.492483     -1.412885
  H       0.183845     -2.791067     -1.047722
20
Coordinates from ORCA-job urea_uracil_opt_freq E -639.804486295218
  O       1.033894      5.099220      2.367812
  N       1.791098      3.016858      2.946214
  N       1.461961      3.564133      0.699116
  C       1.416929      3.978261      2.042106
  H       2.183214      2.120718      2.685179
  H       1.837100      3.308566      3.895181
  H       1.393344      4.353801      0.066524
  H       2.189501      2.895663      0.454405
  O       2.177436      0.529537      0.936385
  O      -2.101560      1.069908     -0.655796
  N       0.025608      0.785056      0.144367
  N       1.139688     -1.243588     -0.069679
  C       1.183401      0.073737      0.378921
  C      -1.154061      0.318049     -0.488888
  C       0.033511     -1.800983     -0.671995
  C      -1.091225     -1.086248     -0.888910
  H       0.069890      1.783307      0.377977
  H       1.972960     -1.788127      0.106442
  H      -1.958702     -1.522512     -1.366662
  H       0.135049     -2.842761     -0.958023
20
Coordinates from ORCA-job urea_uracil_opt_freq E -639.804519255516
  O       0.846946      4.974206      2.410542
  N       1.833018      2.980024      2.946413
  N       1.343252      3.483958      0.715686
  C       1.322317      3.895721      2.065204
  H       2.269513      2.124268      2.648123
  H       1.931644      3.289633      3.905220
  H       1.165619      4.271364      0.100513
  H       2.154520      2.934274      0.439325
  O       2.266632      0.523167      0.858679
  O      -1.974978      1.191170     -0.767910
  N       0.129219      0.834999      0.064184
  N       1.133390     -1.259005     -0.029421
  C       1.246172      0.078989      0.336565
  C      -1.072555      0.398626     -0.545779
  C      -0.005092     -1.791684     -0.593671
  C      -1.090539     -1.030055     -0.855380
  H       0.247752      1.848142      0.240278
  H       1.936207     -1.835101      0.182976
  H      -1.981676     -1.446795     -1.305856
  H       0.037677     -2.853305     -0.815014
20
Coordinates from ORCA-job urea_uracil_opt_freq E -639.805171313017
  O       0.966223      5.048468      2.388015
  N       1.813641      2.994806      2.932693
  N       1.413629      3.543927      0.699861
  C       1.389721      3.949124      2.046303
  H       2.183479      2.113409      2.618763
  H       1.901454      3.272686      3.903306
  H       1.308818      4.336664      0.077621
  H       2.165772      2.914244      0.438238
  O       2.210826      0.532779      0.917208
  O      -2.050835      1.116407     -0.707765
  N       0.059962      0.804579      0.122278
  N       1.135333     -1.246394     -0.036444
  C       1.200442      0.077853      0.376145
  C      -1.120146      0.349604     -0.513924
  C       0.023518     -1.796737     -0.639018
  C      -1.084359     -1.063386     -0.885681
  H       0.112848      1.800389      0.367889
  H       1.957273     -1.801094      0.159280
  H      -1.956589     -1.488451     -1.363666
  H       0.108025     -2.846283     -0.900428
20
Coordinates from ORCA-job urea_uracil_opt_freq E -639.805442163127
  O       0.952791      5.028088      2.434627
  N       1.823119      2.967048      2.910008
  N       1.386081      3.574431      0.702771
  C       1.382644      3.943760      2.060042
  H       2.179242      2.080446      2.576050
  H       1.898491      3.206072      3.880878
  H       1.268718      4.384415      0.106141
  H       2.136548      2.957752      0.407652
  O       2.230946      0.534913      0.898628
  O      -2.017160      1.136897     -0.751225
  N       0.086440      0.815908      0.094389
  N       1.133005     -1.253829     -0.012487
  C       1.216605      0.078722      0.366263
  C      -1.097629      0.362944     -0.533709
  C       0.014246     -1.802711     -0.604599
  C      -1.081667     -1.059591     -0.870786
  H       0.154746      1.814884      0.319663
  H       1.946277     -1.816660      0.195880
  H      -1.959901     -1.481676     -1.340263
  H       0.085495     -2.859218     -0.839247
20
Coordinates from ORCA-job urea_uracil_opt_freq E -639.805678060393
  O       0.907854      4.983731      2.465030
  N       1.830984      2.933268      2.886645
  N       1.371362      3.580122      0.698093
  C       1.360205      3.918052      2.064929
  H       2.179943      2.054392      2.524804
  H       1.908111      3.142029      3.865961
  H       1.220849      4.397958      0.120507
  H       2.145425      3.000967      0.387674
  O       2.250017      0.544561      0.882181
  O      -1.986327      1.161758     -0.787575
  N       0.110632      0.834186      0.071719
  N       1.130717     -1.250598      0.013850
  C       1.230550      0.088612      0.360643
  C      -1.076523      0.382161     -0.549957
  C       0.006601     -1.799189     -0.569486
  C      -1.078677     -1.047820     -0.855545
  H       0.186757      1.836061      0.284380
  H       1.937150     -1.818010      0.235184
  H      -1.961275     -1.468131     -1.318170
  H       0.064681     -2.861516     -0.780189
20
Coordinates from ORCA-job urea_uracil_opt_freq E -639.805956213844
  O       0.853002      4.916761      2.520856
  N       1.853326      2.883458      2.847850
  N       1.339289      3.593856      0.694977
  C       1.333712      3.882335      2.075842
  H       2.194045      2.016737      2.445308
  H       1.935388      3.046640      3.838821
  H       1.135885      4.427161      0.156007
  H       2.161121      3.097414      0.363488
  O       2.269226      0.557336      0.866299
  O      -1.939439      1.191842     -0.856663
  N       0.145632      0.857053      0.027813
  N       1.121653     -1.249120      0.060015
  C       1.245915      0.099626      0.354736
  C      -1.045366      0.404867     -0.584329
  C      -0.007213     -1.797806     -0.515069
  C      -1.074034     -1.035223     -0.838935
  H       0.230595      1.863092      0.218758
  H       1.917962     -1.821340      0.304967
  H      -1.961327     -1.454062     -1.293961
  H       0.029664     -2.868029     -0.686105
20
Coordinates from ORCA-job urea_uracil_opt_freq E -639.806109850489
  O       0.816421      4.863229      2.566265
  N       1.870017      2.843036      2.810099
  N       1.318965      3.618307      0.687898
  C       1.315472      3.855231      2.081102
  H       2.202243      1.990932      2.368119
  H       1.942126      2.963933      3.808692
  H       1.080575      4.462261      0.180260
  H       2.155337      3.164953      0.332461
  O       2.285236      0.561741      0.867093
  O      -1.901368      1.214829     -0.900902
  N       0.172275      0.870270      0.005724
  N       1.114379     -1.249074      0.099280
  C       1.257353      0.104682      0.360461
  C      -1.020602      0.421200     -0.604988
  C      -0.016211     -1.794687     -0.476093
  C      -1.067975     -1.023662     -0.828493
  H       0.262895      1.878929      0.188825
  H       1.902605     -1.825780      0.359378
  H      -1.957510     -1.438612     -1.282837
  H       0.006804     -2.869124     -0.621668
20
Coordinates from ORCA-job urea_uracil_opt_freq E -639.806184191997
  O       0.793472      4.821954      2.598739
  N       1.891832      2.818009      2.781478
  N       1.306427      3.634801      0.683650
  C       1.310275      3.837534      2.084072
  H       2.219189      1.974046      2.320376
  H       1.950826      2.909395      3.782396
  H       1.033427      4.483654      0.201088
  H       2.161492      3.229637      0.313275
  O       2.285986      0.562418      0.879459
  O      -1.879219      1.226130     -0.934851
  N       0.186117      0.878008     -0.011052
  N       1.105956     -1.248416      0.129190
  C       1.259868      0.108677      0.369024
  C      -1.006895      0.429296     -0.622639
  C      -0.022146     -1.792372     -0.451068
  C      -1.063312     -1.017915     -0.826391
  H       0.276398      1.886685      0.165279
  H       1.888961     -1.826699      0.401672
  H      -1.951701     -1.433098     -1.283072
  H      -0.007918     -2.869148     -0.579949
20
Coordinates from ORCA-job urea_uracil_opt_freq E -639.806241157633
  O       0.777382      4.807296      2.606691
  N       1.902488      2.816744      2.771291
  N       1.298329      3.642090      0.680182
  C       1.304876      3.833283      2.082910
  H       2.230073      1.976182      2.305735
  H       1.950209      2.900788      3.772736
  H       1.015256      4.494433      0.209024
  H       2.159761      3.256518      0.303621
  O       2.291434      0.549032      0.887961
  O      -1.866450      1.235089     -0.937959
  N       0.195616      0.876128     -0.011115
  N       1.102114     -1.255486      0.136952
  C       1.263325      0.101899      0.374818
  C      -0.999671      0.432940     -0.624457
  C      -0.026398     -1.792966     -0.446913
  C      -1.062324     -1.013751     -0.827121
  H       0.289458      1.885212      0.165445
  H       1.882187     -1.837047      0.411093
  H      -1.951119     -1.425727     -1.285996
  H      -0.017510     -2.870060     -0.574220
20
Coordinates from ORCA-job urea_uracil_opt_freq E -639.806373026284
  O       0.735342      4.771716      2.625411
  N       1.944379      2.828784      2.750782
  N       1.283685      3.660449      0.675312
  C       1.298297      3.828741      2.081220
  H       2.260599      1.986718      2.282755
  H       1.961122      2.900501      3.752989
  H       0.953508      4.506982      0.223722
  H       2.157884      3.326889      0.279236
  O       2.297380      0.508403      0.918426
  O      -1.834564      1.256495     -0.946579
  N       0.214903      0.866855     -0.005171
  N       1.090103     -1.276730      0.152702
  C       1.267488      0.080413      0.393538
  C      -0.983314      0.439706     -0.629322
  C      -0.037648     -1.796221     -0.444381
  C      -1.060588     -1.004600     -0.835411
  H       0.319027      1.876659      0.170027
  H       1.861397     -1.867466      0.432027
  H      -1.948420     -1.408291     -1.303509
  H      -0.041544     -2.873407     -0.573097
20
Coordinates from ORCA-job urea_uracil_opt_freq E -639.806511458572
  O       0.705728      4.742864      2.639074
  N       1.994895      2.850157      2.730714
  N       1.263980      3.668413      0.672679
  C       1.295828      3.825992      2.079520
  H       2.281067      1.998170      2.261811
  H       1.983103      2.904931      3.735054
  H       0.894551      4.508537      0.239345
  H       2.146792      3.385105      0.257195
  O       2.296075      0.473268      0.954227
  O      -1.805565      1.274397     -0.957688
  N       0.229053      0.858343      0.004205
  N       1.078116     -1.295140      0.167946
  C       1.267227      0.060693      0.415024
  C      -0.967975      0.445867     -0.635307
  C      -0.046445     -1.798887     -0.445893
  C      -1.056627     -0.996133     -0.847982
  H       0.340443      1.867176      0.183669
  H       1.840257     -1.894551      0.453931
  H      -1.941709     -1.391001     -1.328562
  H      -0.059759     -2.875607     -0.578286
20
Coordinates from ORCA-job urea_uracil_opt_freq E -639.806703211143
  O       0.667758      4.702144      2.657257
  N       2.093735      2.906508      2.706664
  N       1.240015      3.671120      0.674940
  C       1.301499      3.826925      2.079411
  H       2.324881      2.030566      2.249369
  H       2.032398      2.940278      3.713798
  H       0.798607      4.482802      0.255164
  H       2.123822      3.450049      0.225830
  O       2.275179      0.424838      1.022087
  O      -1.768646      1.295496     -0.977830
  N       0.236773      0.842749      0.027713
  N       1.057579     -1.322008      0.185545
  C       1.255495      0.029862      0.453552
  C      -0.950029      0.452088     -0.645662
  C      -0.057608     -1.804136     -0.460376
  C      -1.049841     -0.985896     -0.877016
  H       0.359119      1.849582      0.215909
  H       1.804675     -1.934369      0.483306
  H      -1.926699     -1.366986     -1.382911
  H      -0.079678     -2.879018     -0.606074
20
Coordinates from ORCA-job urea_uracil_opt_freq E -639.806865288174
  O       0.661973      4.712231      2.641456
  N       2.115959      2.938007      2.721834
  N       1.242868      3.650315      0.679768
  C       1.305351      3.834551      2.079403
  H       2.342239      2.052262      2.280938
  H       2.061126      2.976874      3.728831
  H       0.798667      4.450099      0.241480
  H       2.124798      3.416374      0.233882
  O       2.258712      0.425246      1.033451
  O      -1.780388      1.289490     -0.975786
  N       0.221132      0.839912      0.039534
  N       1.056962     -1.321354      0.174250
  C       1.245123      0.027302      0.457736
  C      -0.957777      0.449520     -0.643806
  C      -0.055903     -1.805139     -0.477220
  C      -1.051170     -0.987732     -0.887266
  H       0.343150      1.844407      0.232680
  H       1.803286     -1.934518      0.472030
  H      -1.925389     -1.366745     -1.399116
  H      -0.071682     -2.878508     -0.633402
20
Coordinates from ORCA-job urea_uracil_opt_freq E -639.806955610919
  O       0.652342      4.685792      2.674942
  N       2.160522      2.952193      2.710148
  N       1.230505      3.659371      0.692703
  C       1.308031      3.831019      2.093773
  H       2.362613      2.059527      2.261771
  H       2.113510      2.963394      3.720280
  H       0.761261      4.449692      0.263970
  H       2.114096      3.449274      0.238703
  O       2.239610      0.436275      1.044176
  O      -1.765388      1.282847     -1.033012
  N       0.216106      0.841145      0.023854
  N       1.046056     -1.320570      0.191480
  C       1.234007      0.028096      0.461629
  C      -0.949470      0.447125     -0.672292
  C      -0.062849     -1.811696     -0.465953
  C      -1.048721     -0.994109     -0.896998
  H       0.343820      1.846595      0.207465
  H       1.783981     -1.934170      0.508276
  H      -1.919420     -1.372537     -1.415196
  H      -0.081575     -2.886668     -0.609045
20
Coordinates from ORCA-job urea_uracil_opt_freq E -639.806972509859
  O       0.644380      4.682430      2.664517
  N       2.151526      2.948099      2.714328
  N       1.230592      3.643677      0.689392
  C       1.302013      3.824670      2.089885
  H       2.372705      2.061893      2.264706
  H       2.109358      2.963161      3.723165
  H       0.765570      4.430662      0.250237
  H       2.114937      3.418836      0.243686
  O       2.243686      0.442444      1.041371
  O      -1.768552      1.287139     -1.025514
  N       0.215719      0.847774      0.026928
  N       1.049048     -1.312785      0.189198
  C       1.236282      0.035239      0.460917
  C      -0.950101      0.452703     -0.667357
  C      -0.060622     -1.805542     -0.466163
  C      -1.048148     -0.988488     -0.893716
  H       0.339809      1.852651      0.212531
  H       1.789309     -1.925159      0.503208
  H      -1.920058     -1.366455     -1.410309
  H      -0.078417     -2.880353     -0.610333
20
Coordinates from ORCA-job urea_uracil_opt_freq E -639.806980967089
  O       0.643169      4.678734      2.671036
  N       2.159112      2.951665      2.709281
  N       1.228012      3.650154      0.689597
  C       1.303191      3.826329      2.091036
  H       2.375108      2.065810      2.257535
  H       2.113970      2.961611      3.718601
  H       0.760277      4.438979      0.256264
  H       2.113324      3.433404      0.241611
  O       2.240723      0.436328      1.048014
  O      -1.764373      1.287283     -1.030008
  N       0.216457      0.844668      0.027532
  N       1.046187     -1.317070      0.192291
  C       1.234410      0.030917      0.464594
  C      -0.948347      0.451296     -0.670098
  C      -0.062076     -1.808003     -0.466312
  C      -1.047335     -0.989659     -0.896857
  H       0.341225      1.849566      0.214330
  H       1.785124     -1.929962      0.508506
  H      -1.918270     -1.366610     -1.415871
  H      -0.080853     -2.882846     -0.610403
20
Coordinates from ORCA-job urea_uracil_opt_freq E -639.806987520820
  O       0.640554      4.672125      2.681384
  N       2.166797      2.953917      2.703867
  N       1.222121      3.657021      0.691587
  C       1.302670      3.826491      2.094031
  H       2.380970      2.069561      2.248676
  H       2.123731      2.958606      3.712847
  H       0.749328      4.446466      0.264810
  H       2.108014      3.449037      0.240591
  O       2.239184      0.430606      1.052665
  O      -1.756394      1.288380     -1.041140
  N       0.219266      0.842691      0.024673
  N       1.042558     -1.321047      0.197158
  C       1.233625      0.027210      0.466909
  C      -0.944270      0.450796     -0.676196
  C      -0.064914     -1.810444     -0.463584
  C      -1.046453     -0.990410     -0.899443
  H       0.346235      1.847954      0.209345
  H       1.779120     -1.934631      0.517516
  H      -1.916886     -1.366099     -1.420223
  H      -0.086219     -2.885637     -0.604796
